Image X[Pixel],Image Y[Pixel],Horizontal Displacement U[Pixel],Vertical Displacement V[Pixel],Correlation Coefficient: R,Sigma,Strain-global frame: Exx,Strain-global frame: Eyy,Strain-global frame: Exy,Maximum Principal Strain: EI,Minimum Principal Strain: EII,Shear Angle Gamma,Von Mises Equivalent Strain,
1210,580,0.052795,-16.402575,0.999998,0.000158,-0.002467,0.006236,-0.000477,0.006262,-0.002494,-86.871847,0.006305,
960,200,0.394956,-18.886404,0.999997,0.000233,-0.002199,0.007705,0.000605,0.007742,-0.002236,86.518157,0.007969,
980,1900,0.254888,-0.917059,0.999997,0.000208,-0.001421,0.007268,-0.000733,0.007330,-0.001482,-85.210397,0.007751,
1000,660,0.896329,-14.941365,0.999996,0.000245,-0.005892,0.010193,-0.002104,0.010463,-0.006163,-82.671193,0.010518,
910,1790,0.668130,-1.863468,0.999997,0.000213,-0.002740,0.008461,-0.000506,0.008484,-0.002763,-87.420124,0.008654,
1140,740,0.232471,-15.231959,0.999996,0.000272,-0.003836,0.006095,-0.003601,0.007263,-0.005004,-72.026809,0.007434,
1090,750,0.482837,-14.720594,0.999993,0.000317,-0.005747,0.008754,-0.003904,0.009738,-0.006731,-75.851260,0.009973,
1040,1280,0.866975,-6.171614,0.999995,0.000291,-0.007291,0.011334,0.002983,0.011800,-0.007757,81.119307,0.011993,
1190,1430,0.097854,-4.047526,0.999998,0.000188,-0.002542,0.005860,0.000932,0.005962,-0.002644,83.748170,0.005974,
980,1880,0.296018,-1.062888,0.999997,0.000193,-0.001661,0.007347,-0.000633,0.007391,-0.001705,-86.001966,0.007741,
900,1080,2.836042,-9.492887,0.999996,0.000253,-0.004030,0.011325,-0.001000,0.011390,-0.004095,-86.287923,0.011538,
620,900,3.891431,-11.225975,0.999996,0.000236,-0.004393,0.009028,0.000439,0.009042,-0.004407,88.129114,0.009043,
1240,1840,-0.011756,-1.234580,0.999998,0.000147,-0.001345,0.006721,-0.000033,0.006721,-0.001345,-89.764303,0.007113,
1030,370,0.494135,-17.631121,0.999997,0.000224,-0.002984,0.008171,-0.000389,0.008185,-0.002998,-88.003526,0.008282,
630,1980,0.559913,-0.571340,0.999994,0.000309,-0.004144,0.010634,-0.002794,0.011145,-0.004654,-79.643696,0.011195,
620,880,3.847031,-11.409229,0.999996,0.000246,-0.004508,0.009217,0.000527,0.009238,-0.004528,87.805782,0.009238,
800,1400,2.109701,-6.026038,0.999997,0.000217,-0.005891,0.010888,-0.000047,0.010889,-0.005891,-89.838941,0.010901,
940,1500,1.070265,-4.440996,0.999996,0.000236,-0.005110,0.009906,0.001166,0.009996,-0.005200,85.587194,0.009999,
1420,990,-2.193473,-10.911664,0.999978,0.000582,-0.008729,0.021195,0.003138,0.021521,-0.009055,84.077636,0.021611,
840,1800,0.867228,-1.899823,0.999997,0.000189,-0.003221,0.008985,-0.000767,0.009033,-0.003269,-86.419387,0.009147,
720,580,2.326418,-14.687032,0.999994,0.000270,-0.005386,0.010434,-0.000033,0.010434,-0.005386,-89.881113,0.010436,
760,800,2.877469,-12.430374,0.999996,0.000241,-0.005556,0.010791,0.001045,0.010858,-0.005623,86.357481,0.010860,
1140,720,0.234141,-15.349376,0.999996,0.000229,-0.003617,0.006214,-0.003269,0.007201,-0.004605,-73.186679,0.007294,
1750,1190,-3.356571,-8.479539,0.999996,0.000243,-0.004914,0.010108,0.001058,0.010182,-0.004988,85.990348,0.010183,
1620,1900,-0.503444,-1.021347,0.999997,0.000220,-0.002043,0.008267,0.001488,0.008477,-0.002253,81.951453,0.008782,
1710,790,-2.877483,-12.526457,0.999996,0.000246,-0.005557,0.010781,-0.000991,0.010841,-0.005617,-86.542034,0.010843,
1090,770,0.515547,-14.538924,0.999993,0.000323,-0.006053,0.009087,-0.004110,0.010131,-0.007096,-75.749530,0.010399,
560,1210,4.007606,-8.561966,0.999997,0.000000,-0.004410,0.009062,-0.000108,0.009063,-0.004411,-89.538792,0.009064,
980,1860,0.338715,-1.212441,0.999997,0.000211,-0.001825,0.007558,-0.000579,0.007593,-0.001861,-86.482168,0.007915,
1040,1320,0.769008,-5.735795,0.999995,0.000277,-0.006570,0.010535,0.003010,0.011049,-0.007084,80.303835,0.011195,
1190,1470,0.102225,-3.807188,0.999997,0.000216,-0.002576,0.006316,0.000662,0.006365,-0.002625,85.762438,0.006397,
900,1060,2.888340,-9.718040,0.999996,0.000260,-0.003770,0.011201,-0.000656,0.011230,-0.003798,-87.495424,0.011424,
660,1260,3.381536,-7.858642,0.999996,0.000249,-0.005014,0.010022,-0.000809,0.010065,-0.005057,-86.929201,0.010065,
1360,1820,-0.189455,-1.414385,0.999997,0.000183,-0.001618,0.007136,0.000137,0.007138,-0.001620,89.101509,0.007484,
830,500,1.530361,-15.880079,0.999995,0.000243,-0.005138,0.010126,-0.000463,0.010140,-0.005152,-88.263133,0.010140,
1570,680,-1.612149,-14.187676,0.999994,0.000292,-0.006454,0.011328,0.000584,0.011347,-0.006473,88.120231,0.011385,
1510,30,-0.029363,-20.088459,0.999998,0.000000,-0.000215,0.006427,-0.000903,0.006548,-0.000336,-82.393402,0.007374,
1790,1610,-2.181074,-4.229811,0.999996,0.000219,-0.005022,0.010149,-0.000167,0.010151,-0.005024,-89.367863,0.010151,
1410,1590,-0.503505,-3.249776,0.999996,0.000225,-0.003384,0.008107,-0.000943,0.008184,-0.003461,-85.341266,0.008217,
660,1300,3.238641,-7.455767,0.999997,0.000219,-0.005062,0.010036,-0.000663,0.010065,-0.005091,-87.491038,0.010066,
1130,560,0.274353,-16.389120,0.999997,0.000203,-0.003078,0.007180,-0.001260,0.007333,-0.003230,-83.096755,0.007350,
1230,410,0.004210,-17.568390,0.999997,0.000191,-0.002315,0.007065,-0.000018,0.007065,-0.002315,-89.889767,0.007203,
1710,990,-3.462689,-10.451043,0.999996,0.000253,-0.004256,0.009873,-0.000333,0.009880,-0.004263,-88.652064,0.009911,
1740,1150,-3.431462,-8.875675,0.999997,0.000219,-0.004717,0.009956,0.000935,0.010015,-0.004776,86.367805,0.010019,
1310,1770,-0.134145,-1.735728,0.999998,0.000170,-0.001763,0.007079,-0.000018,0.007079,-0.001763,-89.880919,0.007371,
1120,1680,0.257394,-2.425720,0.999997,0.000193,-0.002515,0.007496,0.000404,0.007512,-0.002531,87.692640,0.007644,
790,590,1.972322,-14.803579,0.999996,0.000201,-0.005573,0.010580,-0.000190,0.010583,-0.005576,-89.325524,0.010588,
980,370,0.646471,-17.535806,0.999997,0.000198,-0.003434,0.008492,-0.000401,0.008506,-0.003447,-88.076834,0.008556,
740,370,1.631822,-16.908173,0.999995,0.000259,-0.004800,0.009999,0.000037,0.009999,-0.004800,89.856654,0.010002,
700,790,3.160133,-12.430208,0.999996,0.000229,-0.005236,0.010273,0.000919,0.010327,-0.005291,86.621066,0.010328,
900,1040,2.909813,-9.940924,0.999997,0.000237,-0.003609,0.011049,-0.000330,0.011056,-0.003616,-88.712474,0.011275,
1220,1950,0.006567,-0.520481,0.999998,0.000159,-0.000627,0.006243,-0.000030,0.006244,-0.000627,-89.752299,0.006876,
690,1010,3.749418,-10.246261,0.999996,0.000211,-0.004307,0.009540,0.000297,0.009546,-0.004314,88.771141,0.009561,
1670,410,-1.495106,-16.664886,0.999995,0.000269,-0.004716,0.009920,0.000175,0.009922,-0.004718,89.313158,0.009926,
1190,220,0.056208,-18.886309,0.999998,0.000183,-0.001272,0.006733,0.000024,0.006734,-0.001273,89.829432,0.007155,
940,290,0.641906,-18.130987,0.999995,0.000244,-0.003000,0.008438,0.000224,0.008442,-0.003004,88.877906,0.008559,
960,1690,0.711965,-2.632352,0.999995,0.000293,-0.003645,0.008572,0.000405,0.008585,-0.003658,88.102212,0.008617,
1500,2020,-0.032547,-0.102571,0.999998,0.000000,-0.000398,0.006434,0.000779,0.006522,-0.000485,83.576428,0.007267,
1790,1590,-2.240030,-4.433961,0.999996,0.000221,-0.005088,0.010187,-0.000170,0.010189,-0.005090,-89.361176,0.010189,
830,950,3.058416,-10.893121,0.999995,0.000266,-0.004390,0.010589,0.001020,0.010658,-0.004459,86.121715,0.010706,
1360,1800,-0.211039,-1.561458,0.999997,0.000188,-0.001738,0.007176,0.000076,0.007176,-0.001738,89.513830,0.007488,
1150,1820,0.113503,-1.385435,0.999997,0.000205,-0.001457,0.006914,-0.000072,0.006915,-0.001458,-89.504983,0.007290,
980,1840,0.376079,-1.364832,0.999997,0.000209,-0.002036,0.007645,-0.000494,0.007670,-0.002061,-87.086998,0.007939,
1170,1950,0.030617,-0.523406,0.999998,0.000189,-0.000412,0.006287,-0.000186,0.006292,-0.000417,-88.415114,0.007037,
1480,1150,-2.048161,-8.369734,0.999991,0.000350,-0.006631,0.013820,0.000533,0.013834,-0.006645,88.508754,0.013838,
1700,160,-0.734404,-19.001167,0.999996,0.000227,-0.002844,0.009130,-0.001861,0.009413,-0.003127,-81.365614,0.009588,
600,130,1.175092,-18.856173,0.999995,0.000253,-0.004836,0.010637,0.001366,0.010757,-0.004956,84.994717,0.010768,
1780,230,-1.386250,-18.139252,0.999995,0.000250,-0.004615,0.010029,-0.000845,0.010078,-0.004663,-86.707278,0.010087,
1290,580,-0.148123,-16.357913,0.999997,0.000220,-0.002796,0.006578,0.001042,0.006693,-0.002911,83.734301,0.006712,
1120,1660,0.266142,-2.574875,0.999998,0.000195,-0.002613,0.007423,0.000523,0.007450,-0.002640,87.023384,0.007555,
1310,1750,-0.143258,-1.877117,0.999998,0.000154,-0.001930,0.007131,-0.000070,0.007132,-0.001930,-89.556032,0.007378,
1610,50,-0.110163,-19.947577,0.999998,0.000176,-0.000440,0.006927,-0.001596,0.007258,-0.000771,-78.286555,0.007973,
730,300,1.452103,-17.579475,0.999997,0.000222,-0.004514,0.009975,0.000380,0.009985,-0.004524,88.498925,0.010000,
1230,390,0.002775,-17.710776,0.999998,0.000182,-0.002258,0.007067,-0.000031,0.007067,-0.002258,-89.810396,0.007219,
700,770,3.086905,-12.635591,0.999995,0.000282,-0.005267,0.010331,0.000836,0.010376,-0.005312,86.939626,0.010377,
1610,500,-1.412900,-15.954795,0.999995,0.000295,-0.005011,0.010007,0.000569,0.010029,-0.005033,87.831822,0.010029,
1420,1000,-2.207499,-10.693306,0.999979,0.000622,-0.009162,0.022265,0.002479,0.022459,-0.009356,85.517308,0.022563,
940,1480,1.105430,-4.646693,0.999997,0.000193,-0.005367,0.010084,0.001231,0.010182,-0.005465,85.474619,0.010191,
1500,780,-1.465935,-13.337636,0.999992,0.000349,-0.007544,0.012513,0.000863,0.012550,-0.007581,87.539980,0.012641,
1060,290,0.322119,-18.307668,0.999996,0.000249,-0.002273,0.007562,-0.000048,0.007562,-0.002274,-89.720445,0.007760,
690,990,3.733109,-10.436818,0.999996,0.000230,-0.004333,0.009461,0.000270,0.009466,-0.004338,88.877075,0.009477,
830,990,3.149197,-10.470417,0.999997,0.000212,-0.004003,0.010372,0.000542,0.010392,-0.004024,87.843658,0.010480,
1610,960,-2.986802,-10.800056,0.999996,0.000228,-0.004266,0.010779,-0.001060,0.010853,-0.004341,-85.991154,0.010925,
1290,600,-0.146732,-16.227818,0.999998,0.000203,-0.002798,0.006344,0.001193,0.006497,-0.002951,82.688678,0.006506,
1170,220,0.081181,-18.881385,0.999998,0.000172,-0.001228,0.006764,0.000107,0.006765,-0.001229,89.236094,0.007208,
1380,1690,-0.338947,-2.395788,0.999997,0.000195,-0.002451,0.007656,-0.000261,0.007662,-0.002458,-88.519442,0.007825,
1480,850,-1.674487,-12.550227,0.999991,0.000348,-0.007661,0.013517,0.000276,0.013521,-0.007664,89.253092,0.013561,
1360,1780,-0.223381,-1.702580,0.999998,0.000189,-0.001865,0.007268,0.000045,0.007269,-0.001865,89.720421,0.007550,
1540,1160,-2.362718,-8.493040,0.999995,0.000255,-0.005993,0.012533,0.001369,0.012634,-0.006094,85.797644,0.012636,
1460,340,-0.538634,-17.824793,0.999997,0.000204,-0.002769,0.008102,0.000140,0.008104,-0.002771,89.261099,0.008238,
740,1730,1.491220,-2.801497,0.999996,0.000236,-0.004531,0.009900,-0.000239,0.009904,-0.004535,-89.050888,0.009916,
980,1820,0.415600,-1.522194,0.999997,0.000216,-0.002197,0.007824,-0.000415,0.007841,-0.002214,-87.631759,0.008085,
900,1020,2.916912,-10.164504,0.999997,0.000237,-0.003577,0.011028,0.000199,0.011031,-0.003580,89.220857,0.011255,
620,860,3.785391,-11.595876,0.999996,0.000213,-0.004621,0.009467,0.000652,0.009498,-0.004652,87.354131,0.009498,
1550,2020,-0.042374,-0.105544,0.999998,0.000000,0.000016,0.006553,0.001202,0.006767,-0.000198,79.904920,0.007702,
1870,440,-2.566817,-15.719248,0.999995,0.000262,-0.004947,0.010012,0.000097,0.010012,-0.004948,89.626996,0.010013,
1700,1810,-1.111270,-1.961035,0.999997,0.000199,-0.003867,0.009635,0.000931,0.009699,-0.003931,86.076152,0.009757,
1580,1560,-1.255515,-4.054923,0.999996,0.000249,-0.004962,0.009874,-0.000725,0.009909,-0.004997,-87.210748,0.009909,
1120,1640,0.271690,-2.723238,0.999998,0.000199,-0.002663,0.007432,0.000571,0.007464,-0.002695,86.775494,0.007559,
1840,100,-0.825894,-19.291540,0.999996,0.000222,-0.004660,0.010555,-0.002031,0.010822,-0.004926,-82.527070,0.010836,
760,1000,3.440285,-10.353925,0.999995,0.000249,-0.004249,0.009894,0.000341,0.009902,-0.004257,88.618152,0.009934,
1030,350,0.470473,-17.793619,0.999997,0.000219,-0.002879,0.007931,-0.000367,0.007943,-0.002891,-88.060053,0.008040,
1050,700,0.655721,-14.856470,0.999993,0.000313,-0.005792,0.009618,-0.002946,0.010162,-0.006336,-79.539419,0.010265,
1410,1570,-0.513150,-3.414648,0.999995,0.000272,-0.003454,0.008188,-0.001041,0.008281,-0.003547,-84.928877,0.008309,
1780,210,-1.288870,-18.340335,0.999996,0.000239,-0.004501,0.010109,-0.001080,0.010188,-0.004581,-85.794768,0.010206,
740,150,0.743055,-19.069972,0.999996,0.000206,-0.002723,0.009190,0.002121,0.009556,-0.003089,80.199844,0.009753,
680,790,3.263446,-12.392433,0.999996,0.000236,-0.005117,0.010152,0.000870,0.010202,-0.005166,86.749192,0.010202,
1260,1400,-0.062555,-4.198361,0.999998,0.000166,-0.002314,0.005321,-0.000776,0.005399,-0.002392,-84.255909,0.005411,
1780,270,-1.560705,-17.735048,0.999996,0.000238,-0.004745,0.010056,-0.000473,0.010071,-0.004760,-88.172068,0.010076,
750,130,0.613261,-19.251106,0.999996,0.000212,-0.002139,0.008857,0.002332,0.009331,-0.002613,78.505773,0.009627,
1170,1930,0.042865,-0.651608,0.999998,0.000180,-0.000560,0.006397,-0.000172,0.006402,-0.000565,-88.586216,0.007088,
1230,370,0.004423,-17.852764,0.999998,0.000179,-0.002207,0.007049,-0.000022,0.007049,-0.002207,-89.861423,0.007211,
1310,1400,-0.194271,-4.338215,0.999998,0.000181,-0.002979,0.006274,-0.001966,0.006674,-0.003379,-78.490879,0.006675,
1340,1630,-0.267593,-2.793412,0.999996,0.000232,-0.002703,0.007434,-0.000585,0.007468,-0.002737,-86.709817,0.007556,
1790,1790,-1.588419,-2.407065,0.999997,0.000227,-0.004739,0.010120,0.000565,0.010141,-0.004760,87.824479,0.010148,
1750,1390,-2.637488,-6.387340,0.999995,0.000289,-0.005503,0.010524,0.000385,0.010533,-0.005512,88.625594,0.010537,
870,1240,2.284766,-7.659058,0.999994,0.000312,-0.006455,0.012035,-0.000938,0.012083,-0.006502,-87.103565,0.012094,
1500,760,-1.385160,-13.588114,0.999992,0.000339,-0.007374,0.012236,0.001083,0.012295,-0.007434,86.848421,0.012385,
940,1460,1.138280,-4.850750,0.999996,0.000228,-0.005528,0.010209,0.001271,0.010311,-0.005630,85.411417,0.010326,
790,570,1.917153,-15.016539,0.999996,0.000223,-0.005456,0.010483,-0.000253,0.010487,-0.005460,-89.089693,0.010490,
1890,1510,-2.979644,-5.567771,0.999996,0.000242,-0.005049,0.010200,0.000008,0.010200,-0.005049,89.968825,0.010200,
690,970,3.717044,-10.626826,0.999995,0.000244,-0.004401,0.009479,0.000366,0.009488,-0.004411,88.489533,0.009496,
1420,1010,-2.226685,-10.467822,0.999961,0.000879,-0.009488,0.022792,0.001640,0.022876,-0.009571,87.099283,0.022977,
1500,370,-0.708150,-17.491807,0.999997,0.000250,-0.003646,0.008589,0.000427,0.008604,-0.003661,88.003729,0.008635,
1270,1820,-0.054255,-1.375582,0.999998,0.000218,-0.001397,0.006866,0.000041,0.006866,-0.001397,89.717826,0.007257,
860,680,1.824907,-14.059674,0.999997,0.000204,-0.006303,0.011224,-0.000248,0.011228,-0.006306,-89.188660,0.011256,
870,1370,1.777906,-6.121465,0.999996,0.000247,-0.006381,0.011347,0.000337,0.011354,-0.006388,88.912073,0.011383,
850,360,1.116114,-17.306819,0.999997,0.000203,-0.003951,0.009382,0.000037,0.009382,-0.003951,89.841931,0.009420,
1670,390,-1.443165,-16.863925,0.999995,0.000270,-0.004661,0.009852,0.000135,0.009853,-0.004662,89.468817,0.009858,
800,470,1.611104,-16.084146,0.999996,0.000223,-0.005016,0.010114,-0.000340,0.010121,-0.005024,-88.714589,0.010121,
1310,1730,-0.153118,-2.018527,0.999998,0.000179,-0.002039,0.007168,-0.000098,0.007169,-0.002040,-89.393113,0.007387,
1630,170,-0.585770,-18.999774,0.999996,0.000232,-0.002232,0.008434,-0.001457,0.008630,-0.002427,-82.357605,0.008901,
1730,960,-3.512022,-10.742431,0.999996,0.000222,-0.004438,0.009903,-0.000707,0.009938,-0.004472,-87.183829,0.009955,
1420,1750,-0.383118,-1.990373,0.999997,0.000223,-0.002632,0.007670,-0.000137,0.007672,-0.002634,-89.239637,0.007796,
1360,1690,-0.290364,-2.370649,0.999997,0.000235,-0.002422,0.007553,-0.000298,0.007562,-0.002431,-88.290983,0.007721,
1540,1140,-2.478141,-8.745691,0.999995,0.000268,-0.005510,0.012361,0.001457,0.012479,-0.005628,85.370312,0.012499,
1360,1980,-0.044520,-0.342144,0.999998,0.000167,-0.000354,0.006273,0.000382,0.006295,-0.000376,86.710379,0.007061,
1600,50,-0.103910,-19.948926,0.999998,0.000198,-0.000557,0.006873,-0.001508,0.007167,-0.000851,-78.955670,0.007831,
1740,520,-2.137265,-15.322434,0.999996,0.000246,-0.005214,0.010285,0.000167,0.010286,-0.005216,89.382161,0.010287,
1600,890,-2.679528,-11.592893,0.999996,0.000293,-0.005432,0.011563,-0.001455,0.011686,-0.005556,-85.141332,0.011691,
610,1120,4.011888,-9.262502,0.999997,0.000191,-0.004332,0.008994,-0.000477,0.009011,-0.004349,-87.953069,0.009013,
1290,640,-0.141728,-15.978954,0.999997,0.000196,-0.002765,0.005939,0.001541,0.006204,-0.003030,80.251024,0.006204,
610,1040,4.097661,-9.968822,0.999997,0.000220,-0.004183,0.008792,-0.000188,0.008795,-0.004186,-89.170191,0.008798,
980,1800,0.452796,-1.679110,0.999997,0.000220,-0.002390,0.007928,-0.000316,0.007938,-0.002400,-88.245972,0.008142,
1890,1690,-2.436390,-3.759757,0.999996,0.000248,-0.004994,0.009773,-0.000038,0.009773,-0.004995,-89.853022,0.009774,
1870,430,-2.537716,-15.819749,0.999996,0.000243,-0.004952,0.009986,0.000099,0.009987,-0.004952,89.620457,0.009987,
840,1470,1.679439,-5.131574,0.999996,0.000217,-0.005637,0.010573,0.000501,0.010588,-0.005652,88.230242,0.010596,
1860,1760,-2.042980,-2.955382,0.999997,0.000221,-0.004852,0.009866,0.000035,0.009866,-0.004852,89.862393,0.009867,
730,260,1.297841,-17.979370,0.999995,0.000265,-0.004282,0.009887,0.000760,0.009928,-0.004323,86.940189,0.009955,
1450,1280,-1.067197,-6.405952,0.999994,0.000262,-0.007512,0.012080,-0.002228,0.012331,-0.007763,-83.593189,0.012468,
980,350,0.617457,-17.703315,0.999997,0.000194,-0.003232,0.008296,-0.000297,0.008304,-0.003240,-88.524275,0.008370,
750,150,0.715928,-19.082489,0.999997,0.000202,-0.002527,0.009088,0.002080,0.009449,-0.002889,80.148375,0.009684,
620,840,3.722957,-11.787549,0.999996,0.000220,-0.004686,0.009445,0.000610,0.009472,-0.004712,87.532897,0.009472,
1720,110,-0.507916,-19.433933,0.999997,0.000224,-0.001830,0.008719,-0.002491,0.009277,-0.002388,-77.359688,0.009634,
900,1000,2.891723,-10.386495,0.999997,0.000213,-0.003719,0.011143,0.000569,0.011165,-0.003741,87.811369,0.011365,
1890,1710,-2.366281,-3.565118,0.999995,0.000240,-0.004991,0.009738,-0.000035,0.009738,-0.004991,-89.864178,0.009739,
1070,740,0.586933,-14.632116,0.999992,0.000321,-0.006067,0.009540,-0.003609,0.010335,-0.006861,-77.588925,0.010518,
1580,1540,-1.294560,-4.254453,0.999996,0.000264,-0.005062,0.010005,-0.000734,0.010041,-0.005097,-87.215787,0.010041,
1230,350,0.001977,-17.992302,0.999998,0.000183,-0.002158,0.006994,-0.000009,0.006994,-0.002158,-89.941220,0.007163,
1410,1550,-0.524990,-3.577409,0.999995,0.000254,-0.003573,0.008226,-0.001155,0.008337,-0.003685,-84.463171,0.008356,
1120,1620,0.281678,-2.872094,0.999998,0.000184,-0.002715,0.007420,0.000612,0.007457,-0.002751,86.557666,0.007541,
1050,1500,0.562903,-4.002934,0.999996,0.000231,-0.004174,0.008428,0.001699,0.008653,-0.004399,82.454154,0.008654,
1320,1630,-0.214568,-2.760385,0.999997,0.000201,-0.002671,0.007345,-0.000589,0.007380,-0.002706,-86.648109,0.007467,
1890,620,-3.212482,-13.825207,0.999997,0.000219,-0.005072,0.010113,-0.000088,0.010113,-0.005073,-89.666441,0.010113,
660,550,2.553721,-14.812475,0.999994,0.000284,-0.005178,0.010232,-0.000044,0.010232,-0.005178,-89.837482,0.010232,
1460,320,-0.507225,-17.991294,0.999997,0.000211,-0.002608,0.008092,0.000013,0.008092,-0.002608,89.929335,0.008261,
1170,1910,0.049126,-0.780115,0.999998,0.000173,-0.000688,0.006465,-0.000157,0.006468,-0.000691,-88.743480,0.007103,
860,660,1.762459,-14.279381,0.999996,0.000212,-0.006185,0.011157,-0.000360,0.011165,-0.006193,-88.812164,0.011187,
790,550,1.865683,-15.224560,0.999995,0.000258,-0.005383,0.010458,-0.000327,0.010464,-0.005390,-88.819564,0.010466,
590,1560,2.746062,-5.007720,0.999996,0.000225,-0.005063,0.010077,0.000056,0.010077,-0.005063,89.786277,0.010077,
610,210,1.628786,-18.083743,0.999996,0.000260,-0.004862,0.010088,0.000379,0.010098,-0.004871,88.547272,0.010100,
1500,350,-0.675822,-17.663195,0.999997,0.000212,-0.003512,0.008494,0.000320,0.008503,-0.003520,88.473277,0.008545,
590,540,2.878246,-14.696915,0.999997,0.000206,-0.005035,0.010182,-0.000020,0.010183,-0.005035,-89.926557,0.010183,
1710,960,-3.422997,-10.751173,0.999997,0.000214,-0.004420,0.010029,-0.000788,0.010072,-0.004463,-86.889351,0.010094,
1020,2000,0.049633,-0.223047,0.999998,0.000152,-0.000278,0.006356,-0.000645,0.006418,-0.000340,-84.500533,0.007223,
1700,140,-0.634804,-19.185993,0.999997,0.000226,-0.002429,0.008797,-0.002014,0.009148,-0.002779,-80.130489,0.009379,
1500,740,-1.317526,-13.833044,0.999993,0.000297,-0.007172,0.011862,0.001274,0.011947,-0.007257,86.188263,0.012039,
940,1440,1.171930,-5.055208,0.999996,0.000256,-0.005689,0.010336,0.001244,0.010432,-0.005785,85.587695,0.010452,
690,950,3.685183,-10.819899,0.999996,0.000245,-0.004487,0.009650,0.000693,0.009684,-0.004521,87.200826,0.009691,
1820,1320,-3.254005,-7.295169,0.999997,0.000200,-0.005032,0.010018,0.000544,0.010038,-0.005052,87.931996,0.010038,
1540,1120,-2.578051,-8.989185,0.999995,0.000289,-0.005020,0.012129,0.001431,0.012247,-0.005139,85.261545,0.012300,
1460,1210,-1.487163,-7.388423,0.999991,0.000367,-0.007834,0.013515,-0.001093,0.013570,-0.007890,-87.077463,0.013630,
850,340,1.065899,-17.498361,0.999997,0.000202,-0.003851,0.009469,0.000131,0.009470,-0.003852,89.437079,0.009525,
1210,1440,0.050030,-3.968811,0.999998,0.000168,-0.002397,0.005793,0.000541,0.005828,-0.002432,86.238866,0.005855,
1260,1380,-0.061894,-4.300038,0.999998,0.000169,-0.002262,0.004979,-0.000939,0.005099,-0.002382,-82.727527,0.005103,
1840,80,-0.640940,-19.496714,0.999995,0.000262,-0.004523,0.010897,-0.002598,0.011323,-0.004949,-80.688723,0.011353,
840,50,0.115786,-19.945509,0.999996,0.000232,-0.000340,0.006999,0.001707,0.007377,-0.000717,77.525962,0.008135,
1670,1620,-1.557823,-3.743766,0.999996,0.000235,-0.004811,0.009986,-0.000261,0.009990,-0.004815,-88.987879,0.009992,
980,1780,0.490807,-1.837731,0.999996,0.000235,-0.002553,0.008006,-0.000209,0.008010,-0.002557,-88.864502,0.008183,
1880,1690,-2.384335,-3.727076,0.999997,0.000209,-0.004982,0.009816,-0.000044,0.009816,-0.004982,-89.829640,0.009817,
1350,570,-0.330084,-16.269517,0.999996,0.000226,-0.003449,0.007431,0.001642,0.007674,-0.003691,81.600013,0.007676,
1070,1730,0.334908,-2.104262,0.999997,0.000204,-0.002331,0.007592,0.000110,0.007593,-0.002332,89.367508,0.007779,
900,980,2.853528,-10.609198,0.999996,0.000257,-0.003941,0.011307,0.000938,0.011364,-0.003998,86.491637,0.011529,
1890,1700,-2.400764,-3.662696,0.999995,0.000249,-0.005018,0.009736,-0.000030,0.009736,-0.005018,-89.883843,0.009738,
1440,670,-0.776395,-14.975119,0.999995,0.000304,-0.005721,0.009863,0.002415,0.010229,-0.006087,81.388376,0.010290,
1330,1820,-0.141804,-1.395046,0.999998,0.000156,-0.001628,0.006999,0.000018,0.006999,-0.001628,89.881594,0.007325,
580,1110,4.160039,-9.389234,0.999997,0.000222,-0.003991,0.008430,-0.000184,0.008433,-0.003994,-89.151061,0.008437,
870,1350,1.840280,-6.350420,0.999996,0.000224,-0.006480,0.011519,0.000170,0.011520,-0.006482,89.457697,0.011550,
1290,620,-0.144677,-16.102497,0.999998,0.000183,-0.002789,0.006136,0.001368,0.006341,-0.002994,81.478246,0.006345,
1580,1150,-2.643947,-8.708644,0.999995,0.000268,-0.005336,0.011720,0.001458,0.011844,-0.005460,85.147890,0.011856,
1240,1860,-0.011836,-1.098767,0.999998,0.000173,-0.001212,0.006624,-0.000011,0.006624,-0.001212,-89.917638,0.007054,
1470,100,-0.137773,-19.634648,0.999997,0.000212,-0.000679,0.006789,-0.000785,0.006871,-0.000761,-84.060511,0.007533,
560,1200,4.039100,-8.653266,0.999996,0.000000,-0.004239,0.008919,-0.000067,0.008919,-0.004240,-89.710303,0.008923,
1860,1740,-2.118186,-3.157977,0.999997,0.000220,-0.004863,0.009962,-0.000052,0.009962,-0.004863,-89.798492,0.009963,
1650,1650,-1.388470,-3.385475,0.999996,0.000249,-0.004648,0.009835,-0.000228,0.009838,-0.004652,-89.097953,0.009843,
1670,590,-1.954533,-14.816928,0.999997,0.000209,-0.005570,0.010564,0.000214,0.010567,-0.005573,89.241532,0.010572,
750,170,0.826027,-18.890198,0.999996,0.000222,-0.002934,0.009315,0.001865,0.009592,-0.003212,81.533673,0.009765,
730,540,2.157279,-15.136686,0.999996,0.000222,-0.005286,0.010352,-0.000162,0.010354,-0.005288,-89.407918,0.010355,
1230,330,0.002962,-18.132234,0.999998,0.000178,-0.002050,0.007037,-0.000014,0.007037,-0.002050,-89.909802,0.007238,
1050,740,0.712435,-14.458761,0.999993,0.000294,-0.006483,0.010299,-0.003248,0.010905,-0.007089,-79.419857,0.011068,
620,1310,3.403263,-7.451034,0.999996,0.000244,-0.004942,0.009866,-0.000470,0.009881,-0.004957,-88.182780,0.009881,
1120,1600,0.287214,-3.020465,0.999998,0.000177,-0.002776,0.007419,0.000693,0.007466,-0.002823,86.130021,0.007540,
1880,620,-3.162232,-13.856918,0.999996,0.000232,-0.005074,0.010130,-0.000071,0.010131,-0.005074,-89.731606,0.010131,
1680,790,-2.707826,-12.587837,0.999994,0.000315,-0.005759,0.011096,-0.001025,0.011159,-0.005821,-86.534047,0.011162,
1550,1600,-1.044647,-3.572765,0.999998,0.000175,-0.004450,0.009445,-0.000675,0.009477,-0.004482,-87.224577,0.009482,
800,450,1.559385,-16.290008,0.999998,0.000180,-0.004874,0.010051,-0.000294,0.010056,-0.004880,-88.873080,0.010058,
860,1410,1.720518,-5.708998,0.999994,0.000271,-0.006098,0.011062,0.000466,0.011075,-0.006110,88.445323,0.011094,
1520,630,-1.182612,-14.963213,0.999996,0.000248,-0.005864,0.010467,0.001291,0.010568,-0.005965,85.506019,0.010597,
1310,1710,-0.160125,-2.163896,0.999998,0.000183,-0.002151,0.007177,-0.000150,0.007180,-0.002153,-89.079918,0.007369,
1520,790,-1.659077,-13.100115,0.999993,0.000289,-0.007424,0.012619,0.000309,0.012624,-0.007429,89.116527,0.012690,
1590,1020,-3.011312,-10.160922,0.999996,0.000251,-0.003702,0.010784,-0.000173,0.010786,-0.003704,-89.314868,0.010961,
920,1750,0.730362,-2.192525,0.999997,0.000211,-0.003048,0.008561,-0.000211,0.008565,-0.003052,-88.957426,0.008682,
1170,1890,0.059783,-0.910294,0.999998,0.000155,-0.000842,0.006518,-0.000149,0.006521,-0.000845,-88.841746,0.007092,
1030,330,0.451250,-17.948977,0.999997,0.000217,-0.002784,0.007904,-0.000197,0.007908,-0.002787,-88.946363,0.008022,
1410,1750,-0.355259,-1.975014,0.999997,0.000237,-0.002543,0.007602,-0.000129,0.007603,-0.002545,-89.274321,0.007741,
1540,1100,-2.674762,-9.233411,0.999995,0.000284,-0.004503,0.011927,0.001268,0.012024,-0.004601,85.611983,0.012134,
1010,2010,0.041338,-0.162724,0.999999,0.000133,-0.000151,0.006306,-0.000665,0.006374,-0.000219,-84.184446,0.007237,
1700,120,-0.533739,-19.355810,0.999996,0.000236,-0.002062,0.008694,-0.002312,0.009170,-0.002538,-78.369524,0.009470,
610,190,1.522948,-18.282890,0.999995,0.000273,-0.004881,0.010125,0.000573,0.010147,-0.004903,87.815755,0.010149,
1400,1210,-1.023163,-6.733509,0.999995,0.000258,-0.007401,0.011667,-0.003110,0.012162,-0.007895,-80.968014,0.012341,
590,980,4.152634,-10.487666,0.999997,0.000218,-0.004013,0.008433,0.000037,0.008433,-0.004013,89.831351,0.008436,
870,1330,1.910158,-6.584512,0.999995,0.000249,-0.006566,0.011670,-0.000002,0.011670,-0.006566,-89.995045,0.011700,
1460,300,-0.480537,-18.147820,0.999996,0.000217,-0.002460,0.007921,-0.000110,0.007922,-0.002461,-89.394856,0.008109,
1580,1520,-1.333632,-4.456564,0.999996,0.000252,-0.005172,0.010128,-0.000769,0.010166,-0.005210,-87.130114,0.010168,
860,640,1.704650,-14.508647,0.999995,0.000258,-0.006079,0.011040,-0.000469,0.011053,-0.006092,-88.430690,0.011072,
1670,1600,-1.609288,-3.945864,0.999999,0.000143,-0.004929,0.010067,-0.000300,0.010073,-0.004935,-88.853344,0.010073,
580,1560,2.796774,-5.037778,0.999996,0.000218,-0.005110,0.010037,0.000052,0.010037,-0.005111,89.803856,0.010038,
580,540,2.929250,-14.666875,0.999996,0.000224,-0.004989,0.010159,-0.000032,0.010159,-0.004989,-89.880125,0.010160,
920,490,1.070454,-16.276826,0.999998,0.000216,-0.004572,0.009550,-0.000804,0.009596,-0.004618,-86.751716,0.009598,
1490,1460,-0.958488,-4.700690,0.999997,0.000208,-0.005247,0.009857,-0.001524,0.010009,-0.005400,-84.294503,0.010019,
1500,720,-1.255953,-14.067763,0.999995,0.000270,-0.006935,0.011544,0.001428,0.011654,-0.007045,85.608692,0.011738,
790,530,1.814665,-15.438313,0.999995,0.000250,-0.005296,0.010368,-0.000343,0.010376,-0.005303,-88.745683,0.010377,
940,1420,1.209829,-5.262583,0.999996,0.000250,-0.005934,0.010561,0.001271,0.010659,-0.006032,85.618767,0.010689,
690,930,3.640537,-11.015221,0.999996,0.000241,-0.004539,0.009640,0.000747,0.009679,-0.004579,86.992038,0.009684,
1870,1690,-2.334165,-3.691778,0.999996,0.000227,-0.004953,0.009871,-0.000063,0.009872,-0.004953,-89.755800,0.009872,
1400,420,-0.437973,-17.298031,0.999996,0.000227,-0.003203,0.007969,0.000774,0.008022,-0.003256,86.055383,0.008069,
1650,1670,-1.337839,-3.188207,0.999996,0.000244,-0.004597,0.009759,-0.000129,0.009760,-0.004598,-89.483297,0.009765,
1820,1340,-3.183736,-7.089620,0.999996,0.000224,-0.005055,0.010090,0.000480,0.010105,-0.005070,88.188092,0.010105,
1070,1710,0.354968,-2.257485,0.999997,0.000208,-0.002498,0.007656,0.000230,0.007661,-0.002504,88.705835,0.007813,
1840,60,-0.450325,-19.728624,0.999993,0.000333,-0.004290,0.010230,-0.002835,0.010764,-0.004824,-79.334432,0.010784,
1880,1700,-2.349692,-3.627865,0.999996,0.000219,-0.004993,0.009798,-0.000051,0.009798,-0.004993,-89.803420,0.009799,
1870,620,-3.111372,-13.888257,0.999996,0.000264,-0.005045,0.010142,-0.000069,0.010142,-0.005045,-89.740710,0.010142,
1290,220,-0.079417,-18.882532,0.999998,0.000193,-0.001225,0.006781,-0.000103,0.006782,-0.001227,-89.263619,0.007228,
1870,500,-2.745772,-15.113158,0.999995,0.000236,-0.005035,0.010106,0.000035,0.010106,-0.005035,89.867872,0.010106,
1610,1290,-2.175197,-7.112098,0.999993,0.000307,-0.006487,0.011704,0.000549,0.011720,-0.006504,88.272759,0.011744,
570,1110,4.201134,-9.402164,0.999975,0.000629,-0.003899,0.008214,-0.000170,0.008216,-0.003901,-89.194611,0.008220,
1780,110,-0.687176,-19.344155,0.999996,0.000241,-0.003226,0.009690,-0.002634,0.010206,-0.003743,-78.904289,0.010326,
730,160,0.825648,-18.963049,0.999996,0.000234,-0.003300,0.009488,0.001882,0.009759,-0.003571,81.798516,0.009876,
1240,1900,-0.008070,-0.839567,0.999998,0.000157,-0.000918,0.006488,0.000011,0.006488,-0.000918,89.916755,0.007022,
1120,1580,0.294137,-3.170661,0.999997,0.000188,-0.002844,0.007404,0.000778,0.007462,-0.002903,85.683701,0.007523,
1290,560,-0.148020,-16.491290,0.999997,0.000203,-0.002773,0.006685,0.000906,0.006771,-0.002859,84.578320,0.006798,
830,50,0.119945,-19.944177,0.999997,0.000198,-0.000367,0.007057,0.001800,0.007470,-0.000780,77.067467,0.008212,
770,1830,1.002390,-1.750446,0.999997,0.000198,-0.003690,0.009419,-0.001057,0.009504,-0.003774,-85.419560,0.009571,
1310,1910,-0.060035,-0.779016,0.999998,0.000149,-0.000777,0.006499,0.000176,0.006504,-0.000781,88.611544,0.007102,
1860,1720,-2.184612,-3.357109,0.999996,0.000211,-0.004859,0.009895,-0.000135,0.009896,-0.004860,-89.477361,0.009897,
1050,720,0.680388,-14.662193,0.999995,0.000248,-0.006122,0.009947,-0.003092,0.010522,-0.006696,-79.475456,0.010652,
1480,1330,-1.131663,-6.030339,0.999991,0.000355,-0.006985,0.011469,-0.001801,0.011643,-0.007159,-84.478732,0.011745,
1690,1280,-2.705198,-7.426612,0.999996,0.000218,-0.005772,0.011017,0.000933,0.011069,-0.005824,86.829648,0.011074,
1530,1600,-0.954299,-3.507661,0.999998,0.000195,-0.004397,0.009328,-0.000759,0.009370,-0.004438,-86.844646,0.009374,
1170,1870,0.065970,-1.041229,0.999998,0.000177,-0.000977,0.006621,-0.000142,0.006624,-0.000980,-88.933032,0.007150,
1080,350,0.335530,-17.873984,0.999998,0.000200,-0.002373,0.007568,-0.000220,0.007573,-0.002378,-88.732033,0.007745,
1580,1500,-1.371565,-4.659945,0.999995,0.000273,-0.005388,0.010249,-0.000778,0.010288,-0.005427,-87.158648,0.010293,
1740,560,-2.254042,-14.905719,0.999995,0.000266,-0.005336,0.010375,0.000087,0.010375,-0.005336,89.681757,0.010377,
980,1760,0.525905,-2.000642,0.999997,0.000225,-0.002747,0.008091,-0.000102,0.008092,-0.002748,-89.458540,0.008230,
1030,310,0.421734,-18.111344,0.999996,0.000227,-0.002631,0.007812,-0.000113,0.007814,-0.002632,-89.378659,0.007951,
1230,310,0.001827,-18.273756,0.999998,0.000169,-0.001946,0.006985,-0.000024,0.006985,-0.001946,-89.845292,0.007209,
1540,1300,-1.659114,-6.724082,0.999994,0.000266,-0.007132,0.012180,-0.000383,0.012188,-0.007139,-88.863360,0.012247,
610,170,1.396911,-18.490961,0.999995,0.000268,-0.004888,0.010332,0.000772,0.010371,-0.004927,87.103353,0.010376,
1460,280,-0.444066,-18.309462,0.999996,0.000220,-0.002304,0.007928,-0.000229,0.007934,-0.002309,-88.720000,0.008161,
1640,450,-1.451397,-16.358961,0.999996,0.000236,-0.004818,0.009909,0.000361,0.009918,-0.004827,88.594973,0.009919,
1260,1360,-0.056040,-4.393860,0.999998,0.000180,-0.002204,0.004603,-0.001094,0.004774,-0.002375,-81.092808,0.004774,
580,980,4.192764,-10.482030,0.999996,0.000220,-0.003597,0.008336,-0.000114,0.008337,-0.003598,-89.450716,0.008363,
900,960,2.791394,-10.837458,0.999994,0.000271,-0.004343,0.011370,0.001161,0.011455,-0.004429,85.797594,0.011553,
860,620,1.651521,-14.726133,0.999995,0.000256,-0.005939,0.010746,-0.000565,0.010765,-0.005958,-88.062678,0.010785,
920,330,0.780627,-17.751030,0.999996,0.000249,-0.003221,0.008866,0.000089,0.008867,-0.003222,89.580039,0.008976,
1700,730,-2.590582,-13.204206,0.999994,0.000286,-0.005810,0.010914,-0.000654,0.010939,-0.005836,-87.764616,0.010947,
1650,1690,-1.282536,-2.989637,0.999996,0.000229,-0.004517,0.009656,-0.000026,0.009656,-0.004517,-89.896350,0.009662,
1510,1340,-1.313734,-6.091410,0.999993,0.000334,-0.006909,0.011571,-0.001292,0.011661,-0.006999,-86.020592,0.011739,
630,1180,3.786727,-8.689751,0.999996,0.000251,-0.004597,0.009376,-0.000628,0.009404,-0.004625,-87.431146,0.009404,
1650,1620,-1.463990,-3.683503,0.999996,0.000243,-0.004734,0.009901,-0.000293,0.009906,-0.004740,-88.853774,0.009910,
1820,1360,-3.110609,-6.888802,0.999997,0.000217,-0.005098,0.010129,0.000418,0.010141,-0.005110,88.429041,0.010141,
1400,460,-0.465104,-16.975796,0.999996,0.000239,-0.003397,0.008026,0.000960,0.008106,-0.003477,85.231554,0.008133,
1350,550,-0.324854,-16.417566,0.999997,0.000207,-0.003333,0.007452,0.001435,0.007640,-0.003520,82.550719,0.007648,
560,1300,3.751029,-7.731611,0.999821,0.000000,-0.005876,0.008760,0.000591,0.008784,-0.005900,87.691142,0.008955,
820,1890,0.591155,-1.127215,0.999997,0.000196,-0.002330,0.008546,-0.001532,0.008758,-0.002542,-82.133853,0.009011,
700,1660,1.902818,-3.634211,0.999996,0.000233,-0.004922,0.010129,0.000108,0.010129,-0.004923,89.589959,0.010131,
1000,2010,0.042078,-0.162247,0.999998,0.000147,-0.000131,0.006326,-0.000735,0.006409,-0.000214,-83.583065,0.007280,
1700,100,-0.418598,-19.535174,0.999996,0.000222,-0.001637,0.008304,-0.002291,0.008807,-0.002139,-77.626940,0.009187,
1380,1210,-0.880870,-6.462125,0.999992,0.000331,-0.006795,0.010485,-0.004105,0.011411,-0.007721,-77.292819,0.011646,
1500,700,-1.205286,-14.297287,0.999996,0.000267,-0.006700,0.011343,0.001520,0.011471,-0.006827,85.217009,0.011540,
1700,490,-1.848799,-15.761830,0.999997,0.000209,-0.005151,0.010228,0.000284,0.010233,-0.005156,88.942456,0.010233,
690,910,3.597922,-11.207564,0.999997,0.000235,-0.004620,0.009616,0.000737,0.009654,-0.004658,87.046044,0.009656,
1870,1700,-2.300053,-3.592723,0.999996,0.000231,-0.004944,0.009857,-0.000078,0.009857,-0.004944,-89.697218,0.009857,
940,1400,1.250455,-5.477435,0.999996,0.000252,-0.006188,0.010869,0.001305,0.010968,-0.006287,85.651222,0.011007,
1720,1800,-1.229203,-2.100877,0.999997,0.000212,-0.004001,0.009812,0.000916,0.009872,-0.004061,86.224047,0.009924,
1890,1090,-4.209069,-9.561458,0.999995,0.000251,-0.004128,0.008112,-0.000069,0.008112,-0.004128,-89.676264,0.008113,
1840,260,-1.803209,-17.630460,0.999996,0.000243,-0.004838,0.010078,-0.000200,0.010080,-0.004840,-89.230621,0.010083,
1650,640,-1.987455,-14.340620,0.999996,0.000240,-0.005868,0.010911,0.000122,0.010911,-0.005869,89.582812,0.010922,
970,1500,0.925283,-4.326357,0.999998,0.000161,-0.004890,0.009570,0.001362,0.009697,-0.005017,84.666561,0.009699,
650,610,2.791332,-14.163306,0.999996,0.000235,-0.005201,0.010252,0.000159,0.010254,-0.005202,89.411431,0.010254,
770,1810,1.084269,-1.947115,0.999997,0.000216,-0.003903,0.009574,-0.000881,0.009632,-0.003960,-86.273852,0.009682,
1090,740,0.470349,-14.810267,0.999994,0.000284,-0.005579,0.008592,-0.003799,0.009546,-0.006533,-75.900381,0.009760,
1170,1850,0.076977,-1.175898,0.999998,0.000185,-0.001140,0.006760,-0.000156,0.006763,-0.001143,-88.866261,0.007240,
780,130,0.543400,-19.285006,0.999997,0.000200,-0.002432,0.008491,0.001897,0.008811,-0.002752,80.421649,0.009015,
570,540,2.980063,-14.635651,0.999995,0.000284,-0.004963,0.010130,-0.000051,0.010130,-0.004963,-89.807810,0.010130,
1780,920,-3.651613,-11.103785,0.999996,0.000221,-0.004576,0.009554,-0.000697,0.009589,-0.004610,-87.183513,0.009591,
1120,1560,0.298339,-3.318960,0.999997,0.000175,-0.002916,0.007423,0.000879,0.007498,-0.002990,85.176760,0.007549,
1290,540,-0.149351,-16.625656,0.999997,0.000178,-0.002733,0.006795,0.000770,0.006857,-0.002795,85.406639,0.006896,
1230,290,0.003454,-18.412264,0.999998,0.000172,-0.001824,0.006949,-0.000013,0.006949,-0.001824,-89.914583,0.007206,
570,980,4.227915,-10.468341,0.999951,0.000809,-0.003368,0.008259,-0.000247,0.008264,-0.003373,-88.785616,0.008310,
1140,1630,0.223596,-2.767200,0.999998,0.000187,-0.002685,0.007326,0.000588,0.007360,-0.002719,86.651017,0.007443,
1030,290,0.400950,-18.263919,0.999996,0.000223,-0.002459,0.007759,0.000001,0.007759,-0.002459,89.997174,0.007930,
1610,1250,-2.348983,-7.586188,0.999995,0.000289,-0.006352,0.011812,0.000941,0.011861,-0.006400,87.040885,0.011873,
980,1740,0.559103,-2.163267,0.999997,0.000203,-0.002911,0.008249,0.000026,0.008249,-0.002911,89.867020,0.008367,
750,580,2.164983,-14.782234,0.999996,0.000233,-0.005463,0.010528,-0.000102,0.010528,-0.005464,-89.632960,0.010531,
1530,490,-1.010310,-16.319930,0.999996,0.000225,-0.004608,0.009469,0.000925,0.009530,-0.004669,86.255665,0.009530,
1810,260,-1.659255,-17.742925,0.999996,0.000228,-0.004710,0.010134,-0.000541,0.010153,-0.004730,-87.914991,0.010161,
860,600,1.600607,-14.941422,0.999994,0.000279,-0.005759,0.010598,-0.000595,0.010620,-0.005780,-87.918291,0.010634,
900,940,2.713975,-11.068472,0.999995,0.000262,-0.004682,0.011638,0.001430,0.011762,-0.004806,85.028815,0.011828,
1580,1700,-0.970155,-2.718232,0.999996,0.000218,-0.004134,0.009143,-0.000170,0.009145,-0.004136,-89.268527,0.009159,
610,150,1.271901,-18.695564,0.999995,0.000260,-0.004910,0.010350,0.000948,0.010409,-0.004969,86.458110,0.010413,
1350,530,-0.323547,-16.568598,0.999997,0.000211,-0.003194,0.007544,0.001243,0.007686,-0.003336,83.484482,0.007708,
570,1560,2.847835,-5.066947,0.999982,0.000501,-0.005145,0.009999,0.000054,0.010000,-0.005145,89.795769,0.010001,
730,1410,2.477253,-6.129646,0.999995,0.000251,-0.005525,0.010564,-0.000210,0.010567,-0.005528,-89.251903,0.010571,
920,310,0.740715,-17.925924,0.999997,0.000237,-0.003059,0.008590,0.000143,0.008592,-0.003060,89.297237,0.008710,
700,1710,1.746709,-3.127474,0.999996,0.000229,-0.004819,0.010046,-0.000015,0.010046,-0.004819,-89.942934,0.010049,
1590,1660,-1.100840,-3.119987,0.999997,0.000217,-0.004210,0.009390,-0.000258,0.009395,-0.004215,-88.913489,0.009411,
1430,790,-0.970772,-13.749846,0.999993,0.000332,-0.007565,0.011852,0.002724,0.012227,-0.007940,82.163709,0.012407,
1680,1400,-2.209683,-6.077309,0.999994,0.000277,-0.005843,0.010798,0.000123,0.010799,-0.005844,89.576988,0.010811,
1490,1320,-1.231251,-6.209437,0.999993,0.000282,-0.007142,0.011741,-0.001520,0.011863,-0.007264,-85.426387,0.011962,
1680,490,-1.747187,-15.826638,0.999996,0.000229,-0.005091,0.010188,0.000339,0.010196,-0.005099,88.730703,0.010196,
1270,220,-0.052844,-18.886285,0.999998,0.000157,-0.001288,0.006741,-0.000011,0.006741,-0.001288,-89.924958,0.007157,
1880,1090,-4.168119,-9.551544,0.999995,0.000255,-0.004142,0.008286,-0.000029,0.008286,-0.004142,-89.864397,0.008286,
1720,1780,-1.304346,-2.297046,0.999996,0.000249,-0.004109,0.009837,0.000707,0.009873,-0.004144,87.106426,0.009915,
950,1500,1.021881,-4.404157,0.999996,0.000225,-0.004999,0.009795,0.001210,0.009894,-0.005097,85.355644,0.009895,
1680,1850,-0.875607,-1.543052,0.999997,0.000201,-0.003573,0.009292,0.001195,0.009402,-0.003683,84.736601,0.009475,
820,50,0.121744,-19.943932,0.999998,0.000192,-0.000531,0.007093,0.001859,0.007522,-0.000960,77.001655,0.008188,
1050,640,0.605115,-15.417391,0.999994,0.000280,-0.004890,0.008914,-0.002396,0.009318,-0.005294,-80.429764,0.009347,
1120,1630,0.276503,-2.797258,0.999998,0.000191,-0.002691,0.007423,0.000591,0.007457,-0.002726,86.668958,0.007547,
770,1790,1.157620,-2.134609,0.999996,0.000239,-0.004057,0.009602,-0.000697,0.009638,-0.004093,-87.087918,0.009674,
1850,1090,-4.043731,-9.527818,0.999997,0.000211,-0.004231,0.008744,0.000109,0.008745,-0.004232,89.516884,0.008746,
760,130,0.593934,-19.264901,0.999996,0.000214,-0.002198,0.008742,0.002183,0.009162,-0.002617,79.123409,0.009438,
700,1310,2.995233,-7.262146,0.999996,0.000268,-0.005334,0.010445,-0.000746,0.010481,-0.005369,-87.298312,0.010482,
910,1420,1.391102,-5.397407,0.999993,0.000334,-0.006033,0.010848,0.000973,0.010903,-0.006089,86.712610,0.010928,
1810,670,-2.973548,-13.554227,0.999996,0.000226,-0.005170,0.010242,-0.000345,0.010250,-0.005178,-88.719857,0.010250,
1640,980,-3.164516,-10.570346,0.999996,0.000224,-0.004114,0.010400,-0.000691,0.010432,-0.004147,-87.281522,0.010505,
1030,270,0.367343,-18.421504,0.999997,0.000202,-0.002292,0.007640,0.000086,0.007641,-0.002292,89.502538,0.007842,
900,920,2.621014,-11.305403,0.999995,0.000262,-0.005155,0.011815,0.001456,0.011939,-0.005279,85.132958,0.011966,
690,890,3.548170,-11.401377,0.999995,0.000260,-0.004748,0.009839,0.000905,0.009895,-0.004804,86.462219,0.009897,
940,1380,1.296279,-5.702354,0.999995,0.000270,-0.006431,0.011129,0.001244,0.011217,-0.006519,85.968209,0.011266,
1780,960,-3.738100,-10.719446,0.999997,0.000206,-0.004469,0.009480,-0.000530,0.009501,-0.004489,-87.829070,0.009505,
1230,270,0.002748,-18.553373,0.999998,0.000155,-0.001711,0.006944,-0.000012,0.006944,-0.001711,-89.918341,0.007236,
1090,1820,0.208748,-1.422660,0.999997,0.000216,-0.001534,0.007165,-0.000203,0.007170,-0.001538,-88.664093,0.007549,
1240,1880,-0.009897,-0.969536,0.999998,0.000151,-0.001069,0.006493,-0.000014,0.006493,-0.001069,-89.894101,0.006963,
1170,1830,0.083034,-1.313072,0.999998,0.000165,-0.001268,0.006837,-0.000114,0.006839,-0.001270,-89.195258,0.007276,
1090,1560,0.390554,-3.387612,0.999997,0.000187,-0.003363,0.007801,0.001218,0.007932,-0.003494,83.847525,0.007951,
770,580,2.055675,-14.846204,0.999995,0.000247,-0.005518,0.010536,-0.000141,0.010537,-0.005520,-89.497551,0.010541,
1570,850,-2.305259,-12.141019,0.999995,0.000250,-0.006379,0.012249,-0.001172,0.012323,-0.006452,-86.414800,0.012327,
830,160,0.550767,-19.083305,0.999997,0.000212,-0.002051,0.008434,0.001540,0.008655,-0.002273,81.817513,0.008975,
1380,1190,-1.021869,-6.672907,0.999989,0.000382,-0.006215,0.010093,-0.004267,0.011142,-0.007264,-76.187865,0.011312,
1500,900,-2.147383,-11.751349,0.999993,0.000319,-0.006413,0.013332,-0.000965,0.013379,-0.006460,-87.207239,0.013381,
730,1390,2.544300,-6.340306,0.999995,0.000255,-0.005577,0.010596,-0.000334,0.010602,-0.005584,-88.816729,0.010607,
900,1750,0.792126,-2.226573,0.999995,0.000284,-0.003323,0.008767,-0.000222,0.008771,-0.003327,-88.947320,0.008856,
1500,1370,-1.169735,-5.693349,0.999995,0.000270,-0.006496,0.011078,-0.001582,0.011220,-0.006638,-84.898081,0.011282,
1460,480,-0.697964,-16.636053,0.999997,0.000206,-0.004064,0.008785,0.001086,0.008876,-0.004155,85.202519,0.008882,
1770,940,-3.647824,-10.920245,0.999997,0.000206,-0.004547,0.009695,-0.000781,0.009738,-0.004590,-86.871322,0.009744,
1120,1540,0.301610,-3.465909,0.999997,0.000207,-0.003020,0.007442,0.001008,0.007538,-0.003117,84.544662,0.007575,
590,830,3.829932,-11.814917,0.999996,0.000231,-0.004545,0.009249,0.000336,0.009257,-0.004553,88.605489,0.009257,
1700,710,-2.517668,-13.422564,0.999996,0.000258,-0.005825,0.010903,-0.000533,0.010920,-0.005842,-88.175475,0.010929,
1500,570,-0.977819,-15.661252,0.999997,0.000195,-0.005053,0.009750,0.001360,0.009874,-0.005176,84.793334,0.009878,
1860,1780,-1.961346,-2.761307,0.999997,0.000212,-0.004856,0.009872,0.000093,0.009873,-0.004856,89.637263,0.009873,
980,1720,0.593081,-2.329120,0.999997,0.000211,-0.003071,0.008349,0.000166,0.008352,-0.003074,89.166019,0.008448,
1350,510,-0.319644,-16.718616,0.999997,0.000184,-0.003084,0.007539,0.001035,0.007639,-0.003183,84.488946,0.007674,
610,130,1.126231,-18.906130,0.999996,0.000232,-0.004866,0.010596,0.001311,0.010707,-0.004976,85.188807,0.010715,
860,580,1.556617,-15.152166,0.999994,0.000270,-0.005608,0.010518,-0.000619,0.010541,-0.005632,-87.805113,0.010550,
1530,470,-0.981654,-16.508492,0.999997,0.000222,-0.004504,0.009414,0.000833,0.009464,-0.004554,86.588250,0.009466,
1430,770,-0.904457,-13.979912,0.999995,0.000265,-0.007277,0.011411,0.002820,0.011827,-0.007693,81.602432,0.012004,
1440,1560,-0.630824,-3.585111,0.999995,0.000255,-0.004021,0.008622,-0.001238,0.008742,-0.004141,-84.460678,0.008746,
1130,500,0.269953,-16.823459,0.999997,0.000189,-0.002909,0.007274,-0.000880,0.007350,-0.002985,-85.097380,0.007393,
1070,1690,0.369406,-2.412400,0.999996,0.000219,-0.002658,0.007794,0.000349,0.007806,-0.002670,88.090525,0.007935,
1680,1380,-2.276076,-6.297497,0.999995,0.000282,-0.005890,0.010929,0.000227,0.010932,-0.005893,89.225742,0.010943,
1850,160,-1.321456,-18.606939,0.999997,0.000204,-0.004888,0.010336,-0.000820,0.010380,-0.004932,-86.924992,0.010385,
850,300,0.964169,-17.869378,0.999998,0.000186,-0.003667,0.009089,0.000328,0.009097,-0.003676,88.527938,0.009153,
1850,1070,-4.059689,-9.702404,0.999996,0.000229,-0.004192,0.008727,0.000142,0.008729,-0.004193,89.368805,0.008731,
790,1180,3.004115,-8.497839,0.999995,0.000255,-0.005128,0.010740,-0.001236,0.010835,-0.005223,-85.573290,0.010838,
1340,830,-0.537830,-14.461254,0.999990,0.000420,-0.005298,0.006945,0.004287,0.008297,-0.006650,72.496881,0.008785,
1030,250,0.343464,-18.570296,0.999997,0.000195,-0.002110,0.007550,0.000178,0.007553,-0.002113,88.945403,0.007793,
900,900,2.525163,-11.544909,0.999994,0.000291,-0.005559,0.012100,0.001453,0.012219,-0.005678,85.329148,0.012229,
1820,1090,-3.917363,-9.508737,0.999998,0.000188,-0.004347,0.009104,0.000250,0.009109,-0.004352,88.937581,0.009112,
1550,1280,-1.809805,-7.014054,0.999995,0.000251,-0.007097,0.012266,0.000007,0.012266,-0.007097,89.978061,0.012317,
1280,1630,-0.116123,-2.723563,0.999999,0.000156,-0.002327,0.007098,-0.000197,0.007102,-0.002331,-88.804883,0.007241,
1640,960,-3.114179,-10.784065,0.999996,0.000235,-0.004279,0.010515,-0.001012,0.010584,-0.004348,-86.104218,0.010640,
1890,240,-1.957654,-17.618999,0.999996,0.000227,-0.004861,0.009655,-0.000147,0.009657,-0.004862,-89.420282,0.009657,
940,1360,1.345098,-5.929503,0.999995,0.000264,-0.006660,0.011355,0.001148,0.011428,-0.006732,86.369136,0.011488,
890,2020,0.045355,-0.106260,0.999998,0.000000,-0.000360,0.006694,-0.001265,0.006914,-0.000580,-80.132371,0.007670,
690,300,1.641720,-17.454213,0.999997,0.000219,-0.004790,0.010090,0.000216,0.010094,-0.004793,89.167952,0.010098,
1660,1850,-0.801333,-1.504589,0.999997,0.000244,-0.003387,0.009052,0.001145,0.009157,-0.003492,84.786545,0.009242,
1230,250,0.001651,-18.689895,0.999998,0.000158,-0.001559,0.006847,-0.000005,0.006847,-0.001559,-89.968467,0.007178,
1170,1810,0.091870,-1.450053,0.999998,0.000162,-0.001410,0.006882,-0.000106,0.006883,-0.001412,-89.267312,0.007271,
1610,1270,-2.261255,-7.349987,0.999993,0.000315,-0.006439,0.011797,0.000752,0.011828,-0.006470,87.643960,0.011846,
1900,2010,-0.454605,-0.408215,0.999993,0.000000,-0.000618,0.014984,0.007677,0.018128,-0.003762,67.729228,0.019134,
1010,1560,0.685332,-3.630690,0.999997,0.000180,-0.004115,0.008751,0.001186,0.008859,-0.004223,84.778896,0.008863,
890,1820,0.641783,-1.636093,0.999997,0.000192,-0.002915,0.008491,-0.000673,0.008531,-0.002955,-86.635428,0.008664,
1510,660,-1.180295,-14.690461,0.999996,0.000247,-0.006243,0.010812,0.001453,0.010935,-0.006366,85.164885,0.010984,
690,870,3.485198,-11.602730,0.999995,0.000279,-0.004872,0.009981,0.001008,0.010049,-0.004940,86.136746,0.010049,
780,1050,3.361885,-9.854312,0.999996,0.000240,-0.004154,0.009991,-0.000360,0.010000,-0.004163,-88.543926,0.010047,
980,1700,0.622341,-2.497626,0.999997,0.000228,-0.003256,0.008381,0.000342,0.008391,-0.003266,88.317325,0.008459,
1200,810,0.115064,-15.371506,0.999995,0.000253,-0.003632,0.002469,-0.001595,0.002861,-0.004023,-76.196229,0.004141,
940,850,1.992576,-12.308088,0.999994,0.000268,-0.007032,0.012980,0.000663,0.013002,-0.007054,88.104818,0.013017,
1570,890,-2.510107,-11.653727,0.999995,0.000264,-0.005714,0.012038,-0.001458,0.012157,-0.005833,-85.334962,0.012161,
1770,270,-1.513917,-17.766971,0.999995,0.000265,-0.004759,0.010032,-0.000458,0.010046,-0.004773,-88.228095,0.010050,
1570,1660,-1.017701,-3.064197,0.999997,0.000190,-0.004214,0.009299,-0.000349,0.009308,-0.004223,-88.521628,0.009322,
810,160,0.595379,-19.065989,0.999997,0.000211,-0.002561,0.008596,0.001552,0.008808,-0.002773,82.227402,0.009007,
570,1840,1.848331,-2.307591,0.999972,0.000589,-0.004982,0.009967,-0.000370,0.009976,-0.004991,-88.584764,0.009976,
1200,790,0.082773,-15.421074,0.999996,0.000253,-0.002802,0.002632,-0.001774,0.003160,-0.003329,-73.427017,0.003750,
730,1370,2.614793,-6.554624,0.999994,0.000270,-0.005608,0.010660,-0.000449,0.010672,-0.005620,-88.420686,0.010677,
1120,1520,0.302855,-3.614378,0.999997,0.000214,-0.003131,0.007418,0.001175,0.007547,-0.003261,83.718925,0.007571,
1890,1360,-3.461885,-7.094773,0.999993,0.000297,-0.004953,0.009936,0.000153,0.009938,-0.004954,89.411908,0.009938,
1530,1720,-0.748770,-2.428752,0.999996,0.000219,-0.003215,0.008903,0.000032,0.008903,-0.003215,89.846882,0.009017,
1220,30,0.002516,-20.097094,0.999999,0.000000,-0.000238,0.005970,0.000014,0.005970,-0.000238,89.867916,0.006760,
1530,450,-0.945218,-16.700794,0.999997,0.000202,-0.004337,0.009300,0.000721,0.009338,-0.004375,86.982375,0.009344,
1280,820,-0.206096,-15.237165,0.999995,0.000260,-0.004146,0.003020,0.002074,0.003577,-0.004703,74.970239,0.004911,
1720,1760,-1.377046,-2.496118,0.999997,0.000235,-0.004244,0.009910,0.000514,0.009929,-0.004262,87.923540,0.009962,
1430,750,-0.843816,-14.208423,0.999995,0.000301,-0.006917,0.011024,0.002890,0.011478,-0.007371,81.072793,0.011631,
1310,720,-0.188665,-15.437153,0.999996,0.000234,-0.003256,0.005616,0.003012,0.006542,-0.004182,72.913934,0.006626,
900,880,2.419228,-11.790490,0.999994,0.000290,-0.005991,0.012161,0.001368,0.012263,-0.006094,85.713810,0.012263,
1030,230,0.310906,-18.726034,0.999997,0.000204,-0.001939,0.007478,0.000255,0.007485,-0.001946,88.447099,0.007768,
850,1240,2.412262,-7.712301,0.999993,0.000292,-0.006247,0.011755,-0.001041,0.011815,-0.006307,-86.702631,0.011824,
920,2010,0.066356,-0.170123,0.999998,0.000167,-0.000160,0.006642,-0.001096,0.006814,-0.000332,-81.072131,0.007684,
890,30,0.030285,-20.088983,0.999998,0.000000,-0.000405,0.006673,0.001320,0.006911,-0.000643,79.770774,0.007636,
1560,870,-2.348314,-11.920521,0.999995,0.000259,-0.006199,0.012300,-0.001285,0.012388,-0.006288,-86.044869,0.012389,
1480,1960,-0.134146,-0.493735,0.999998,0.000201,-0.000758,0.006789,0.000816,0.006876,-0.000846,83.901609,0.007499,
650,590,2.725147,-14.368842,0.999997,0.000226,-0.005167,0.010262,0.000067,0.010262,-0.005167,89.752360,0.010262,
850,280,0.904132,-18.054971,0.999996,0.000234,-0.003516,0.009097,0.000520,0.009119,-0.003538,87.643189,0.009195,
1830,320,-1.989045,-17.063612,0.999995,0.000257,-0.004880,0.009963,0.000004,0.009963,-0.004880,89.985106,0.009964,
940,1340,1.406045,-6.160055,0.999995,0.000262,-0.006896,0.011629,0.001052,0.011689,-0.006955,86.759393,0.011759,
1260,1630,-0.068532,-2.711792,0.999998,0.000201,-0.002382,0.007069,-0.000217,0.007074,-0.002387,-88.684294,0.007197,
1810,400,-2.149978,-16.321879,0.999996,0.000246,-0.004974,0.010094,0.000138,0.010096,-0.004975,89.474368,0.010096,
690,850,3.419147,-11.801457,0.999995,0.000278,-0.004946,0.009915,0.000944,0.009974,-0.005005,86.381325,0.009974,
1850,1050,-4.075371,-9.880115,0.999997,0.000207,-0.004212,0.008785,0.000259,0.008790,-0.004217,88.857030,0.008792,
1640,940,-3.063454,-10.991490,0.999996,0.000244,-0.004483,0.010551,-0.001071,0.010627,-0.004559,-85.947415,0.010663,
1230,230,0.002354,-18.826747,0.999998,0.000177,-0.001444,0.006749,-0.000009,0.006749,-0.001444,-89.939666,0.007108,
1640,190,-0.683795,-18.820666,0.999997,0.000246,-0.002598,0.008710,-0.001324,0.008863,-0.002751,-83.408221,0.009073,
1530,1280,-1.666836,-6.922991,0.999994,0.000250,-0.007268,0.012400,-0.000325,0.012406,-0.007274,-89.054158,0.012467,
990,1560,0.766883,-3.696303,0.999996,0.000229,-0.004106,0.008902,0.001055,0.008987,-0.004191,85.394776,0.008994,
910,1400,1.436615,-5.617704,0.999996,0.000292,-0.006228,0.011023,0.000917,0.011072,-0.006276,86.964572,0.011105,
800,630,2.032684,-14.407576,0.999997,0.000201,-0.005793,0.010799,-0.000092,0.010800,-0.005793,-89.682283,0.010809,
870,1820,0.705250,-1.668934,0.999997,0.000217,-0.003166,0.008687,-0.000692,0.008727,-0.003206,-86.668534,0.008829,
740,830,3.098269,-12.077751,0.999996,0.000278,-0.005258,0.010518,0.001118,0.010597,-0.005337,85.966709,0.010597,
1440,1600,-0.596001,-3.241672,0.999997,0.000221,-0.003583,0.008406,-0.000889,0.008472,-0.003648,-85.784378,0.008499,
710,1860,1.093414,-1.590513,0.999996,0.000235,-0.004378,0.009918,-0.001143,0.010009,-0.004469,-85.457494,0.010028,
1120,1500,0.304426,-3.758107,0.999997,0.000193,-0.003248,0.007320,0.001364,0.007494,-0.003422,82.761238,0.007503,
1180,790,0.138807,-15.302104,0.999994,0.000353,-0.003208,0.003471,-0.002835,0.004512,-0.004249,-69.832969,0.005065,
630,1040,4.012470,-9.964686,0.999997,0.000251,-0.004282,0.009014,-0.000206,0.009017,-0.004285,-89.112903,0.009021,
1610,1230,-2.438751,-7.824647,0.999994,0.000271,-0.006210,0.011770,0.001132,0.011841,-0.006281,86.410169,0.011848,
820,850,2.742657,-11.982192,0.999996,0.000264,-0.005638,0.011245,0.001309,0.011345,-0.005739,85.591778,0.011346,
1510,1720,-0.685647,-2.390378,0.999996,0.000230,-0.003322,0.008728,-0.000110,0.008729,-0.003323,-89.477771,0.008811,
1600,580,-1.539424,-15.162525,0.999995,0.000282,-0.005582,0.010509,0.000658,0.010536,-0.005609,87.662344,0.010543,
1170,1790,0.100434,-1.590389,0.999998,0.000158,-0.001535,0.006990,-0.000044,0.006990,-0.001535,-89.705124,0.007348,
1320,830,-0.436000,-14.745988,0.999994,0.000313,-0.004596,0.005230,0.003653,0.006439,-0.005805,71.686797,0.007098,
860,560,1.509657,-15.363413,0.999994,0.000269,-0.005493,0.010427,-0.000644,0.010453,-0.005519,-87.685989,0.010459,
610,110,0.971857,-19.121081,0.999996,0.000215,-0.004760,0.010649,0.001727,0.010840,-0.004951,83.683145,0.010854,
1220,860,0.155023,-15.313779,0.999976,0.000000,-0.012194,0.003236,0.000174,0.003238,-0.012196,89.354687,0.012635,
1280,800,-0.141970,-15.291620,0.999996,0.000243,-0.003460,0.003150,0.002638,0.004074,-0.004383,70.702330,0.004893,
1130,160,0.093760,-19.272249,0.999997,0.000175,-0.001103,0.006639,0.000176,0.006643,-0.001107,88.695483,0.007119,
1180,810,0.185417,-15.237128,0.999995,0.000276,-0.003780,0.003179,-0.002613,0.004051,-0.004652,-71.545088,0.005060,
1770,1640,-1.993174,-3.859202,0.999997,0.000235,-0.004947,0.010104,-0.000155,0.010106,-0.004948,-89.411183,0.010106,
1430,730,-0.806334,-14.426058,0.999994,0.000305,-0.006604,0.010652,0.002863,0.011115,-0.007067,80.820452,0.011250,
1610,1500,-1.535984,-4.771078,0.999994,0.000268,-0.005441,0.010363,-0.000587,0.010385,-0.005463,-87.876073,0.010389,
1260,1560,-0.072340,-3.201959,0.999998,0.000179,-0.002488,0.006900,-0.000357,0.006913,-0.002501,-87.826715,0.007001,
1720,1740,-1.448740,-2.694906,0.999996,0.000248,-0.004396,0.009862,0.000305,0.009868,-0.004403,88.775777,0.009887,
1530,430,-0.912576,-16.887312,0.999997,0.000221,-0.004097,0.009127,0.000605,0.009155,-0.004125,87.384980,0.009170,
1030,210,0.285336,-18.871318,0.999997,0.000209,-0.001746,0.007302,0.000324,0.007313,-0.001757,87.954662,0.007635,
900,860,2.313280,-12.036650,0.999995,0.000287,-0.006295,0.012284,0.001231,0.012365,-0.006376,86.226278,0.012367,
1330,720,-0.258681,-15.304367,0.999997,0.000217,-0.003870,0.006536,0.003370,0.007532,-0.004866,73.536288,0.007638,
1800,1090,-3.830476,-9.498360,0.999996,0.000249,-0.004418,0.009281,0.000332,0.009289,-0.004427,88.610740,0.009293,
710,560,2.321435,-14.865672,0.999996,0.000227,-0.005296,0.010320,-0.000080,0.010320,-0.005296,-89.707594,0.010322,
880,2020,0.050541,-0.108450,0.999998,0.000000,-0.000511,0.006688,-0.001327,0.006924,-0.000748,-79.881066,0.007601,
1570,280,-0.753555,-18.141377,0.999996,0.000227,-0.003253,0.008738,-0.000390,0.008750,-0.003265,-88.138917,0.008844,
980,1680,0.652681,-2.667929,0.999997,0.000228,-0.003453,0.008512,0.000440,0.008529,-0.003469,87.898631,0.008578,
790,380,1.428862,-16.954114,0.999996,0.000224,-0.004627,0.009784,-0.000103,0.009785,-0.004628,-89.590745,0.009790,
1770,250,-1.427932,-17.967992,0.999995,0.000270,-0.004700,0.010027,-0.000621,0.010053,-0.004727,-87.591455,0.010059,
1540,870,-2.221821,-11.984452,0.999993,0.000320,-0.006452,0.012675,-0.001159,0.012745,-0.006522,-86.545751,0.012746,
870,1620,1.194554,-3.506637,0.999994,0.000298,-0.004477,0.009628,0.000448,0.009642,-0.004491,88.182587,0.009650,
1070,1670,0.386778,-2.568053,0.999997,0.000200,-0.002850,0.007809,0.000478,0.007831,-0.002872,87.436994,0.007923,
1810,360,-2.024723,-16.727619,0.999996,0.000213,-0.004995,0.010099,0.000001,0.010099,-0.004995,89.997958,0.010099,
1480,1980,-0.095640,-0.359126,0.999998,0.000185,-0.000525,0.006659,0.000848,0.006758,-0.000623,83.359569,0.007469,
670,1180,3.597085,-8.632793,0.999995,0.000281,-0.004758,0.009794,-0.000890,0.009848,-0.004812,-86.513891,0.009849,
1680,1360,-2.343721,-6.518687,0.999995,0.000288,-0.005933,0.011008,0.000361,0.011015,-0.005940,88.779344,0.011027,
1640,920,-3.002577,-11.207666,0.999996,0.000244,-0.004733,0.010853,-0.001302,0.010961,-0.004841,-85.257456,0.010986,
680,1310,3.100965,-7.308225,0.999997,0.000224,-0.005206,0.010285,-0.000695,0.010316,-0.005238,-87.434954,0.010317,
1120,1480,0.303840,-3.905421,0.999996,0.000246,-0.003377,0.007287,0.001582,0.007516,-0.003607,81.736328,0.007518,
940,1320,1.463785,-6.397873,0.999995,0.000258,-0.007090,0.011912,0.000911,0.011955,-0.007134,87.260060,0.012029,
1850,1030,-4.092885,-10.056881,0.999997,0.000212,-0.004207,0.008870,0.000054,0.008870,-0.004207,89.763953,0.008874,
840,630,1.799020,-14.543879,0.999996,0.000216,-0.005956,0.010866,-0.000382,0.010875,-0.005964,-88.700106,0.010892,
690,830,3.356384,-12.003236,0.999997,0.000214,-0.005033,0.010024,0.000934,0.010082,-0.005090,86.463561,0.010082,
1230,210,0.003408,-18.961207,0.999998,0.000173,-0.001313,0.006657,0.000009,0.006657,-0.001313,89.937373,0.007052,
1460,1530,-0.739636,-3.921201,0.999997,0.000221,-0.004309,0.008927,-0.001312,0.009055,-0.004437,-84.393835,0.009056,
1320,810,-0.336525,-14.850984,0.999993,0.000308,-0.004665,0.005528,0.004035,0.006932,-0.006068,70.816119,0.007555,
1250,1820,-0.027636,-1.372337,0.999998,0.000190,-0.001444,0.006824,-0.000018,0.006824,-0.001444,-89.877914,0.007192,
1200,370,0.069005,-17.837805,0.999997,0.000209,-0.002156,0.007074,-0.000176,0.007077,-0.002160,-88.907026,0.007254,
1280,1230,-0.223425,-4.942376,0.999994,0.000305,-0.004403,0.003063,-0.001808,0.003478,-0.004818,-77.081692,0.004974,
1600,560,-1.493930,-15.372333,0.999995,0.000285,-0.005475,0.010405,0.000666,0.010433,-0.005503,87.602773,0.010438,
800,850,2.852462,-11.951895,0.999995,0.000287,-0.005466,0.011033,0.001267,0.011130,-0.005562,85.632518,0.011130,
1900,720,-3.596625,-12.788347,0.999997,0.000000,-0.004889,0.009636,-0.000157,0.009637,-0.004891,-89.379058,0.009638,
1740,1950,-0.521039,-0.701046,0.999994,0.000287,-0.002747,0.008799,0.002371,0.009267,-0.003216,78.834549,0.009410,
720,830,3.203131,-12.046747,0.999995,0.000272,-0.005148,0.010346,0.001061,0.010418,-0.005221,86.099852,0.010418,
1690,280,-1.200383,-17.885300,0.999996,0.000214,-0.004172,0.009647,-0.000542,0.009668,-0.004193,-87.758231,0.009696,
1010,160,0.230427,-19.220058,0.999997,0.000203,-0.001239,0.007169,0.000625,0.007215,-0.001285,85.769911,0.007698,
1170,1770,0.106031,-1.730365,0.999998,0.000152,-0.001668,0.007059,-0.000059,0.007059,-0.001668,-89.611974,0.007379,
610,90,0.795560,-19.330511,0.999997,0.000204,-0.004628,0.011012,0.002399,0.011372,-0.004988,81.471882,0.011400,
860,540,1.462588,-15.570824,0.999994,0.000292,-0.005345,0.010286,-0.000652,0.010313,-0.005372,-87.615147,0.010316,
1280,780,-0.119671,-15.357250,0.999996,0.000245,-0.002963,0.003481,0.002737,0.004486,-0.003968,69.824644,0.004909,
1430,710,-0.768260,-14.638103,0.999994,0.000296,-0.006240,0.010246,0.002773,0.010700,-0.006693,80.703727,0.010812,
1300,300,-0.125686,-18.321702,0.999998,0.000171,-0.001764,0.007088,-0.000003,0.007088,-0.001764,-89.978525,0.007380,
1360,1750,-0.249584,-1.923502,0.999997,0.000205,-0.002059,0.007290,-0.000093,0.007291,-0.002060,-89.428442,0.007518,
1560,180,-0.452928,-18.992712,0.999997,0.000231,-0.002030,0.007879,-0.000982,0.007976,-0.002127,-84.394710,0.008260,
670,320,1.808620,-17.186377,0.999996,0.000220,-0.004838,0.010046,0.000079,0.010047,-0.004838,89.695776,0.010049,
970,1880,0.315757,-1.072904,0.999997,0.000192,-0.001826,0.007396,-0.000637,0.007440,-0.001870,-86.065462,0.007741,
1030,190,0.250256,-19.019211,0.999997,0.000211,-0.001593,0.007178,0.000435,0.007199,-0.001614,87.164305,0.007555,
1780,1990,-0.355349,-0.392039,0.999996,0.000242,-0.001480,0.009220,0.003687,0.010367,-0.002627,72.714529,0.010779,
900,840,2.208628,-12.285916,0.999995,0.000278,-0.006584,0.012395,0.000978,0.012446,-0.006634,87.058984,0.012455,
1070,1650,0.403543,-2.724947,0.999996,0.000234,-0.003036,0.007829,0.000662,0.007869,-0.003077,86.526156,0.007931,
1380,1440,-0.446253,-4.358551,0.999996,0.000244,-0.004126,0.008057,-0.002213,0.008446,-0.004515,-80.016512,0.008453,
1070,860,1.079392,-13.348527,0.999991,0.000349,-0.007091,0.011406,-0.003535,0.012058,-0.007743,-79.541531,0.012220,
870,1600,1.235935,-3.701285,0.999997,0.000234,-0.004704,0.009735,0.000516,0.009754,-0.004723,87.956341,0.009755,
1470,1310,-1.115891,-6.196531,0.999993,0.000310,-0.007216,0.011743,-0.001907,0.011933,-0.007406,-84.312525,0.012048,
980,1660,0.685006,-2.843122,0.999997,0.000209,-0.003624,0.008601,0.000557,0.008626,-0.003650,87.398769,0.008660,
770,560,1.998764,-15.057418,0.999995,0.000274,-0.005410,0.010437,-0.000209,0.010439,-0.005413,-89.245668,0.010442,
1640,900,-2.926789,-11.427607,0.999996,0.000244,-0.005022,0.010933,-0.001311,0.011040,-0.005129,-85.334829,0.011049,
1680,1340,-2.416714,-6.739622,0.999995,0.000284,-0.005957,0.011043,0.000509,0.011058,-0.005972,88.287622,0.011070,
880,30,0.038210,-20.085965,0.999998,0.000000,-0.000462,0.006707,0.001347,0.006951,-0.000707,79.703247,0.007651,
1850,1010,-4.078924,-10.236788,0.999998,0.000194,-0.004210,0.008840,-0.000252,0.008845,-0.004215,-88.893765,0.008848,
1070,480,0.451695,-16.834111,0.999997,0.000230,-0.003458,0.008013,-0.001110,0.008120,-0.003565,-84.523308,0.008140,
1230,190,0.001756,-19.092721,0.999998,0.000174,-0.001195,0.006615,-0.000005,0.006615,-0.001195,-89.964227,0.007050,
1600,540,-1.447683,-15.581396,0.999994,0.000271,-0.005336,0.010263,0.000662,0.010291,-0.005364,87.574817,0.010294,
820,630,1.916033,-14.473786,0.999997,0.000211,-0.005855,0.010827,-0.000208,0.010830,-0.005858,-89.286865,0.010842,
1610,380,-1.151647,-17.128225,0.999998,0.000166,-0.004131,0.009384,0.000126,0.009385,-0.004132,89.465991,0.009408,
1900,710,-3.560153,-12.884956,0.999996,0.000000,-0.004929,0.009676,-0.000120,0.009677,-0.004930,-89.529381,0.009678,
1720,490,-1.953571,-15.696180,0.999997,0.000199,-0.005124,0.010274,0.000264,0.010279,-0.005129,89.018441,0.010279,
1440,1530,-0.655201,-3.849126,0.999995,0.000284,-0.004216,0.008739,-0.001437,0.008897,-0.004374,-83.744850,0.008897,
1670,620,-2.042699,-14.491622,0.999997,0.000200,-0.005730,0.010811,0.000108,0.010811,-0.005731,89.627176,0.010818,
690,810,3.284571,-12.206543,0.999996,0.000247,-0.005141,0.010188,0.000955,0.010247,-0.005200,86.448542,0.010247,
680,850,3.468460,-11.789403,0.999994,0.000270,-0.004908,0.009835,0.000912,0.009892,-0.004964,86.473269,0.009892,
1330,460,-0.252413,-17.122961,0.999998,0.000156,-0.002797,0.007348,0.000739,0.007402,-0.002851,85.857059,0.007466,
660,1310,3.203395,-7.354768,0.999997,0.000203,-0.005078,0.010110,-0.000632,0.010136,-0.005105,-87.620462,0.010136,
1170,1750,0.115747,-1.871558,0.999998,0.000160,-0.001779,0.007047,-0.000009,0.007047,-0.001780,-89.942236,0.007329,
990,160,0.254204,-19.210932,0.999997,0.000200,-0.001284,0.007267,0.000715,0.007326,-0.001344,85.252299,0.007801,
1230,1820,0.001831,-1.368973,0.999998,0.000148,-0.001500,0.006804,-0.000014,0.006804,-0.001500,-89.905447,0.007150,
1120,1460,0.305470,-4.051579,0.999996,0.000239,-0.003484,0.007231,0.001806,0.007528,-0.003780,80.686247,0.007528,
1470,720,-1.051547,-14.251943,0.999995,0.000265,-0.006823,0.011265,0.002019,0.011487,-0.007045,83.708174,0.011585,
610,70,0.603461,-19.566469,0.999995,0.000249,-0.004492,0.011124,0.002777,0.011603,-0.004971,80.211823,0.011642,
1300,320,-0.131529,-18.178738,0.999998,0.000177,-0.001859,0.007167,0.000032,0.007167,-0.001859,89.794659,0.007439,
1430,690,-0.739651,-14.843160,0.999993,0.000308,-0.005891,0.009936,0.002674,0.010375,-0.006330,80.666293,0.010459,
1280,760,-0.104319,-15.422990,0.999997,0.000222,-0.002698,0.003836,0.002547,0.004712,-0.003573,71.027981,0.004917,
1520,870,-2.087628,-12.059877,0.999994,0.000285,-0.006743,0.013014,-0.000906,0.013056,-0.006785,-87.378784,0.013059,
860,520,1.420087,-15.777926,0.999996,0.000273,-0.005155,0.010108,-0.000616,0.010133,-0.005180,-87.692242,0.010134,
580,1680,2.432359,-3.835528,0.999996,0.000249,-0.006459,0.009899,-0.000313,0.009905,-0.006465,-88.905877,0.010058,
1380,1420,-0.450212,-4.520533,0.999995,0.000249,-0.004354,0.008097,-0.002482,0.008574,-0.004830,-79.131242,0.008597,
1760,1990,-0.324616,-0.382078,0.999995,0.000280,-0.001950,0.008794,0.003163,0.009656,-0.002812,74.755335,0.009933,
900,820,2.108557,-12.534594,0.999995,0.000287,-0.006776,0.012399,0.000734,0.012427,-0.006804,87.811319,0.012446,
1730,1400,-2.492578,-6.226852,0.999994,0.000265,-0.005570,0.010597,0.000290,0.010603,-0.005575,88.971013,0.010607,
1030,170,0.221823,-19.158313,0.999997,0.000204,-0.001392,0.007031,0.000481,0.007059,-0.001420,86.740452,0.007467,
1470,1290,-1.181223,-6.437965,0.999993,0.000311,-0.007475,0.012107,-0.001758,0.012264,-0.007632,-84.910598,0.012386,
870,2020,0.056876,-0.109435,0.999997,0.000000,-0.000476,0.006692,-0.001383,0.006950,-0.000733,-79.447606,0.007637,
1180,1630,0.122840,-2.724607,0.999998,0.000170,-0.002374,0.007081,0.000213,0.007086,-0.002379,88.711447,0.007213,
1200,840,0.223214,-15.298890,0.999996,0.000238,-0.006340,0.002990,-0.000183,0.002993,-0.006344,-88.876201,0.006347,
1640,880,-2.853643,-11.647683,0.999995,0.000270,-0.005302,0.011115,-0.001345,0.011225,-0.005412,-85.347834,0.011227,
1140,390,0.210242,-17.653063,0.999997,0.000199,-0.002556,0.007297,-0.000484,0.007321,-0.002580,-87.194892,0.007426,
1850,990,-4.064316,-10.413565,0.999998,0.000188,-0.004219,0.008762,-0.000204,0.008765,-0.004223,-89.099272,0.008767,
980,1640,0.712885,-3.018600,0.999997,0.000198,-0.003781,0.008693,0.000670,0.008729,-0.003817,86.933466,0.008752,
1230,170,0.001731,-19.226196,0.999998,0.000159,-0.001057,0.006521,0.000009,0.006521,-0.001057,89.934769,0.007000,
1900,700,-3.528932,-12.982458,0.999996,0.000000,-0.004930,0.009797,-0.000088,0.009797,-0.004931,-89.656271,0.009798,
1600,520,-1.405664,-15.785948,0.999995,0.000265,-0.005131,0.010137,0.000631,0.010163,-0.005157,87.637853,0.010164,
690,790,3.213425,-12.410577,0.999996,0.000236,-0.005188,0.010212,0.000896,0.010264,-0.005240,86.679910,0.010265,
570,590,3.130415,-14.121399,0.999982,0.000475,-0.004713,0.009952,0.000082,0.009952,-0.004713,89.678459,0.009957,
990,800,1.344100,-13.268055,0.999992,0.000330,-0.007787,0.012715,-0.001287,0.012795,-0.007867,-86.422883,0.012907,
750,560,2.107126,-14.993203,0.999996,0.000244,-0.005410,0.010422,-0.000164,0.010424,-0.005412,-89.404957,0.010426,
1470,180,-0.290190,-19.065789,0.999998,0.000181,-0.001453,0.007307,-0.000637,0.007353,-0.001499,-85.862225,0.007771,
1810,50,-0.267319,-19.895089,0.999997,0.000227,-0.001508,0.008899,-0.003708,0.010085,-0.002694,-72.265071,0.010443,
1890,1530,-2.920105,-5.363549,0.999998,0.000174,-0.005039,0.010151,-0.000034,0.010151,-0.005039,-89.870174,0.010151,
1130,1820,0.146706,-1.397881,0.999998,0.000179,-0.001656,0.006988,-0.000031,0.006988,-0.001656,-89.796362,0.007303,
830,1240,2.533180,-7.756586,0.999994,0.000271,-0.006054,0.011525,-0.001125,0.011597,-0.006125,-86.351949,0.011603,
650,1040,3.927148,-9.964787,0.999997,0.000202,-0.004338,0.009202,-0.000218,0.009205,-0.004341,-89.077259,0.009210,
1300,340,-0.139546,-18.034539,0.999998,0.000182,-0.002000,0.007126,0.000061,0.007127,-0.002001,89.619556,0.007352,
1310,460,-0.197363,-17.159432,0.999998,0.000155,-0.002719,0.007227,0.000656,0.007270,-0.002762,86.241439,0.007339,
1170,1730,0.120188,-2.014799,0.999998,0.000163,-0.001913,0.007134,0.000028,0.007134,-0.001913,89.824534,0.007386,
1180,1290,0.116852,-4.771190,0.999996,0.000241,-0.002808,0.003866,0.002713,0.004829,-0.003772,70.444959,0.005077,
1120,1440,0.306666,-4.201130,0.999997,0.000226,-0.003559,0.007208,0.002049,0.007584,-0.003936,79.582082,0.007586,
790,300,1.195173,-17.735453,0.999997,0.000211,-0.004328,0.009574,0.000321,0.009582,-0.004335,88.679913,0.009596,
1830,460,-2.426040,-15.647250,0.999997,0.000199,-0.005039,0.010162,0.000144,0.010164,-0.005041,89.459120,0.010164,
1050,580,0.575353,-15.938554,0.999996,0.000247,-0.004393,0.008569,-0.001898,0.008841,-0.004665,-81.837843,0.008846,
1280,740,-0.102446,-15.502839,0.999998,0.000184,-0.002577,0.004192,0.002337,0.004920,-0.003305,72.688807,0.005016,
700,1700,1.778424,-3.228955,0.999996,0.000232,-0.004815,0.010062,-0.000004,0.010062,-0.004815,-89.983881,0.010065,
1630,780,-2.364360,-12.815233,0.999993,0.000333,-0.006277,0.011560,-0.000791,0.011595,-0.006312,-87.465032,0.011611,
1810,650,-2.907477,-13.760769,0.999997,0.000217,-0.005172,0.010283,-0.000263,0.010288,-0.005176,-89.027052,0.010288,
900,800,2.013635,-12.783280,0.999995,0.000296,-0.006884,0.012300,0.000495,0.012313,-0.006896,88.522394,0.012342,
1430,670,-0.720248,-15.032570,0.999995,0.000297,-0.005600,0.009648,0.002522,0.010054,-0.006006,80.849462,0.010117,
1350,820,-0.532297,-14.388178,0.999991,0.000389,-0.005859,0.007851,0.004410,0.009147,-0.007156,73.622346,0.009620,
860,500,1.378322,-15.977231,0.999996,0.000258,-0.005010,0.009979,-0.000584,0.010002,-0.005033,-87.771138,0.010002,
1720,1720,-1.507450,-2.893458,0.999996,0.000243,-0.004583,0.009908,0.000190,0.009911,-0.004585,89.250601,0.009920,
600,1980,0.698218,-0.697364,0.999995,0.000272,-0.004404,0.011596,-0.002853,0.012089,-0.004897,-80.185844,0.012162,
870,30,0.042873,-20.084336,0.999998,0.000000,-0.000349,0.006765,0.001428,0.007041,-0.000625,79.066384,0.007795,
1610,1720,-1.041108,-2.608029,0.999997,0.000168,-0.003813,0.009433,0.000155,0.009435,-0.003815,89.330703,0.009492,
900,1470,1.341688,-4.908617,0.999993,0.000299,-0.005617,0.010396,0.000937,0.010451,-0.005672,86.663316,0.010463,
1030,150,0.187031,-19.301874,0.999998,0.000171,-0.001235,0.007015,0.000549,0.007052,-0.001271,86.209425,0.007517,
1550,1660,-0.932803,-3.007906,0.999997,0.000200,-0.003970,0.009111,-0.000369,0.009121,-0.003980,-88.386340,0.009146,
1770,230,-1.341303,-18.169996,0.999995,0.000248,-0.004636,0.009988,-0.000806,0.010033,-0.004681,-86.856667,0.010040,
1340,350,-0.232508,-17.926843,0.999996,0.000229,-0.002413,0.007317,0.000355,0.007330,-0.002426,87.913173,0.007469,
1490,70,-0.093385,-19.831587,0.999998,0.000160,-0.000598,0.006635,-0.000858,0.006736,-0.000699,-83.329709,0.007407,
1540,850,-2.108512,-12.237409,0.999992,0.000342,-0.006789,0.012696,-0.000871,0.012734,-0.006828,-87.445837,0.012746,
1120,390,0.262589,-17.621753,0.999997,0.000218,-0.002593,0.007434,-0.000470,0.007456,-0.002615,-87.323627,0.007566,
980,1620,0.738910,-3.191558,0.999997,0.000198,-0.003899,0.008787,0.000758,0.008832,-0.003944,86.591583,0.008849,
1900,690,-3.495816,-13.081058,0.999995,0.000000,-0.004936,0.009960,-0.000073,0.009960,-0.004937,-89.719329,0.009960,
1380,1400,-0.456792,-4.692498,0.999995,0.000256,-0.004565,0.008177,-0.002699,0.008725,-0.005113,-78.519365,0.008768,
1470,1270,-1.258530,-6.683650,0.999994,0.000291,-0.007683,0.012432,-0.001557,0.012552,-0.007802,-85.601219,0.012675,
1530,1460,-1.178385,-4.879135,0.999996,0.000242,-0.005548,0.010235,-0.001185,0.010324,-0.005636,-85.730842,0.010338,
1060,910,1.567523,-12.547974,0.999980,0.000532,-0.005871,0.013061,-0.004787,0.014202,-0.007012,-76.587767,0.014202,
1710,1400,-2.382214,-6.169332,0.999995,0.000297,-0.005641,0.010677,0.000230,0.010680,-0.005644,89.192468,0.010686,
1810,40,-0.180478,-19.981216,0.999997,0.000234,-0.001206,0.008632,-0.003776,0.009915,-0.002488,-71.243058,0.010317,
570,610,3.192847,-13.924270,0.999970,0.000647,-0.004585,0.010576,-0.000079,0.010577,-0.004585,-89.702235,0.010608,
990,780,1.261930,-13.518315,0.999995,0.000284,-0.007637,0.012384,-0.001520,0.012499,-0.007752,-85.682412,0.012619,
1330,180,-0.103776,-19.141584,0.999999,0.000154,-0.001232,0.006670,-0.000135,0.006673,-0.001235,-89.022475,0.007100,
640,1550,2.523078,-4.950472,0.999995,0.000278,-0.005092,0.010157,0.000095,0.010158,-0.005093,89.642420,0.010158,
690,770,3.139131,-12.616071,0.999995,0.000260,-0.005216,0.010231,0.000817,0.010274,-0.005259,86.981231,0.010275,
1230,150,0.000361,-19.354271,0.999998,0.000156,-0.000899,0.006450,-0.000003,0.006450,-0.000899,-89.980274,0.006987,
590,350,2.298595,-16.607844,0.999997,0.000178,-0.005007,0.009924,-0.000068,0.009925,-0.005007,-89.738351,0.009925,
1160,1290,0.179809,-4.911552,0.999998,0.000190,-0.003456,0.004830,0.003460,0.006085,-0.004710,70.067091,0.006383,
1120,1420,0.308293,-4.345527,0.999997,0.000236,-0.003631,0.007165,0.002305,0.007637,-0.004102,78.439522,0.007644,
1110,1820,0.177881,-1.409579,0.999998,0.000164,-0.001590,0.007088,-0.000114,0.007089,-0.001592,-89.250344,0.007439,
1640,860,-2.768407,-11.874962,0.999993,0.000303,-0.005551,0.011247,-0.001352,0.011355,-0.005659,-85.427461,0.011355,
860,480,1.338166,-16.177177,0.999995,0.000265,-0.004908,0.009919,-0.000574,0.009941,-0.004930,-87.787889,0.009942,
600,1960,0.888509,-0.929386,0.999995,0.000269,-0.004592,0.011016,-0.002322,0.011354,-0.004930,-81.715101,0.011387,
1290,460,-0.144155,-17.182427,0.999998,0.000162,-0.002512,0.007114,0.000340,0.007126,-0.002524,87.981288,0.007227,
790,280,1.129315,-17.927246,0.999997,0.000190,-0.004236,0.009527,0.000486,0.009544,-0.004253,87.978903,0.009563,
1590,1720,-0.965383,-2.562905,0.999996,0.000208,-0.003943,0.009279,0.000019,0.009279,-0.003943,89.918062,0.009313,
1280,720,-0.102877,-15.588794,0.999997,0.000209,-0.002529,0.004558,0.002083,0.005125,-0.003096,74.772569,0.005162,
1030,130,0.159004,-19.439859,0.999997,0.000194,-0.001043,0.006834,0.000582,0.006877,-0.001085,85.798343,0.007394,
1580,870,-2.469618,-11.868792,0.999995,0.000267,-0.005983,0.011972,-0.001333,0.012071,-0.006082,-85.778853,0.012071,
1850,970,-4.046302,-10.591025,0.999997,0.000205,-0.004251,0.008714,-0.000088,0.008715,-0.004251,-89.609203,0.008715,
900,780,1.923528,-13.028269,0.999994,0.000274,-0.006926,0.012205,0.000245,0.012208,-0.006929,89.265086,0.012245,
1580,1470,-1.437012,-4.974708,0.999995,0.000271,-0.005696,0.010458,-0.000779,0.010496,-0.005734,-87.244690,0.010511,
840,1030,3.135846,-10.052339,0.999995,0.000296,-0.003841,0.010411,-0.000057,0.010411,-0.003841,-89.770090,0.010529,
1830,440,-2.368910,-15.851190,0.999996,0.000229,-0.005048,0.010086,0.000135,0.010087,-0.005049,89.488799,0.010087,
1860,1470,-2.952479,-5.883734,0.999997,0.000204,-0.005110,0.010158,0.000031,0.010158,-0.005110,89.882701,0.010158,
1330,1490,-0.265288,-3.798557,0.999997,0.000215,-0.003050,0.007148,-0.001275,0.007305,-0.003207,-82.979148,0.007323,
770,1770,1.231511,-2.332193,0.999996,0.000223,-0.004225,0.009728,-0.000519,0.009747,-0.004244,-87.873185,0.009774,
1770,210,-1.243896,-18.368148,0.999996,0.000224,-0.004513,0.010038,-0.001029,0.010110,-0.004586,-85.974551,0.010125,
1560,160,-0.391429,-19.150318,0.999997,0.000209,-0.001754,0.007778,-0.001100,0.007904,-0.001879,-83.502282,0.008258,
950,1880,0.354371,-1.090106,0.999997,0.000191,-0.001870,0.007521,-0.000727,0.007577,-0.001926,-85.598712,0.007876,
1300,810,-0.249075,-15.077133,0.999993,0.000294,-0.004171,0.004108,0.003370,0.005307,-0.005369,70.425261,0.006164,
1170,1710,0.128467,-2.159399,0.999998,0.000158,-0.002030,0.007152,0.000051,0.007153,-0.002030,89.683751,0.007372,
670,300,1.740193,-17.390217,0.999997,0.000216,-0.004772,0.010110,0.000242,0.010114,-0.004776,89.067164,0.010120,
870,820,2.305939,-12.439765,0.999995,0.000285,-0.006414,0.011979,0.001004,0.012034,-0.006469,86.883535,0.012045,
1430,650,-0.703544,-15.228666,0.999994,0.000297,-0.005394,0.009412,0.002374,0.009783,-0.005765,81.110534,0.009835,
840,1050,3.121143,-9.844479,0.999997,0.000207,-0.003887,0.010367,-0.000388,0.010378,-0.003897,-88.442700,0.010485,
1510,1730,-0.665939,-2.301237,0.999996,0.000220,-0.003244,0.008645,-0.000053,0.008645,-0.003244,-89.744096,0.008735,
910,2010,0.067761,-0.170781,0.999999,0.000158,-0.000202,0.006693,-0.001169,0.006886,-0.000395,-80.631839,0.007734,
750,1760,1.349758,-2.480377,0.999997,0.000214,-0.004219,0.009843,-0.000512,0.009862,-0.004238,-87.916341,0.009895,
650,570,2.665312,-14.575674,0.999996,0.000247,-0.005134,0.010248,-0.000007,0.010248,-0.005134,-89.974966,0.010248,
1310,1800,-0.120382,-1.523456,0.999998,0.000167,-0.001578,0.006968,0.000044,0.006968,-0.001578,89.702932,0.007308,
1050,500,0.533323,-16.615640,0.999996,0.000233,-0.003611,0.008249,-0.001135,0.008357,-0.003719,-84.581094,0.008374,
1640,840,-2.684709,-12.098348,0.999994,0.000278,-0.005763,0.011251,-0.001238,0.011340,-0.005853,-85.860250,0.011342,
1720,1700,-1.569473,-3.091601,0.999995,0.000247,-0.004695,0.009959,0.000125,0.009960,-0.004697,89.512927,0.009966,
1440,1210,-1.329568,-7.198413,0.999994,0.000287,-0.007882,0.013318,-0.001739,0.013460,-0.008024,-85.342336,0.013542,
1260,850,-0.262394,-15.283902,0.999982,0.000466,-0.007670,0.003047,-0.000386,0.003061,-0.007684,-87.941235,0.007736,
1610,1640,-1.229064,-3.362994,0.999996,0.000257,-0.004473,0.009629,-0.000277,0.009635,-0.004479,-88.876229,0.009643,
950,880,2.103206,-11.957246,0.999995,0.000270,-0.006664,0.013114,0.000923,0.013157,-0.006707,87.332402,0.013158,
790,240,0.986599,-18.304947,0.999998,0.000155,-0.003927,0.009421,0.000805,0.009470,-0.003975,86.559235,0.009510,
1210,700,0.043938,-15.751776,0.999998,0.000184,-0.002091,0.004392,-0.000880,0.004509,-0.002208,-82.407977,0.004510,
750,220,1.058783,-18.416737,0.999997,0.000187,-0.003598,0.009615,0.001289,0.009740,-0.003723,84.481551,0.009829,
820,750,2.326629,-13.125891,0.999992,0.000356,-0.006243,0.011388,0.000602,0.011409,-0.006264,88.045458,0.011427,
590,150,1.368920,-18.596182,0.999995,0.000306,-0.004943,0.010365,0.000924,0.010421,-0.004998,86.556571,0.010424,
1800,210,-1.378630,-18.283006,0.999995,0.000237,-0.004461,0.010231,-0.001136,0.010318,-0.004548,-85.605846,0.010342,
570,560,3.038072,-14.431857,0.999993,0.000309,-0.004893,0.010238,-0.000002,0.010238,-0.004893,-89.993717,0.010241,
1300,390,-0.154583,-17.676191,0.999998,0.000158,-0.002299,0.007211,0.000203,0.007215,-0.002303,88.777222,0.007371,
940,1300,1.536811,-6.639664,0.999994,0.000265,-0.007250,0.012223,0.000707,0.012249,-0.007276,87.923424,0.012321,
1070,1630,0.418544,-2.886322,0.999997,0.000208,-0.003206,0.007898,0.000805,0.007956,-0.003264,85.872537,0.007998,
1680,1320,-2.493394,-6.963963,0.999995,0.000256,-0.005926,0.011042,0.000651,0.011067,-0.005951,87.806804,0.011077,
1640,1150,-2.946884,-8.787639,0.999995,0.000258,-0.004962,0.010911,0.001350,0.011025,-0.005076,85.174366,0.011036,
1600,500,-1.363751,-15.987922,0.999995,0.000271,-0.004982,0.009963,0.000609,0.009988,-0.005007,87.669706,0.009988,
1810,1720,-1.941549,-3.179245,0.999995,0.000270,-0.004926,0.010060,0.000017,0.010060,-0.004926,89.936015,0.010060,
1890,810,-3.845610,-11.955650,0.999996,0.000236,-0.004548,0.009145,-0.000211,0.009148,-0.004552,-89.115527,0.009148,
1840,1470,-2.849244,-5.822358,0.999996,0.000240,-0.005111,0.010177,0.000061,0.010178,-0.005111,89.773087,0.010178,
600,1940,1.059075,-1.141550,0.999996,0.000240,-0.004742,0.010701,-0.001666,0.010879,-0.004920,-83.913088,0.010896,
820,280,1.008027,-17.998861,0.999996,0.000249,-0.003567,0.009295,0.000599,0.009323,-0.003595,87.338606,0.009404,
1470,1250,-1.342625,-6.935665,0.999992,0.000339,-0.007815,0.012759,-0.001277,0.012838,-0.007894,-86.461786,0.012950,
1330,1470,-0.265756,-3.938113,0.999997,0.000231,-0.003131,0.007051,-0.001476,0.007260,-0.003341,-81.918052,0.007268,
1380,1380,-0.466227,-4.854592,0.999995,0.000269,-0.004775,0.008285,-0.002916,0.008907,-0.005396,-77.969746,0.008973,
950,1860,0.401358,-1.243615,0.999997,0.000215,-0.002116,0.007778,-0.000696,0.007827,-0.002164,-85.996781,0.008083,
1560,140,-0.334661,-19.304869,0.999997,0.000198,-0.001509,0.007623,-0.001141,0.007764,-0.001650,-82.983540,0.008180,
1140,790,0.294414,-14.930973,0.999996,0.000272,-0.004508,0.005930,-0.004221,0.007424,-0.006002,-70.516116,0.007880,
1120,1400,0.306040,-4.490852,0.999997,0.000249,-0.003691,0.007162,0.002556,0.007734,-0.004263,77.387755,0.007748,
590,80,0.791081,-19.362719,0.999997,0.000207,-0.004589,0.012072,0.002880,0.012556,-0.005073,80.465524,0.012633,
1170,1690,0.131505,-2.301548,0.999998,0.000166,-0.002140,0.007140,0.000101,0.007141,-0.002141,89.379476,0.007330,
1420,350,-0.432143,-17.817665,0.999996,0.000244,-0.002928,0.007842,0.000377,0.007856,-0.002942,87.998321,0.007938,
1570,1400,-1.543108,-5.688427,0.999995,0.000264,-0.006252,0.011072,-0.000706,0.011101,-0.006280,-87.670475,0.011133,
860,460,1.296994,-16.376368,0.999997,0.000242,-0.004790,0.009841,-0.000523,0.009859,-0.004808,-87.956581,0.009860,
690,750,3.066644,-12.821713,0.999995,0.000268,-0.005254,0.010335,0.000720,0.010368,-0.005287,87.360238,0.010369,
1230,130,0.000727,-19.484084,0.999998,0.000136,-0.000737,0.006374,-0.000032,0.006374,-0.000737,-89.742818,0.006973,
980,1600,0.762778,-3.371501,0.999997,0.000201,-0.003963,0.008851,0.000832,0.008905,-0.004016,86.300046,0.008919,
1510,1710,-0.704582,-2.479306,0.999996,0.000230,-0.003423,0.008680,-0.000203,0.008683,-0.003427,-89.040352,0.008747,
1430,630,-0.681654,-15.418213,0.999994,0.000294,-0.005133,0.009152,0.002225,0.009490,-0.005472,81.350688,0.009527,
880,50,0.091871,-19.951416,0.999998,0.000172,-0.000652,0.006833,0.001362,0.007074,-0.000892,80.000469,0.007705,
770,1750,1.299095,-2.525595,0.999996,0.000229,-0.004317,0.009676,-0.000323,0.009683,-0.004324,-88.678020,0.009702,
650,550,2.604284,-14.781597,0.999994,0.000272,-0.005132,0.010207,-0.000048,0.010207,-0.005132,-89.822336,0.010207,
1400,1470,-0.520496,-4.204754,0.999994,0.000286,-0.004242,0.008354,-0.001969,0.008655,-0.004542,-81.319464,0.008659,
860,1050,3.045595,-9.839526,0.999996,0.000239,-0.003786,0.010525,-0.000408,0.010537,-0.003798,-88.366654,0.010673,
1170,1800,0.096916,-1.520457,0.999998,0.000154,-0.001479,0.006914,-0.000070,0.006914,-0.001480,-89.520017,0.007281,
1200,750,0.063697,-15.542981,0.999996,0.000239,-0.002273,0.003419,-0.001650,0.003863,-0.002717,-74.946065,0.003968,
1810,630,-2.841652,-13.968107,0.999996,0.000240,-0.005180,0.010232,-0.000206,0.010235,-0.005183,-89.234866,0.010235,
1640,820,-2.597547,-12.327471,0.999994,0.000285,-0.005946,0.011436,-0.001142,0.011510,-0.006020,-86.257633,0.011514,
930,880,2.233905,-11.880397,0.999994,0.000282,-0.006414,0.012712,0.001205,0.012787,-0.006489,86.408469,0.012788,
900,2010,0.069177,-0.171084,0.999998,0.000164,-0.000328,0.006754,-0.001229,0.006961,-0.000536,-80.427074,0.007747,
1900,680,-3.461343,-13.182145,0.999995,0.000000,-0.004980,0.010113,-0.000100,0.010114,-0.004981,-89.619661,0.010114,
730,1350,2.685992,-6.768985,0.999995,0.000260,-0.005600,0.010662,-0.000553,0.010681,-0.005618,-88.052843,0.010685,
590,1110,4.117602,-9.375851,0.999996,0.000228,-0.004147,0.008621,-0.000227,0.008625,-0.004151,-88.981669,0.008627,
1190,700,0.086977,-15.710114,0.999997,0.000203,-0.002423,0.004722,-0.001617,0.005071,-0.002772,-77.827553,0.005078,
1740,1970,-0.404675,-0.533634,0.999996,0.000228,-0.002324,0.008294,0.002429,0.008823,-0.002854,77.708509,0.009004,
940,1280,1.616205,-6.889364,0.999992,0.000307,-0.007357,0.012443,0.000482,0.012455,-0.007368,88.605580,0.012525,
820,730,2.247738,-13.354098,0.999992,0.000335,-0.006237,0.011340,0.000448,0.011351,-0.006248,88.542354,0.011371,
1220,770,0.025390,-15.530703,0.999998,0.000163,-0.002260,0.002572,-0.000671,0.002663,-0.002351,-82.240806,0.002912,
1330,50,-0.017664,-19.975340,0.999998,0.000161,-0.000282,0.006009,-0.000220,0.006017,-0.000290,-87.995304,0.006786,
1770,190,-1.143325,-18.573920,0.999996,0.000221,-0.004407,0.010003,-0.001243,0.010109,-0.004513,-85.104228,0.010129,
1820,1150,-3.799175,-8.949644,0.999995,0.000272,-0.004469,0.009249,0.000550,0.009271,-0.004491,87.709436,0.009272,
1680,1300,-2.568020,-7.183042,0.999996,0.000237,-0.005890,0.011041,0.000787,0.011078,-0.005927,87.346039,0.011087,
750,1740,1.416703,-2.677218,0.999995,0.000253,-0.004349,0.009834,-0.000322,0.009841,-0.004357,-88.699798,0.009862,
590,250,1.918608,-17.594857,0.999997,0.000211,-0.004847,0.009798,0.000127,0.009799,-0.004849,89.502772,0.009800,
580,150,1.419494,-18.546552,0.999996,0.000267,-0.005230,0.010489,0.000955,0.010547,-0.005288,86.536702,0.010547,
1590,1640,-1.142459,-3.308954,0.999996,0.000244,-0.004308,0.009482,-0.000329,0.009490,-0.004316,-88.635669,0.009503,
1720,1680,-1.632431,-3.293897,0.999996,0.000253,-0.004778,0.010019,0.000006,0.010019,-0.004778,89.975005,0.010023,
1420,1210,-1.172674,-6.988218,0.999992,0.000339,-0.007617,0.012669,-0.002511,0.012975,-0.007923,-83.048473,0.013081,
1470,1230,-1.447389,-7.203208,0.999992,0.000357,-0.007850,0.013123,-0.000985,0.013169,-0.007896,-87.316022,0.013256,
600,1920,1.215855,-1.356143,0.999996,0.000234,-0.004832,0.010541,-0.001263,0.010644,-0.004935,-85.333990,0.010654,
1770,1280,-3.142581,-7.590145,0.999997,0.000203,-0.005200,0.010245,0.000849,0.010292,-0.005247,86.861758,0.010293,
800,1470,1.904807,-5.269374,0.999997,0.000216,-0.005552,0.010593,0.000249,0.010597,-0.005555,89.117897,0.010601,
670,960,3.792279,-10.712373,0.999995,0.000296,-0.004433,0.009391,0.000470,0.009407,-0.004449,88.055892,0.009412,
1380,1360,-0.471495,-5.021059,0.999994,0.000291,-0.005014,0.008468,-0.003140,0.009163,-0.005710,-77.512160,0.009255,
1830,380,-2.188069,-16.457927,0.999996,0.000259,-0.004926,0.010082,0.000105,0.010082,-0.004927,89.598650,0.010083,
1330,1450,-0.263150,-4.076102,0.999997,0.000213,-0.003228,0.006979,-0.001725,0.007263,-0.003511,-80.663100,0.007264,
1510,1690,-0.737319,-2.648513,0.999997,0.000210,-0.003583,0.008626,-0.000345,0.008636,-0.003593,-88.384250,0.008677,
950,140,0.268300,-19.332391,0.999997,0.000217,-0.001495,0.007295,0.000858,0.007378,-0.001578,84.477846,0.007770,
1070,1610,0.432570,-3.046273,0.999997,0.000207,-0.003337,0.007918,0.000934,0.007995,-0.003414,85.290112,0.008024,
820,260,0.941743,-18.181597,0.999996,0.000250,-0.003414,0.009175,0.000743,0.009219,-0.003458,86.633320,0.009315,
690,730,2.995048,-13.030798,0.999996,0.000240,-0.005295,0.010354,0.000658,0.010382,-0.005323,87.598288,0.010383,
1610,1700,-1.093608,-2.798390,0.999997,0.000196,-0.003918,0.009333,0.000048,0.009333,-0.003919,89.792695,0.009373,
980,1580,0.786365,-3.548697,0.999997,0.000207,-0.004048,0.008925,0.000914,0.008989,-0.004112,85.988603,0.009000,
1120,1380,0.306046,-4.630889,0.999996,0.000234,-0.003794,0.007113,0.002771,0.007777,-0.004457,76.529860,0.007804,
770,1730,1.359745,-2.722708,0.999996,0.000231,-0.004386,0.009832,-0.000194,0.009835,-0.004389,-89.216867,0.009854,
1650,1020,-3.240502,-10.157707,0.999995,0.000244,-0.003986,0.010238,-0.000196,0.010240,-0.003989,-89.212559,0.010323,
1430,1880,-0.222995,-1.033104,0.999998,0.000171,-0.001468,0.007022,0.000401,0.007041,-0.001487,87.303741,0.007422,
1560,120,-0.275261,-19.456462,0.999997,0.000219,-0.001232,0.007520,-0.001242,0.007692,-0.001405,-82.075810,0.008193,
1430,610,-0.668325,-15.600983,0.999996,0.000253,-0.004834,0.009083,0.002051,0.009379,-0.005130,81.790263,0.009393,
1170,1670,0.138517,-2.443815,0.999998,0.000168,-0.002237,0.007153,0.000135,0.007155,-0.002239,89.177144,0.007320,
1180,370,0.112017,-17.828812,0.999998,0.000182,-0.002160,0.007116,-0.000114,0.007118,-0.002161,-89.295310,0.007299,
650,530,2.545128,-14.986071,0.999995,0.000284,-0.005155,0.010203,-0.000080,0.010204,-0.005155,-89.701933,0.010204,
860,2020,0.062514,-0.109413,0.999998,0.000000,-0.000340,0.006731,-0.001472,0.007025,-0.000634,-78.700370,0.007772,
970,840,1.713988,-12.601181,0.999993,0.000338,-0.007617,0.013326,-0.000144,0.013327,-0.007618,-89.606322,0.013373,
1080,1970,0.062351,-0.408571,0.999999,0.000162,-0.000378,0.006396,-0.000449,0.006425,-0.000407,-86.223345,0.007195,
1120,790,0.390997,-14.709100,0.999993,0.000308,-0.005344,0.007370,-0.004502,0.008803,-0.006777,-72.346000,0.009220,
1670,300,-1.181788,-17.744907,0.999997,0.000193,-0.004309,0.009557,-0.000302,0.009563,-0.004316,-88.753188,0.009578,
1230,110,0.000805,-19.610844,0.999998,0.000155,-0.000600,0.006286,-0.000013,0.006286,-0.000600,-89.890728,0.006938,
1270,460,-0.094852,-17.193657,0.999998,0.000156,-0.002446,0.007009,0.000277,0.007017,-0.002454,88.322735,0.007122,
1550,1400,-1.418485,-5.604919,0.999995,0.000276,-0.006242,0.011037,-0.000941,0.011088,-0.006293,-86.890838,0.011122,
1030,1540,0.619467,-3.735811,0.999995,0.000260,-0.004143,0.008600,0.001378,0.008747,-0.004290,83.896999,0.008748,
1350,1820,-0.173744,-1.407902,0.999997,0.000191,-0.001658,0.007103,0.000081,0.007104,-0.001658,89.472416,0.007433,
1670,920,-3.145186,-11.182626,0.999997,0.000219,-0.004747,0.010530,-0.001143,0.010615,-0.004832,-85.746443,0.010629,
900,2000,0.094792,-0.238781,0.999998,0.000168,-0.000489,0.006829,-0.001243,0.007034,-0.000695,-80.617605,0.007753,
860,440,1.250830,-16.574975,0.999997,0.000272,-0.004620,0.009749,-0.000441,0.009762,-0.004633,-88.244126,0.009766,
940,1260,1.703038,-7.138318,0.999993,0.000303,-0.007396,0.012648,0.000186,0.012650,-0.007398,89.469243,0.012710,
1700,110,-0.472307,-19.446180,0.999995,0.000247,-0.001847,0.008570,-0.002356,0.009078,-0.002355,-77.827677,0.009422,
1810,610,-2.774078,-14.171866,0.999996,0.000237,-0.005192,0.010222,-0.000139,0.010223,-0.005193,-89.482068,0.010223,
1770,1000,-3.728947,-10.342583,0.999997,0.000224,-0.004337,0.009517,-0.000309,0.009524,-0.004344,-88.723306,0.009536,
570,150,1.468762,-18.495361,0.999750,0.002013,-0.005389,0.010658,0.001027,0.010724,-0.005454,86.354455,0.010724,
800,750,2.448725,-13.072112,0.999993,0.000296,-0.006043,0.011217,0.000701,0.011245,-0.006071,87.678601,0.011257,
730,1330,2.757177,-6.982935,0.999997,0.000221,-0.005583,0.010599,-0.000671,0.010627,-0.005611,-87.628193,0.010633,
1200,770,0.068352,-15.476766,0.999996,0.000260,-0.002419,0.002984,-0.001799,0.003528,-0.002963,-73.171712,0.003790,
1260,1670,-0.064439,-2.427244,0.999997,0.000188,-0.002249,0.007111,-0.000216,0.007116,-0.002254,-88.678233,0.007273,
1640,800,-2.511040,-12.557727,0.999995,0.000288,-0.006088,0.011486,-0.001007,0.011543,-0.006146,-86.730600,0.011551,
1020,50,0.045395,-19.966498,0.999998,0.000151,-0.000227,0.006309,0.000630,0.006369,-0.000287,84.545621,0.007195,
1700,390,-1.582290,-16.776555,0.999996,0.000214,-0.004710,0.009937,0.000078,0.009937,-0.004711,89.695896,0.009941,
1670,980,-3.284223,-10.560435,0.999996,0.000212,-0.004228,0.010179,-0.000557,0.010200,-0.004250,-87.790788,0.010248,
600,1900,1.353108,-1.562576,0.999996,0.000229,-0.004878,0.010297,-0.000870,0.010347,-0.004928,-86.729542,0.010351,
1680,1280,-2.648192,-7.408039,0.999995,0.000244,-0.005843,0.011087,0.000922,0.011137,-0.005893,86.893442,0.011144,
1510,1670,-0.769153,-2.824429,0.999997,0.000189,-0.003659,0.008737,-0.000417,0.008751,-0.003673,-88.074192,0.008789,
1380,1340,-0.485622,-5.190239,0.999994,0.000289,-0.005327,0.008661,-0.003431,0.009457,-0.006123,-76.935466,0.009593,
1900,670,-3.427709,-13.285106,0.999996,0.000000,-0.005016,0.010179,-0.000079,0.010179,-0.005017,-89.701938,0.010179,
1330,1430,-0.260183,-4.213346,0.999997,0.000211,-0.003339,0.006871,-0.002005,0.007250,-0.003719,-79.280437,0.007251,
860,30,0.044087,-20.084222,0.999998,0.000000,-0.000106,0.006817,0.001562,0.007153,-0.000442,77.854045,0.008017,
780,1470,2.013918,-5.333856,0.999997,0.000192,-0.005555,0.010571,0.000177,0.010573,-0.005557,89.370041,0.010578,
1570,660,-1.557095,-14.415876,0.999993,0.000340,-0.006305,0.011165,0.000697,0.011193,-0.006333,87.717418,0.011225,
1770,170,-1.036602,-18.770033,0.999997,0.000222,-0.004202,0.009904,-0.001586,0.010080,-0.004378,-83.665405,0.010109,
1480,410,-0.695164,-17.194122,0.999997,0.000221,-0.003740,0.008664,0.000662,0.008699,-0.003775,86.953523,0.008724,
1070,1590,0.444365,-3.204948,0.999997,0.000227,-0.003431,0.007992,0.001043,0.008087,-0.003525,84.825601,0.008109,
1120,1360,0.304025,-4.769196,0.999996,0.000243,-0.003974,0.007092,0.003075,0.007889,-0.004771,75.469340,0.007947,
1030,110,0.124970,-19.576911,0.999998,0.000200,-0.000899,0.006741,0.000616,0.006791,-0.000948,85.417578,0.007355,
1850,950,-4.029397,-10.763298,0.999997,0.000225,-0.004292,0.008856,-0.000296,0.008863,-0.004299,-88.710908,0.008864,
890,1540,1.259751,-4.230145,0.999997,0.000216,-0.005066,0.009994,0.000791,0.010036,-0.005107,87.001686,0.010036,
1470,1210,-1.563286,-7.472264,0.999993,0.000335,-0.007756,0.013479,-0.000690,0.013501,-0.007779,-88.140376,0.013553,
1600,480,-1.324869,-16.184608,0.999994,0.000274,-0.004903,0.009897,0.000585,0.009920,-0.004926,87.739202,0.009920,
1680,1150,-3.141675,-8.825177,0.999997,0.000253,-0.004868,0.010575,0.001258,0.010677,-0.004970,85.374508,0.010686,
1890,1720,-2.331976,-3.467301,0.999995,0.000247,-0.004928,0.009784,-0.000065,0.009784,-0.004929,-89.745375,0.009784,
1610,660,-1.805578,-14.257778,0.999996,0.000244,-0.006201,0.011095,0.000307,0.011100,-0.006206,88.982258,0.011126,
1250,460,-0.045143,-17.206642,0.999997,0.000219,-0.002484,0.006962,0.000263,0.006970,-0.002492,88.407311,0.007063,
1240,1950,-0.005905,-0.519091,0.999998,0.000150,-0.000587,0.006247,0.000005,0.006247,-0.000587,89.960338,0.006900,
770,1710,1.419275,-2.920901,0.999996,0.000216,-0.004416,0.009810,-0.000145,0.009811,-0.004418,-89.417375,0.009827,
970,1240,1.575901,-7.228526,0.999991,0.000374,-0.007700,0.013014,0.000536,0.013027,-0.007714,88.519628,0.013101,
1720,1660,-1.692101,-3.496235,0.999996,0.000250,-0.004852,0.010063,-0.000104,0.010064,-0.004853,-89.599326,0.010066,
860,420,1.209059,-16.769074,0.999996,0.000280,-0.004413,0.009592,-0.000336,0.009600,-0.004421,-88.628464,0.009610,
820,240,0.872212,-18.368326,0.999996,0.000237,-0.003210,0.009157,0.000905,0.009223,-0.003276,85.836079,0.009351,
1560,100,-0.218322,-19.606512,0.999998,0.000201,-0.000994,0.007217,-0.001260,0.007405,-0.001183,-81.470095,0.007956,
1590,120,-0.327310,-19.437453,0.999997,0.000192,-0.001712,0.007717,-0.001358,0.007909,-0.001904,-81.964215,0.008256,
960,1030,2.702087,-10.049637,0.999997,0.000220,-0.003843,0.012411,-0.000077,0.012412,-0.003844,-89.728246,0.012708,
650,510,2.486239,-15.190734,0.999996,0.000262,-0.005150,0.010200,-0.000115,0.010201,-0.005151,-89.569810,0.010201,
1540,390,-0.886272,-17.222725,0.999996,0.000233,-0.003737,0.008979,0.000287,0.008985,-0.003744,88.707573,0.009027,
1280,700,-0.104034,-15.685276,0.999997,0.000206,-0.002530,0.004883,0.001869,0.005328,-0.002974,76.616827,0.005340,
1430,590,-0.655410,-15.778507,0.999995,0.000261,-0.004580,0.008916,0.001863,0.009168,-0.004832,82.282708,0.009172,
970,820,1.602818,-12.866780,0.999994,0.000303,-0.007709,0.013112,-0.000467,0.013123,-0.007719,-88.716613,0.013191,
1030,1860,0.258253,-1.178341,0.999998,0.000221,-0.001690,0.007264,-0.000411,0.007283,-0.001708,-87.379007,0.007617,
940,1240,1.801835,-7.395229,0.999993,0.000285,-0.007364,0.012841,-0.000113,0.012842,-0.007364,-89.680089,0.012888,
1890,1370,-3.427687,-6.994207,0.999994,0.000277,-0.004955,0.010007,0.000124,0.010008,-0.004956,89.524474,0.010008,
670,260,1.579338,-17.795444,0.999997,0.000240,-0.004681,0.010106,0.000597,0.010130,-0.004705,87.691169,0.010139,
900,760,1.841943,-13.271990,0.999994,0.000274,-0.006934,0.012149,0.000012,0.012149,-0.006934,89.964792,0.012190,
1700,590,-2.123555,-14.715607,0.999996,0.000236,-0.005538,0.010566,0.000120,0.010567,-0.005539,89.573831,0.010571,
1640,780,-2.427372,-12.788964,0.999995,0.000305,-0.006180,0.011441,-0.000842,0.011482,-0.006221,-87.271560,0.011495,
1260,390,-0.064279,-17.696897,0.999998,0.000168,-0.002277,0.007100,0.000205,0.007105,-0.002281,88.749956,0.007255,
1170,1650,0.142602,-2.587810,0.999998,0.000170,-0.002332,0.007198,0.000216,0.007203,-0.002337,88.701991,0.007350,
1750,1280,-3.036217,-7.550899,0.999997,0.000251,-0.005305,0.010457,0.000900,0.010508,-0.005356,86.740914,0.010509,
770,500,1.838370,-15.682842,0.999997,0.000204,-0.005159,0.010264,-0.000299,0.010270,-0.005165,-88.889688,0.010270,
1510,1650,-0.800395,-2.999334,0.999997,0.000211,-0.003710,0.008778,-0.000492,0.008797,-0.003730,-87.746005,0.008831,
730,1310,2.833832,-7.194737,0.999997,0.000235,-0.005544,0.010612,-0.000783,0.010650,-0.005582,-87.232975,0.010654,
850,2020,0.062562,-0.112377,0.999998,0.000000,-0.000143,0.006791,-0.001572,0.007131,-0.000482,-77.802133,0.007970,
1240,1670,-0.018610,-2.417412,0.999998,0.000179,-0.002275,0.007092,-0.000121,0.007094,-0.002276,-89.259141,0.007244,
680,1290,3.173490,-7.513416,0.999998,0.000175,-0.005158,0.010167,-0.000764,0.010205,-0.005196,-87.151796,0.010206,
1060,1970,0.070915,-0.411000,0.999998,0.000164,-0.000575,0.006441,-0.000487,0.006475,-0.000608,-86.045860,0.007151,
690,710,2.921032,-13.237443,0.999996,0.000233,-0.005314,0.010336,0.000587,0.010358,-0.005336,87.853924,0.010360,
1900,660,-3.394825,-13.388697,0.999996,0.000000,-0.005042,0.010162,-0.000069,0.010163,-0.005042,-89.739914,0.010163,
1300,1270,-0.192612,-4.977458,0.999997,0.000245,-0.003558,0.004417,-0.003571,0.005782,-0.004923,-69.077912,0.006240,
1230,90,0.000459,-19.734470,0.999998,0.000163,-0.000485,0.006120,0.000000,0.006120,-0.000485,-89.996621,0.006803,
1030,90,0.099256,-19.709692,0.999998,0.000169,-0.000690,0.006520,0.000559,0.006563,-0.000733,85.590367,0.007193,
1510,1700,-0.721027,-2.564732,0.999996,0.000249,-0.003513,0.008610,-0.000287,0.008616,-0.003520,-88.645813,0.008664,
1120,1340,0.304869,-4.912334,0.999995,0.000265,-0.004225,0.007086,0.003419,0.008039,-0.005178,74.423637,0.008150,
1890,640,-3.278600,-13.621995,0.999997,0.000222,-0.005081,0.010105,-0.000113,0.010106,-0.005082,-89.575328,0.010106,
940,1030,2.775836,-10.048656,0.999997,0.000231,-0.003581,0.011720,-0.000035,0.011720,-0.003581,-89.868359,0.012012,
1570,120,-0.290819,-19.451034,0.999997,0.000204,-0.001451,0.007584,-0.001268,0.007759,-0.001626,-82.160950,0.008183,
780,1450,2.072240,-5.546875,0.999996,0.000214,-0.005652,0.010679,0.000100,0.010679,-0.005652,89.650017,0.010685,
980,1560,0.806753,-3.726763,0.999996,0.000229,-0.004185,0.009031,0.001020,0.009109,-0.004264,85.613232,0.009115,
1470,1190,-1.698446,-7.748783,0.999993,0.000325,-0.007597,0.013758,-0.000361,0.013765,-0.007603,-89.031167,0.013790,
1360,310,-0.251593,-18.199635,0.999997,0.000192,-0.002129,0.007355,0.000098,0.007356,-0.002130,89.410494,0.007570,
1380,1320,-0.503186,-5.369664,0.999994,0.000294,-0.005706,0.008889,-0.003713,0.009780,-0.006596,-76.516233,0.009976,
1350,1860,-0.140474,-1.128153,0.999998,0.000171,-0.001339,0.006864,0.000199,0.006869,-0.001344,88.611551,0.007280,
650,490,2.426461,-15.397098,0.999996,0.000238,-0.005114,0.010202,-0.000129,0.010203,-0.005115,-89.519325,0.010203,
1280,680,-0.107061,-15.787442,0.999997,0.000211,-0.002575,0.005199,0.001675,0.005545,-0.002920,78.345433,0.005547,
1560,80,-0.160366,-19.746481,0.999998,0.000164,-0.000745,0.007021,-0.001281,0.007227,-0.000951,-80.872586,0.007853,
1810,60,-0.350460,-19.805863,0.999994,0.000306,-0.001714,0.009396,-0.003720,0.010526,-0.002844,-73.095311,0.010891,
1210,240,0.033145,-18.754071,0.999998,0.000199,-0.001504,0.006815,-0.000032,0.006815,-0.001504,-89.782704,0.007161,
1650,980,-3.203845,-10.569650,0.999997,0.000202,-0.004120,0.010321,-0.000639,0.010349,-0.004149,-87.472225,0.010417,
600,1880,1.478244,-1.770971,0.999996,0.000233,-0.004874,0.010261,-0.000711,0.010294,-0.004907,-87.315343,0.010298,
1430,570,-0.644828,-15.954366,0.999995,0.000245,-0.004417,0.008739,0.001738,0.008965,-0.004643,82.600207,0.008967,
940,1220,1.905344,-7.653721,0.999995,0.000259,-0.007193,0.012951,-0.000430,0.012960,-0.007202,-88.778433,0.012987,
1790,1660,-2.035239,-3.721624,0.999996,0.000239,-0.004948,0.010129,-0.000129,0.010130,-0.004949,-89.508469,0.010131,
1240,390,-0.019523,-17.706844,0.999998,0.000162,-0.002272,0.007077,0.000110,0.007078,-0.002274,89.328719,0.007227,
1330,1410,-0.257482,-4.352772,0.999996,0.000226,-0.003466,0.006812,-0.002271,0.007291,-0.003946,-78.080940,0.007299,
1570,640,-1.503856,-14.637195,0.999994,0.000276,-0.006149,0.010964,0.000790,0.011001,-0.006186,87.361990,0.011029,
1230,460,0.003962,-17.216087,0.999998,0.000161,-0.002488,0.006939,-0.000023,0.006939,-0.002488,-89.860963,0.007031,
820,220,0.803905,-18.549074,0.999997,0.000219,-0.003039,0.008973,0.001087,0.009071,-0.003137,84.869542,0.009213,
770,480,1.788422,-15.887125,0.999997,0.000209,-0.005071,0.010149,-0.000304,0.010155,-0.005077,-88.858003,0.010155,
1640,760,-2.347295,-13.019576,0.999994,0.000329,-0.006254,0.011431,-0.000680,0.011457,-0.006280,-87.802354,0.011474,
1700,370,-1.525947,-16.973408,0.999997,0.000193,-0.004536,0.009826,-0.000078,0.009827,-0.004537,-89.687962,0.009836,
1680,1260,-2.728323,-7.629953,0.999996,0.000241,-0.005748,0.011088,0.001038,0.011152,-0.005811,86.486191,0.011155,
1630,1020,-3.161545,-10.158337,0.999997,0.000223,-0.003894,0.010369,-0.000196,0.010371,-0.003897,-89.212546,0.010477,
1170,1630,0.145836,-2.731563,0.999998,0.000171,-0.002408,0.007138,0.000263,0.007145,-0.002416,88.421487,0.007269,
980,1270,1.358696,-6.775499,0.999996,0.000283,-0.007671,0.012554,0.001245,0.012631,-0.007748,86.490883,0.012738,
1210,2010,0.004129,-0.152055,0.999998,0.000169,-0.000231,0.006007,-0.000023,0.006007,-0.000231,-89.787117,0.006806,
1700,90,-0.373976,-19.612530,0.999996,0.000232,-0.001471,0.008053,-0.002261,0.008562,-0.001981,-77.301139,0.008965,
1650,920,-3.049442,-11.199178,0.999996,0.000233,-0.004746,0.010747,-0.001248,0.010846,-0.004846,-85.425531,0.010867,
1510,1630,-0.829243,-3.177604,0.999998,0.000204,-0.003810,0.008882,-0.000585,0.008909,-0.003837,-87.364910,0.008938,
1440,1550,-0.639145,-3.673281,0.999994,0.000268,-0.004101,0.008674,-0.001317,0.008808,-0.004235,-84.174023,0.008810,
1120,1320,0.317061,-5.054737,0.999995,0.000289,-0.004461,0.007054,0.003749,0.008167,-0.005574,73.463845,0.008346,
1160,1970,0.026608,-0.398960,0.999998,0.000173,-0.000329,0.006228,-0.000218,0.006235,-0.000336,-88.098209,0.007014,
1850,930,-3.986073,-10.943714,0.999997,0.000203,-0.004349,0.009039,-0.000514,0.009059,-0.004369,-87.804468,0.009060,
730,1290,2.909833,-7.408020,0.999997,0.000221,-0.005490,0.010659,-0.000883,0.010707,-0.005538,-86.880449,0.010709,
1880,640,-3.227363,-13.653232,0.999996,0.000222,-0.005078,0.010103,-0.000124,0.010104,-0.005080,-89.531422,0.010104,
1470,1170,-1.837784,-8.024932,0.999992,0.000350,-0.007267,0.013924,-0.000054,0.013925,-0.007267,-89.853160,0.013929,
850,30,0.043922,-20.085886,0.999997,0.000000,0.000058,0.006877,0.001699,0.007277,-0.000342,76.756522,0.008213,
1030,70,0.069630,-19.839023,0.999998,0.000169,-0.000507,0.006454,0.000640,0.006513,-0.000566,84.788612,0.007216,
1030,1500,0.648827,-4.086279,0.999997,0.000208,-0.004355,0.008738,0.001610,0.008933,-0.004551,83.090454,0.008934,
1380,1300,-0.530566,-5.550405,0.999993,0.000313,-0.006039,0.009227,-0.003858,0.010146,-0.006959,-76.593458,0.010377,
1500,270,-0.529442,-18.336596,0.999996,0.000222,-0.002859,0.008136,-0.000193,0.008139,-0.002862,-88.994404,0.008258,
650,470,2.369973,-15.600935,0.999996,0.000236,-0.005073,0.010165,-0.000144,0.010166,-0.005074,-89.459968,0.010166,
1530,1440,-1.212551,-5.084727,0.999996,0.000268,-0.005733,0.010407,-0.001206,0.010497,-0.005822,-85.750670,0.010518,
950,200,0.416271,-18.876179,0.999996,0.000262,-0.002173,0.007802,0.000650,0.007844,-0.002215,86.288038,0.008088,
1560,60,-0.105863,-19.887259,0.999998,0.000177,-0.000485,0.006861,-0.001264,0.007072,-0.000696,-80.501591,0.007795,
630,740,3.335541,-12.783386,0.999994,0.000284,-0.004982,0.009892,0.000503,0.009909,-0.004999,88.065487,0.009909,
980,1710,0.608962,-2.414732,0.999997,0.000210,-0.003170,0.008349,0.000264,0.008355,-0.003176,88.689458,0.008435,
1810,590,-2.709930,-14.376701,0.999996,0.000227,-0.005178,0.010256,-0.000033,0.010256,-0.005178,-89.875699,0.010256,
1770,440,-2.067632,-16.047321,0.999997,0.000196,-0.005006,0.010131,0.000168,0.010133,-0.005008,89.363157,0.010133,
1210,460,0.053260,-17.205061,0.999999,0.000153,-0.002448,0.006952,-0.000278,0.006960,-0.002457,-88.308002,0.007060,
1300,70,-0.018922,-19.854443,0.999998,0.000150,-0.000240,0.006140,-0.000200,0.006146,-0.000246,-88.207891,0.006959,
1770,150,-0.914150,-18.972421,0.999997,0.000226,-0.003998,0.009801,-0.001873,0.010051,-0.004248,-82.407141,0.010091,
1720,810,-3.008801,-12.295661,0.999996,0.000260,-0.005397,0.010568,-0.001058,0.010638,-0.005467,-86.226382,0.010640,
1430,550,-0.631527,-16.126645,0.999996,0.000234,-0.004297,0.008710,0.001637,0.008913,-0.004500,82.935052,0.008913,
600,1860,1.598480,-1.975664,0.999995,0.000249,-0.004876,0.010004,-0.000502,0.010021,-0.004893,-88.069453,0.010022,
820,200,0.726388,-18.730100,0.999997,0.000210,-0.002798,0.008851,0.001259,0.008985,-0.002932,83.898824,0.009164,
650,360,2.039168,-16.716943,0.999997,0.000191,-0.004973,0.010069,-0.000002,0.010069,-0.004973,-89.993509,0.010069,
1660,1150,-3.043860,-8.807322,0.999997,0.000218,-0.004882,0.010736,0.001314,0.010845,-0.004992,85.223853,0.010857,
1330,1390,-0.258937,-4.491975,0.999996,0.000239,-0.003552,0.006714,-0.002541,0.007308,-0.004146,-76.833092,0.007330,
1180,390,0.116727,-17.686206,0.999997,0.000195,-0.002223,0.007144,-0.000141,0.007146,-0.002225,-89.140800,0.007314,
1120,1300,0.334294,-5.201663,0.999994,0.000293,-0.004747,0.007205,0.004042,0.008443,-0.005986,72.962305,0.008686,
590,560,2.939752,-14.491176,0.999996,0.000228,-0.005017,0.010240,0.000013,0.010240,-0.005017,89.949501,0.010241,
1640,1890,-0.585734,-1.124655,0.999997,0.000197,-0.002258,0.008508,0.001517,0.008718,-0.002468,82.131730,0.008987,
950,1240,1.728256,-7.344442,0.999993,0.000302,-0.007491,0.012895,0.000050,0.012896,-0.007491,89.858073,0.012952,
940,1200,2.018898,-7.917041,0.999995,0.000262,-0.006941,0.012974,-0.000753,0.013003,-0.006970,-87.837782,0.013014,
1720,1640,-1.747292,-3.698806,0.999997,0.000214,-0.004924,0.010095,-0.000170,0.010097,-0.004926,-89.351992,0.010098,
1510,1610,-0.853980,-3.353812,0.999998,0.000192,-0.003974,0.009024,-0.000689,0.009060,-0.004011,-86.973797,0.009080,
1420,1550,-0.559645,-3.605895,0.999995,0.000262,-0.003734,0.008364,-0.001201,0.008482,-0.003852,-84.383244,0.008494,
1640,740,-2.268609,-13.248820,0.999995,0.000291,-0.006270,0.011400,-0.000527,0.011416,-0.006286,-88.292120,0.011435,
1580,1750,-0.851198,-2.259634,0.999998,0.000186,-0.003716,0.008925,0.000147,0.008927,-0.003718,89.333604,0.008968,
730,1270,2.984772,-7.624639,0.999996,0.000254,-0.005403,0.010544,-0.000943,0.010600,-0.005458,-86.627635,0.010601,
1650,680,-2.111949,-13.898691,0.999995,0.000278,-0.006037,0.011055,-0.000096,0.011056,-0.006037,-89.678331,0.011071,
1850,900,-3.920214,-11.216428,0.999997,0.000211,-0.004376,0.008944,-0.000395,0.008955,-0.004388,-88.303200,0.008956,
1280,1970,-0.021316,-0.397519,0.999998,0.000169,-0.000358,0.006190,0.000148,0.006194,-0.000361,88.710089,0.006953,
1010,1500,0.735166,-4.161943,0.999996,0.000215,-0.004494,0.009010,0.001516,0.009178,-0.004662,83.674378,0.009178,
1310,1440,-0.203654,-4.085646,0.999998,0.000205,-0.002954,0.006518,-0.001560,0.006768,-0.003204,-80.884509,0.006771,
900,370,0.933556,-17.348034,0.999996,0.000219,-0.003978,0.009127,-0.000185,0.009130,-0.003981,-89.193209,0.009155,
960,1710,0.677857,-2.462179,0.999997,0.000242,-0.003496,0.008561,0.000268,0.008567,-0.003502,88.728886,0.008614,
1170,1610,0.149319,-2.872809,0.999998,0.000182,-0.002486,0.007147,0.000351,0.007160,-0.002498,87.918767,0.007268,
1470,1150,-1.982503,-8.299925,0.999992,0.000344,-0.006807,0.014083,0.000259,0.014086,-0.006810,89.290238,0.014088,
650,450,2.312478,-15.802420,0.999996,0.000232,-0.005060,0.010105,-0.000148,0.010107,-0.005061,-89.440103,0.010107,
1380,1280,-0.566885,-5.737766,0.999994,0.000286,-0.006365,0.009505,-0.004041,0.010475,-0.007334,-76.506715,0.010751,
1010,1540,0.703852,-3.807073,0.999997,0.000204,-0.004201,0.008821,0.001292,0.008948,-0.004328,84.387063,0.008949,
1550,1990,-0.113856,-0.305120,0.999998,0.000175,-0.000454,0.006865,0.001227,0.007065,-0.000654,80.729749,0.007807,
980,1650,0.699380,-2.930742,0.999997,0.000200,-0.003706,0.008643,0.000618,0.008674,-0.003736,87.144147,0.008701,
1640,590,-1.789537,-14.914559,0.999994,0.000271,-0.005666,0.010641,0.000358,0.010649,-0.005674,88.742281,0.010657,
770,1690,1.480817,-3.116197,0.999996,0.000216,-0.004517,0.009807,-0.000076,0.009807,-0.004517,-89.697941,0.009818,
1900,650,-3.363763,-13.489518,0.999996,0.000000,-0.005077,0.010124,-0.000083,0.010124,-0.005078,-89.687950,0.010124,
1430,530,-0.618107,-16.303077,0.999996,0.000243,-0.004195,0.008626,0.001508,0.008801,-0.004370,83.382996,0.008801,
1300,1250,-0.233853,-5.061382,0.999996,0.000240,-0.003953,0.004195,-0.003485,0.005483,-0.005241,-69.727342,0.006196,
940,1180,2.138158,-8.178566,0.999995,0.000274,-0.006603,0.012942,-0.001021,0.012995,-0.006656,-87.018439,0.012996,
690,690,2.850146,-13.447782,0.999997,0.000216,-0.005326,0.010391,0.000488,0.010406,-0.005341,88.224638,0.010407,
930,140,0.298142,-19.319787,0.999997,0.000194,-0.001387,0.007410,0.001000,0.007522,-0.001499,83.593536,0.007963,
1120,70,0.034561,-19.850502,0.999998,0.000158,-0.000359,0.006203,0.000325,0.006219,-0.000375,87.172106,0.006974,
900,740,1.761250,-13.515178,0.999994,0.000296,-0.006904,0.011929,-0.000239,0.011932,-0.006907,-89.273579,0.011981,
1700,810,-2.898081,-12.329390,0.999995,0.000281,-0.005494,0.010775,-0.001082,0.010847,-0.005565,-86.212745,0.010848,
1600,460,-1.282337,-16.386277,0.999996,0.000262,-0.004803,0.009834,0.000513,0.009852,-0.004821,87.995278,0.009853,
1770,420,-2.010347,-16.249933,0.999996,0.000231,-0.004956,0.010121,0.000149,0.010123,-0.004958,89.433449,0.010123,
1230,700,0.002897,-15.777736,0.999997,0.000202,-0.002021,0.004253,-0.000073,0.004254,-0.002022,-89.331312,0.004256,
1810,570,-2.649960,-14.583148,0.999996,0.000229,-0.005151,0.010273,0.000033,0.010273,-0.005151,89.877390,0.010273,
1710,1280,-2.820142,-7.469259,0.999995,0.000289,-0.005621,0.010864,0.000920,0.010915,-0.005672,86.814126,0.010918,
1510,1590,-0.882213,-3.535725,0.999997,0.000210,-0.004218,0.009188,-0.000841,0.009240,-0.004271,-86.423318,0.009249,
600,1840,1.703469,-2.172394,0.999996,0.000217,-0.004848,0.009985,-0.000357,0.009993,-0.004857,-88.620672,0.009995,
960,1990,0.090823,-0.294805,0.999998,0.000168,-0.000634,0.006674,-0.000913,0.006786,-0.000746,-82.989312,0.007443,
1770,130,-0.790687,-19.161344,0.999996,0.000231,-0.003681,0.009612,-0.002216,0.009971,-0.004041,-80.778959,0.010031,
1010,1860,0.289089,-1.191842,0.999998,0.000179,-0.001553,0.007381,-0.000526,0.007412,-0.001584,-86.639345,0.007806,
1160,390,0.160758,-17.675095,0.999997,0.000185,-0.002315,0.007212,-0.000241,0.007218,-0.002322,-88.550403,0.007370,
1120,1280,0.355813,-5.341106,0.999994,0.000311,-0.005081,0.007255,0.004317,0.008616,-0.006442,72.507486,0.008961,
770,1180,3.105068,-8.519287,0.999996,0.000238,-0.005047,0.010545,-0.001175,0.010633,-0.005135,-85.714641,0.010635,
860,400,1.166033,-16.958130,0.999996,0.000256,-0.004265,0.009431,-0.000222,0.009434,-0.004269,-89.071910,0.009448,
580,560,2.990212,-14.460510,0.999996,0.000237,-0.004938,0.010236,0.000013,0.010236,-0.004938,89.951007,0.010238,
1330,1370,-0.257604,-4.629855,0.999997,0.000216,-0.003636,0.006600,-0.002819,0.007325,-0.004360,-75.578644,0.007369,
1460,350,-0.550358,-17.745742,0.999997,0.000197,-0.002850,0.008090,0.000210,0.008094,-0.002854,88.899569,0.008210,
1070,1570,0.454765,-3.369359,0.999996,0.000237,-0.003478,0.008045,0.001154,0.008159,-0.003593,84.335373,0.008179,
990,1240,1.418176,-7.090497,0.999992,0.000353,-0.007847,0.012958,0.001027,0.013008,-0.007898,87.181859,0.013107,
1170,1590,0.151841,-3.014953,0.999998,0.000169,-0.002568,0.007110,0.000429,0.007129,-0.002587,87.468304,0.007218,
1270,1460,-0.093858,-3.866761,0.999997,0.000199,-0.002522,0.006174,-0.000658,0.006223,-0.002571,-85.700151,0.006254,
1380,1260,-0.627458,-5.938574,0.999993,0.000318,-0.006738,0.009884,-0.004132,0.010854,-0.007709,-76.783196,0.011169,
1420,2010,-0.033303,-0.159760,0.999998,0.000174,-0.000355,0.006227,0.000468,0.006260,-0.000388,85.952194,0.007015,
1720,1620,-1.805887,-3.902279,0.999997,0.000224,-0.004963,0.010121,-0.000189,0.010124,-0.004966,-89.281939,0.010124,
1850,880,-3.876265,-11.395636,0.999996,0.000252,-0.004468,0.009121,-0.000443,0.009136,-0.004482,-88.135157,0.009136,
1850,910,-3.942987,-11.126319,0.999997,0.000209,-0.004358,0.008978,-0.000437,0.008992,-0.004372,-88.124147,0.008993,
1170,1500,0.157174,-3.642136,0.999998,0.000184,-0.002780,0.006746,0.000933,0.006837,-0.002870,84.458393,0.006866,
1610,1020,-3.086547,-10.160497,0.999996,0.000257,-0.003776,0.010561,-0.000176,0.010563,-0.003778,-89.298434,0.010705,
820,180,0.650695,-18.903860,0.999997,0.000212,-0.002567,0.008612,0.001372,0.008778,-0.002733,83.104431,0.008984,
1680,170,-0.722932,-18.938262,0.999997,0.000184,-0.003144,0.008905,-0.001529,0.009096,-0.003335,-82.877585,0.009203,
1290,1780,-0.096526,-1.658428,0.999998,0.000163,-0.001593,0.006990,0.000066,0.006991,-0.001593,89.558492,0.007327,
840,2020,0.064268,-0.110809,0.999998,0.000000,0.000008,0.006870,-0.001692,0.007265,-0.000387,-76.874772,0.008174,
1640,720,-2.192395,-13.476469,0.999996,0.000312,-0.006217,0.011336,-0.000346,0.011343,-0.006224,-88.870082,0.011361,
770,1670,1.536313,-3.314613,0.999996,0.000214,-0.004642,0.009926,0.000043,0.009926,-0.004642,89.830351,0.009933,
1200,1970,0.014887,-0.397026,0.999998,0.000178,-0.000416,0.006175,-0.000073,0.006176,-0.000417,-89.365739,0.006903,
1760,590,-2.450564,-14.532171,0.999995,0.000259,-0.005340,0.010375,-0.000031,0.010375,-0.005340,-89.886267,0.010376,
900,350,0.889541,-17.531522,0.999997,0.000196,-0.003832,0.009053,-0.000082,0.009054,-0.003832,-89.636106,0.009089,
1110,200,0.150961,-18.993887,0.999998,0.000175,-0.001337,0.006900,0.000205,0.006905,-0.001342,88.571716,0.007323,
880,1430,1.546030,-5.411165,0.999994,0.000286,-0.005982,0.010801,0.000692,0.010830,-0.006011,87.643559,0.010851,
1470,1130,-2.130469,-8.584299,0.999994,0.000278,-0.006229,0.014171,0.000361,0.014178,-0.006236,88.985526,0.014212,
1490,1680,-0.679451,-2.687406,0.999997,0.000204,-0.003599,0.008603,-0.000459,0.008620,-0.003616,-87.850743,0.008658,
980,1540,0.828644,-3.907396,0.999996,0.000249,-0.004412,0.009156,0.001181,0.009258,-0.004514,85.063936,0.009259,
1430,510,-0.601773,-16.480115,0.999995,0.000241,-0.004009,0.008532,0.001335,0.008673,-0.004149,83.992710,0.008676,
1900,640,-3.330698,-13.590684,0.999997,0.000000,-0.005104,0.010100,-0.000109,0.010100,-0.005105,-89.590558,0.010101,
1600,440,-1.235984,-16.583767,0.999995,0.000258,-0.004617,0.009713,0.000460,0.009728,-0.004632,88.162071,0.009731,
770,260,1.141019,-18.069731,0.999997,0.000182,-0.004005,0.009530,0.000725,0.009569,-0.004044,86.944010,0.009607,
1680,1240,-2.808385,-7.851602,0.999996,0.000223,-0.005621,0.010944,0.001125,0.011020,-0.005697,86.133653,0.011022,
730,1250,3.058370,-7.833440,0.999995,0.000254,-0.005309,0.010456,-0.001016,0.010521,-0.005375,-86.327436,0.010522,
900,720,1.694256,-13.751202,0.999994,0.000278,-0.006797,0.011748,-0.000414,0.011757,-0.006806,-88.722880,0.011806,
1810,550,-2.590239,-14.792625,0.999995,0.000257,-0.005136,0.010241,0.000052,0.010241,-0.005136,89.806881,0.010241,
920,70,0.124571,-19.819911,0.999998,0.000180,-0.000493,0.006884,0.001220,0.007080,-0.000689,80.846322,0.007808,
1720,750,-2.779671,-12.940775,0.999995,0.000260,-0.005605,0.010678,-0.000800,0.010718,-0.005644,-87.193086,0.010723,
1750,460,-2.022492,-15.906963,0.999995,0.000262,-0.005048,0.010135,0.000188,0.010138,-0.005050,89.288814,0.010138,
1700,350,-1.465333,-17.171478,0.999996,0.000210,-0.004408,0.009872,-0.000164,0.009874,-0.004410,-89.343484,0.009892,
1770,1320,-2.996248,-7.172694,0.999995,0.000269,-0.005307,0.010377,0.000674,0.010405,-0.005336,87.544333,0.010407,
1510,1570,-0.909014,-3.722188,0.999996,0.000242,-0.004473,0.009295,-0.000978,0.009364,-0.004543,-85.956033,0.009366,
1270,700,-0.079616,-15.721687,0.999997,0.000215,-0.002357,0.004687,0.001493,0.004991,-0.002660,78.512670,0.004995,
1500,1150,-2.181202,-8.474170,0.999995,0.000281,-0.006276,0.013343,0.000983,0.013392,-0.006325,87.139984,0.013399,
1770,110,-0.654983,-19.361479,0.999996,0.000244,-0.003378,0.009492,-0.002469,0.009950,-0.003835,-79.505135,0.010036,
630,940,3.934324,-10.872776,0.999995,0.000263,-0.004389,0.009144,0.000552,0.009167,-0.004411,87.668697,0.009169,
1260,770,-0.064282,-15.487421,0.999997,0.000220,-0.002357,0.002920,0.001645,0.003391,-0.002828,74.025814,0.003634,
600,1820,1.803551,-2.377093,0.999997,0.000215,-0.004836,0.009886,-0.000217,0.009889,-0.004839,-89.157483,0.009890,
1580,1870,-0.511199,-1.227050,0.999997,0.000229,-0.002509,0.008173,0.000958,0.008259,-0.002594,84.916851,0.008447,
1330,1350,-0.256478,-4.761042,0.999996,0.000216,-0.003726,0.006607,-0.003137,0.007485,-0.004604,-74.366567,0.007551,
1120,1700,0.244000,-2.271403,0.999997,0.000194,-0.002442,0.007403,0.000347,0.007415,-0.002454,87.984586,0.007555,
1170,1570,0.153058,-3.156006,0.999998,0.000174,-0.002638,0.007007,0.000496,0.007033,-0.002664,87.063164,0.007101,
860,380,1.122437,-17.147461,0.999997,0.000207,-0.004143,0.009335,-0.000166,0.009337,-0.004145,-89.294818,0.009357,
730,1160,3.370024,-8.769009,0.999997,0.000215,-0.004829,0.010167,-0.001092,0.010246,-0.004908,-85.856367,0.010249,
1380,1240,-0.700234,-6.137138,0.999993,0.000312,-0.006867,0.010260,-0.004144,0.011211,-0.007817,-77.087762,0.011498,
1490,1440,-0.987055,-4.902156,0.999995,0.000260,-0.005550,0.010043,-0.001660,0.010217,-0.005725,-83.989296,0.010242,
1850,890,-3.898331,-11.305977,0.999997,0.000221,-0.004417,0.008979,-0.000388,0.008990,-0.004428,-88.341960,0.008990,
1460,330,-0.522983,-17.906541,0.999997,0.000213,-0.002692,0.008144,0.000069,0.008144,-0.002693,89.636408,0.008298,
1350,2010,-0.021047,-0.155802,0.999998,0.000163,-0.000199,0.006095,0.000253,0.006106,-0.000209,87.700385,0.006932,
770,1650,1.589224,-3.512644,0.999996,0.000240,-0.004774,0.009973,0.000146,0.009974,-0.004776,89.431407,0.009977,
1270,1780,-0.064443,-1.652865,0.999998,0.000175,-0.001649,0.006947,-0.000007,0.006947,-0.001649,-89.956377,0.007259,
840,30,0.041976,-20.085654,0.999998,0.000000,0.000136,0.006932,0.001817,0.007387,-0.000319,75.931765,0.008352,
590,590,3.033540,-14.183148,0.999996,0.000222,-0.004983,0.010120,0.000041,0.010120,-0.004984,89.843005,0.010121,
1070,1550,0.464946,-3.530570,0.999996,0.000215,-0.003516,0.008023,0.001248,0.008157,-0.003650,83.896739,0.008172,
1900,630,-3.297368,-13.692445,0.999996,0.000000,-0.005121,0.010122,-0.000120,0.010123,-0.005122,-89.550672,0.010123,
1470,1110,-2.268373,-8.872628,0.999992,0.000309,-0.005708,0.014427,0.000429,0.014436,-0.005717,88.780070,0.014540,
1840,1430,-2.978657,-6.231477,0.999997,0.000191,-0.005094,0.010183,0.000147,0.010185,-0.005095,89.450545,0.010185,
660,1710,1.939318,-3.257540,0.999997,0.000199,-0.004932,0.010087,-0.000012,0.010087,-0.004932,-89.955343,0.010088,
820,160,0.570355,-19.077508,0.999997,0.000213,-0.002246,0.008519,0.001567,0.008743,-0.002469,81.882648,0.009014,
1180,1970,0.023306,-0.398141,0.999998,0.000192,-0.000319,0.006192,-0.000139,0.006195,-0.000322,-88.780773,0.006975,
1600,420,-1.195708,-16.777156,0.999996,0.000224,-0.004412,0.009573,0.000351,0.009582,-0.004421,88.563165,0.009592,
880,1050,2.969521,-9.836206,0.999997,0.000201,-0.003729,0.010768,-0.000429,0.010781,-0.003742,-88.307164,0.010947,
1800,590,-2.658730,-14.408471,0.999995,0.000258,-0.005195,0.010289,-0.000030,0.010289,-0.005195,-89.888355,0.010289,
1750,440,-1.966154,-16.109813,0.999997,0.000205,-0.005025,0.010121,0.000184,0.010123,-0.005027,89.304957,0.010123,
1720,1600,-1.858257,-4.105492,0.999996,0.000245,-0.005034,0.010132,-0.000242,0.010136,-0.005038,-89.085109,0.010136,
730,1230,3.130657,-8.042307,0.999996,0.000241,-0.005227,0.010468,-0.001092,0.010544,-0.005302,-86.040515,0.010544,
1750,260,-1.377401,-17.931983,0.999998,0.000233,-0.004644,0.009962,-0.000583,0.009985,-0.004668,-87.716160,0.009993,
1680,1220,-2.887147,-8.071488,0.999996,0.000236,-0.005481,0.010868,0.001222,0.010959,-0.005572,85.747970,0.010960,
1430,490,-0.586664,-16.650512,0.999996,0.000221,-0.003767,0.008476,0.001156,0.008584,-0.003876,84.650945,0.008598,
1010,140,0.195002,-19.362656,0.999997,0.000183,-0.001053,0.006999,0.000644,0.007050,-0.001104,85.455859,0.007584,
1890,850,-3.968389,-11.585259,0.999997,0.000203,-0.004429,0.009133,-0.000262,0.009138,-0.004434,-88.891666,0.009139,
1640,700,-2.120517,-13.705049,0.999995,0.000313,-0.006152,0.011273,-0.000182,0.011275,-0.006154,-89.402007,0.011290,
870,880,2.592474,-11.724509,0.999995,0.000266,-0.005640,0.011746,0.001441,0.011864,-0.005759,85.294344,0.011866,
1240,770,-0.019557,-15.535426,0.999998,0.000189,-0.002250,0.002536,0.000488,0.002585,-0.002299,84.242200,0.002834,
600,1800,1.890889,-2.570144,0.999997,0.000221,-0.004816,0.009927,-0.000155,0.009928,-0.004818,-89.395846,0.009930,
1510,1550,-0.940867,-3.915001,0.999997,0.000234,-0.004643,0.009420,-0.001051,0.009498,-0.004721,-85.750850,0.009498,
1250,700,-0.037248,-15.757637,0.999998,0.000152,-0.002071,0.004356,0.000747,0.004442,-0.002157,83.452900,0.004442,
1790,1320,-3.101720,-7.219706,0.999996,0.000222,-0.005188,0.010243,0.000629,0.010268,-0.005214,87.671034,0.010269,
590,240,1.874179,-17.692112,0.999997,0.000245,-0.004894,0.009804,0.000155,0.009806,-0.004895,89.395147,0.009806,
1770,90,-0.529090,-19.540056,0.999994,0.000260,-0.002689,0.008967,-0.002793,0.009602,-0.003324,-77.195431,0.009753,
1120,1720,0.234238,-2.127701,0.999998,0.000192,-0.002300,0.007334,0.000282,0.007343,-0.002308,88.327510,0.007509,
1810,530,-2.529742,-14.995061,0.999995,0.000252,-0.005137,0.010179,0.000083,0.010180,-0.005138,89.690730,0.010180,
940,270,0.593968,-18.302104,0.999996,0.000244,-0.002836,0.008284,0.000326,0.008293,-0.002846,88.321103,0.008428,
860,360,1.077369,-17.330870,0.999998,0.000175,-0.004011,0.009310,-0.000054,0.009310,-0.004011,-89.766007,0.009340,
1070,1530,0.474027,-3.691142,0.999996,0.000226,-0.003581,0.008019,0.001347,0.008174,-0.003735,83.461844,0.008184,
1710,920,-3.330731,-11.154917,0.999996,0.000246,-0.004704,0.010113,-0.000935,0.010172,-0.004763,-86.402932,0.010179,
650,430,2.254474,-16.008417,0.999997,0.000201,-0.005041,0.010142,-0.000149,0.010143,-0.005042,-89.438189,0.010143,
1230,70,0.002619,-19.856294,0.999998,0.000165,-0.000354,0.006071,0.000006,0.006071,-0.000354,89.944515,0.006815,
1640,1130,-3.019158,-9.006393,0.999996,0.000254,-0.004696,0.010757,0.001243,0.010856,-0.004796,85.431659,0.010881,
1020,2010,0.039497,-0.162201,0.999998,0.000148,-0.000195,0.006255,-0.000610,0.006312,-0.000252,-84.646754,0.007148,
1280,660,-0.109683,-15.896894,0.999997,0.000225,-0.002619,0.005500,0.001468,0.005757,-0.002876,80.056219,0.005757,
1380,1220,-0.812471,-6.355837,0.999991,0.000363,-0.006927,0.010420,-0.004032,0.011311,-0.007819,-77.533950,0.011583,
1440,330,-0.469140,-17.938318,0.999996,0.000237,-0.002769,0.007981,0.000189,0.007984,-0.002772,88.991622,0.008108,
1570,1500,-1.319449,-4.624188,0.999996,0.000256,-0.005329,0.010201,-0.000850,0.010247,-0.005375,-86.878061,0.010252,
830,380,1.245617,-17.069019,0.999996,0.000301,-0.004344,0.009603,-0.000038,0.009603,-0.004344,-89.845234,0.009618,
1020,1980,0.082068,-0.355796,0.999998,0.000179,-0.000494,0.006554,-0.000702,0.006624,-0.000563,-84.368530,0.007345,
1170,1550,0.155057,-3.293511,0.999997,0.000199,-0.002699,0.006983,0.000604,0.007021,-0.002736,86.446220,0.007077,
1900,620,-3.263356,-13.794148,0.999997,0.000000,-0.005085,0.010109,-0.000112,0.010110,-0.005086,-89.577623,0.010110,
1780,590,-2.555099,-14.471003,0.999996,0.000219,-0.005242,0.010358,-0.000041,0.010358,-0.005242,-89.847918,0.010358,
980,1520,0.850339,-4.094347,0.999996,0.000240,-0.004668,0.009300,0.001351,0.009429,-0.004797,84.525151,0.009430,
740,1710,1.554230,-3.001903,0.999996,0.000242,-0.004679,0.009942,-0.000145,0.009943,-0.004680,-89.432256,0.009949,
770,1630,1.644810,-3.714682,0.999996,0.000230,-0.004882,0.010048,0.000234,0.010052,-0.004885,89.103171,0.010053,
900,700,1.624926,-13.987720,0.999995,0.000266,-0.006629,0.011454,-0.000542,0.011470,-0.006646,-88.285443,0.011518,
1820,1430,-2.874412,-6.171049,0.999997,0.000195,-0.005162,0.010215,0.000169,0.010217,-0.005164,89.369123,0.010217,
1600,400,-1.154067,-16.965384,0.999997,0.000205,-0.004266,0.009415,0.000240,0.009419,-0.004270,88.996332,0.009433,
640,1710,2.039567,-3.324030,0.999996,0.000261,-0.004924,0.010078,0.000001,0.010078,-0.004924,89.994705,0.010079,
1720,1580,-1.910655,-4.308133,0.999997,0.000230,-0.005116,0.010194,-0.000269,0.010198,-0.005121,-88.994655,0.010199,
830,2020,0.063102,-0.110511,0.999998,0.000000,-0.000005,0.006944,-0.001828,0.007395,-0.000457,-76.127363,0.008288,
1260,1970,-0.013098,-0.397107,0.999998,0.000195,-0.000367,0.006163,0.000064,0.006164,-0.000367,89.435497,0.006915,
1710,1020,-3.488371,-10.155419,0.999997,0.000230,-0.004233,0.009861,-0.000154,0.009862,-0.004234,-89.375650,0.009895,
820,140,0.487501,-19.242753,0.999996,0.000247,-0.001966,0.008242,0.001661,0.008506,-0.002229,80.986344,0.008821,
1730,460,-1.921748,-15.971427,0.999998,0.000167,-0.005028,0.010122,0.000219,0.010125,-0.005031,89.172366,0.010125,
930,1900,0.338334,-0.952713,0.999997,0.000199,-0.001532,0.007608,-0.000999,0.007716,-0.001640,-83.832274,0.008130,
600,1780,1.979425,-2.773074,0.999996,0.000222,-0.004836,0.009859,-0.000087,0.009859,-0.004837,-89.662511,0.009860,
900,70,0.134614,-19.817430,0.999998,0.000172,-0.000653,0.006978,0.001297,0.007192,-0.000868,80.614139,0.007852,
800,1670,1.396240,-3.227029,0.999994,0.000298,-0.004648,0.009866,0.000132,0.009867,-0.004649,89.479178,0.009873,
1120,1740,0.219294,-1.980805,0.999997,0.000187,-0.002178,0.007281,0.000223,0.007286,-0.002183,88.649861,0.007479,
1430,470,-0.571659,-16.818958,0.999997,0.000222,-0.003548,0.008349,0.000960,0.008426,-0.003625,85.417455,0.008453,
710,1160,3.466089,-8.787040,0.999996,0.000261,-0.004771,0.009993,-0.000967,0.010056,-0.004834,-86.266673,0.010058,
1850,870,-3.849227,-11.487909,0.999996,0.000244,-0.004525,0.009306,-0.000529,0.009326,-0.004545,-87.811151,0.009327,
1100,690,0.390903,-15.293227,0.999995,0.000268,-0.004551,0.007811,-0.003148,0.008567,-0.005307,-76.503244,0.008648,
840,1390,1.901763,-6.004469,0.999994,0.000291,-0.006163,0.011067,0.000178,0.011069,-0.006165,89.409068,0.011093,
1510,1530,-0.967796,-4.105770,0.999997,0.000221,-0.004743,0.009501,-0.001130,0.009590,-0.004832,-85.493973,0.009590,
990,140,0.215333,-19.352687,0.999997,0.000177,-0.001088,0.007077,0.000723,0.007140,-0.001152,84.979302,0.007667,
840,1350,2.032934,-6.456708,0.999994,0.000290,-0.006333,0.011396,-0.000103,0.011397,-0.006334,-89.667751,0.011420,
1340,390,-0.254761,-17.626737,0.999998,0.000181,-0.002593,0.007410,0.000513,0.007436,-0.002619,87.074204,0.007544,
1520,530,-1.021734,-15.972503,0.999996,0.000229,-0.004778,0.009598,0.001081,0.009679,-0.004859,85.725538,0.009679,
1810,510,-2.470402,-15.199898,0.999995,0.000249,-0.005127,0.010196,0.000118,0.010197,-0.005128,89.559482,0.010197,
660,870,3.629341,-11.565264,0.999997,0.000210,-0.004736,0.009755,0.000869,0.009807,-0.004788,86.579540,0.009808,
1770,70,-0.380799,-19.724474,0.999994,0.000303,-0.001934,0.009148,-0.003404,0.010110,-0.002896,-74.219655,0.010413,
1470,1090,-2.390751,-9.172698,0.999992,0.000307,-0.005273,0.014320,0.000338,0.014326,-0.005279,89.012960,0.014490,
1220,1980,0.005067,-0.334027,0.999998,0.000149,-0.000407,0.006125,-0.000031,0.006125,-0.000407,-89.727807,0.006850,
1070,1220,0.905271,-6.530253,0.999993,0.000298,-0.007313,0.011226,0.003418,0.011836,-0.007924,79.879333,0.012061,
1330,1330,-0.258500,-4.885197,0.999996,0.000232,-0.003892,0.006488,-0.003445,0.007527,-0.004931,-73.213271,0.007647,
1380,1200,-0.949245,-6.573638,0.999991,0.000354,-0.006561,0.010378,-0.004202,0.011363,-0.007546,-76.807019,0.011566,
1720,1890,-0.815985,-1.228824,0.999997,0.000211,-0.002909,0.009365,0.001921,0.009659,-0.003203,81.310187,0.009840,
1680,1200,-2.965941,-8.288392,0.999997,0.000233,-0.005299,0.010872,0.001257,0.010969,-0.005396,85.580417,0.010970,
650,410,2.194937,-16.211638,0.999996,0.000225,-0.005003,0.010100,-0.000135,0.010101,-0.005004,-89.487791,0.010101,
1900,610,-3.231862,-13.896098,0.999997,0.000000,-0.005050,0.010112,-0.000080,0.010112,-0.005051,-89.698000,0.010112,
900,680,1.565357,-14.214605,0.999996,0.000248,-0.006466,0.011311,-0.000666,0.011336,-0.006491,-87.858890,0.011376,
860,340,1.026585,-17.521568,0.999997,0.000179,-0.003868,0.009387,0.000078,0.009388,-0.003868,89.661600,0.009436,
720,1710,1.650420,-3.061649,0.999996,0.000223,-0.004837,0.010017,-0.000053,0.010017,-0.004837,-89.793647,0.010019,
770,1610,1.696690,-3.919255,0.999996,0.000230,-0.004970,0.010085,0.000266,0.010090,-0.004975,88.990022,0.010090,
1020,330,0.477120,-17.933839,0.999996,0.000210,-0.002741,0.008012,-0.000138,0.008014,-0.002743,-89.263171,0.008146,
1410,780,-0.788109,-14.058670,0.999992,0.000326,-0.007202,0.010956,0.003383,0.011566,-0.007812,79.782977,0.011800,
590,230,1.825652,-17.789530,0.999997,0.000276,-0.004919,0.009872,0.000230,0.009875,-0.004923,89.109749,0.009875,
1170,1970,0.026342,-0.399086,0.999998,0.000180,-0.000297,0.006199,-0.000185,0.006205,-0.000302,-88.371610,0.006997,
1520,1170,-2.180545,-8.297974,0.999994,0.000294,-0.006425,0.012980,0.001107,0.013043,-0.006488,86.744828,0.013043,
1170,1460,0.154857,-3.907334,0.999997,0.000229,-0.002805,0.006432,0.001211,0.006589,-0.002962,82.653394,0.006600,
940,1160,2.260868,-8.440171,0.999995,0.000275,-0.006174,0.012872,-0.001220,0.012950,-0.006252,-86.351062,0.012952,
1550,1970,-0.170987,-0.447754,0.999998,0.000180,-0.000703,0.007035,0.001225,0.007225,-0.000893,81.215360,0.007878,
1650,660,-2.048727,-14.120369,0.999997,0.000223,-0.005948,0.010977,0.000029,0.010977,-0.005948,89.902710,0.010989,
1240,1970,-0.004926,-0.396301,0.999998,0.000153,-0.000450,0.006154,0.000010,0.006154,-0.000450,89.909312,0.006861,
1600,380,-1.109826,-17.154442,0.999997,0.000192,-0.004171,0.009325,0.000188,0.009328,-0.004174,89.203447,0.009345,
1120,1710,0.239185,-2.199903,0.999998,0.000192,-0.002374,0.007348,0.000323,0.007358,-0.002384,88.096637,0.007509,
1430,450,-0.558175,-16.984121,0.999996,0.000239,-0.003394,0.008251,0.000801,0.008306,-0.003449,86.085859,0.008345,
1320,390,-0.203398,-17.657971,0.999998,0.000163,-0.002531,0.007285,0.000446,0.007306,-0.002551,87.402149,0.007416,
1070,1510,0.479772,-3.848778,0.999996,0.000239,-0.003698,0.008069,0.001465,0.008248,-0.003878,83.009613,0.008253,
1690,920,-3.237870,-11.167972,0.999996,0.000258,-0.004685,0.010332,-0.001037,0.010404,-0.004756,-86.068560,0.010416,
1120,1760,0.207862,-1.835107,0.999998,0.000173,-0.002049,0.007223,0.000142,0.007225,-0.002052,89.123942,0.007446,
780,470,1.712347,-16.020764,0.999996,0.000251,-0.005076,0.010138,-0.000308,0.010144,-0.005082,-88.839263,0.010144,
830,30,0.040951,-20.084835,0.999998,0.000000,0.000006,0.006980,0.001878,0.007453,-0.000467,75.844644,0.008350,
1760,1980,-0.405279,-0.481819,0.999994,0.000267,-0.002346,0.008800,0.002963,0.009539,-0.003084,76.002602,0.009735,
1560,1870,-0.466716,-1.205405,0.999997,0.000212,-0.002045,0.007989,0.000952,0.008079,-0.002135,84.626087,0.008373,
1120,1990,0.029864,-0.277349,0.999998,0.000182,-0.000340,0.006187,-0.000310,0.006201,-0.000355,-87.290844,0.006965,
1500,1330,-1.271030,-6.150400,0.999995,0.000266,-0.007009,0.011633,-0.001402,0.011738,-0.007113,-85.724384,0.011826,
690,670,2.778952,-13.655691,0.999997,0.000232,-0.005329,0.010459,0.000373,0.010468,-0.005338,88.648760,0.010468,
1160,70,0.020150,-19.854480,0.999998,0.000163,-0.000246,0.006125,0.000220,0.006133,-0.000254,88.021929,0.006940,
960,1650,0.772994,-2.981615,0.999997,0.000212,-0.003756,0.008755,0.000518,0.008777,-0.003777,87.631616,0.008805,
830,1220,2.621610,-7.990088,0.999994,0.000251,-0.005865,0.011401,-0.001229,0.011488,-0.005952,-85.947648,0.011490,
870,1160,2.665622,-8.614892,0.999996,0.000258,-0.005399,0.011622,-0.001444,0.011744,-0.005520,-85.186331,0.011751,
1700,1890,-0.760255,-1.204125,0.999996,0.000215,-0.002952,0.009123,0.001824,0.009393,-0.003221,81.596506,0.009546,
1380,1180,-1.101096,-6.774653,0.999987,0.000414,-0.005681,0.009833,-0.004427,0.011007,-0.006855,-75.143523,0.011117,
1510,1510,-0.995206,-4.295562,0.999996,0.000236,-0.004868,0.009655,-0.001195,0.009753,-0.004965,-85.325675,0.009753,
1100,670,0.385139,-15.453715,0.999994,0.000284,-0.004318,0.007738,-0.002851,0.008378,-0.004958,-77.342372,0.008425,
1900,600,-3.198370,-13.996662,0.999995,0.000000,-0.005049,0.010185,-0.000034,0.010185,-0.005050,-89.871682,0.010185,
1850,850,-3.786481,-11.678024,0.999996,0.000226,-0.004635,0.009453,-0.000583,0.009477,-0.004659,-87.635508,0.009478,
700,870,3.435189,-11.615479,0.999996,0.000270,-0.004890,0.010037,0.001030,0.010108,-0.004961,86.072424,0.010108,
1730,1360,-2.633271,-6.653042,0.999994,0.000322,-0.005616,0.010680,0.000482,0.010694,-0.005630,88.308308,0.010699,
1810,490,-2.411777,-15.405290,0.999995,0.000264,-0.005093,0.010227,0.000150,0.010228,-0.005095,89.440140,0.010228,
770,1590,1.748822,-4.121666,0.999996,0.000229,-0.005012,0.010123,0.000286,0.010128,-0.005017,88.916649,0.010128,
1170,1990,0.016386,-0.273203,0.999998,0.000158,-0.000173,0.006101,-0.000178,0.006106,-0.000178,-88.375496,0.006950,
1700,1530,-1.941918,-4.761091,0.999997,0.000202,-0.005270,0.010336,-0.000257,0.010340,-0.005274,-89.055934,0.010341,
710,740,2.924006,-12.973777,0.999996,0.000268,-0.005428,0.010454,0.000735,0.010488,-0.005462,87.355010,0.010491,
1520,410,-0.845391,-17.090537,0.999997,0.000233,-0.003780,0.008900,0.000458,0.008916,-0.003797,87.935939,0.008949,
1080,330,0.318335,-18.026774,0.999996,0.000231,-0.002244,0.007573,-0.000106,0.007575,-0.002245,-89.384252,0.007781,
1630,660,-1.930740,-14.185851,0.999996,0.000261,-0.006082,0.011055,0.000163,0.011057,-0.006083,89.455703,0.011075,
860,320,0.974017,-17.713876,0.999997,0.000191,-0.003806,0.009245,0.000154,0.009247,-0.003808,89.323687,0.009294,
1590,1380,-1.726782,-5.993945,0.999996,0.000213,-0.006367,0.011264,-0.000430,0.011274,-0.006378,-88.604623,0.011306,
1550,1950,-0.222041,-0.587275,0.999997,0.000209,-0.000896,0.007251,0.001239,0.007436,-0.001080,81.539030,0.008036,
820,2020,0.061796,-0.110371,0.999998,0.000000,-0.000185,0.007009,-0.001855,0.007459,-0.000635,-76.357951,0.008271,
820,120,0.404995,-19.407866,0.999997,0.000215,-0.001662,0.008109,0.001759,0.008416,-0.001969,80.097764,0.008804,
720,90,0.443662,-19.583818,0.999995,0.000247,-0.002620,0.008368,0.002347,0.008848,-0.003100,78.434815,0.008979,
1800,1170,-3.661610,-8.738604,0.999994,0.000295,-0.004670,0.009610,0.000800,0.009654,-0.004715,86.804365,0.009655,
940,1140,2.383235,-8.700527,0.999994,0.000286,-0.005645,0.012750,-0.001356,0.012850,-0.005744,-85.807904,0.012874,
1760,1960,-0.523888,-0.641938,0.999996,0.000227,-0.003085,0.008722,0.002437,0.009205,-0.003568,78.783708,0.009282,
590,580,3.002178,-14.285711,0.999996,0.000223,-0.004993,0.010181,0.000030,0.010181,-0.004993,89.886896,0.010181,
1130,270,0.169396,-18.515332,0.999997,0.000195,-0.001928,0.007136,-0.000075,0.007136,-0.001929,-89.525758,0.007383,
1600,360,-1.065999,-17.339848,0.999997,0.000178,-0.004040,0.009302,0.000068,0.009303,-0.004040,89.706672,0.009329,
1150,1460,0.212623,-3.962228,0.999997,0.000206,-0.002941,0.006690,0.001389,0.006886,-0.003137,81.955084,0.006896,
1390,620,-0.490300,-15.706892,0.999996,0.000246,-0.004370,0.008298,0.002384,0.008732,-0.004804,79.686502,0.008746,
780,450,1.659539,-16.224259,0.999996,0.000245,-0.005020,0.010106,-0.000296,0.010112,-0.005025,-88.880241,0.010112,
730,1210,3.205589,-8.256229,0.999996,0.000241,-0.005115,0.010342,-0.001099,0.010420,-0.005193,-85.952979,0.010420,
900,1100,2.773704,-9.266998,0.999995,0.000283,-0.004436,0.011449,-0.001196,0.011538,-0.004526,-85.717847,0.011627,
1140,1970,0.036873,-0.399777,0.999998,0.000166,-0.000477,0.006262,-0.000221,0.006270,-0.000484,-88.121388,0.006977,
1750,240,-1.291427,-18.130849,0.999996,0.000248,-0.004549,0.009937,-0.000715,0.009972,-0.004584,-87.179885,0.009983,
1720,1560,-1.965409,-4.514068,0.999997,0.000220,-0.005167,0.010282,-0.000246,0.010286,-0.005171,-89.089643,0.010286,
840,1410,1.841842,-5.784099,0.999995,0.000264,-0.006066,0.011027,0.000296,0.011032,-0.006071,89.007167,0.011051,
690,650,2.714101,-13.867153,0.999996,0.000258,-0.005349,0.010382,0.000301,0.010387,-0.005355,88.902969,0.010389,
1440,850,-1.359897,-12.891834,0.999993,0.000310,-0.007827,0.013433,0.001683,0.013565,-0.007959,85.502265,0.013633,
600,1760,2.056113,-2.967306,0.999996,0.000230,-0.004851,0.009838,-0.000017,0.009838,-0.004851,-89.933885,0.009838,
1430,430,-0.544913,-17.145163,0.999996,0.000238,-0.003283,0.008150,0.000696,0.008192,-0.003325,86.528048,0.008240,
1140,70,0.027377,-19.853193,0.999998,0.000160,-0.000360,0.006149,0.000256,0.006159,-0.000370,87.750814,0.006908,
1900,590,-3.167383,-14.098964,0.999995,0.000000,-0.005066,0.010220,-0.000013,0.010220,-0.005066,-89.952952,0.010220,
1540,1870,-0.427820,-1.188724,0.999997,0.000235,-0.001841,0.007828,0.000890,0.007910,-0.001922,84.784989,0.008251,
1680,1530,-1.837737,-4.695259,0.999997,0.000200,-0.005275,0.010328,-0.000325,0.010335,-0.005282,-88.807811,0.010336,
1690,1240,-2.862962,-7.868322,0.999997,0.000200,-0.005544,0.010827,0.001111,0.010902,-0.005619,86.136629,0.010904,
1840,50,-0.359977,-19.819872,0.999995,0.000289,-0.003926,0.009744,-0.003130,0.010427,-0.004609,-77.695973,0.010450,
1850,830,-3.724068,-11.869684,0.999996,0.000227,-0.004646,0.009351,-0.000533,0.009371,-0.004666,-87.823277,0.009371,
770,1570,1.801184,-4.323792,0.999997,0.000213,-0.005083,0.010175,0.000297,0.010180,-0.005089,88.885396,0.010180,
1340,1710,-0.230457,-2.196395,0.999998,0.000181,-0.002381,0.007290,-0.000339,0.007301,-0.002393,-87.993108,0.007444,
1510,1490,-1.021099,-4.488490,0.999996,0.000239,-0.005097,0.009844,-0.001297,0.009956,-0.005209,-85.073991,0.009959,
850,880,2.705327,-11.687854,0.999996,0.000249,-0.005458,0.011474,0.001429,0.011594,-0.005578,85.210691,0.011596,
1450,780,-1.084262,-13.693787,0.999996,0.000239,-0.007540,0.012093,0.002172,0.012331,-0.007777,83.762353,0.012470,
1810,470,-2.354511,-15.611595,0.999996,0.000251,-0.005052,0.010189,0.000158,0.010190,-0.005053,89.407369,0.010191,
1180,60,0.011978,-19.917145,0.999998,0.000175,-0.000172,0.006067,0.000142,0.006071,-0.000175,88.695516,0.006911,
1380,880,-1.155529,-13.342006,0.999987,0.000381,-0.005399,0.009841,0.004566,0.011104,-0.006663,74.533733,0.011178,
1520,610,-1.147531,-15.169139,0.999995,0.000289,-0.005656,0.010309,0.001298,0.010414,-0.005761,85.382316,0.010433,
740,1890,0.823748,-1.231317,0.999997,0.000205,-0.002971,0.009386,-0.001947,0.009686,-0.003270,-81.253839,0.009854,
1280,1650,-0.111810,-2.581387,0.999998,0.000190,-0.002278,0.007131,-0.000170,0.007134,-0.002281,-88.966074,0.007287,
640,810,3.534362,-12.111843,0.999995,0.000247,-0.004852,0.009706,0.000689,0.009738,-0.004884,87.297078,0.009738,
600,1850,1.650536,-2.073814,0.999996,0.000225,-0.004866,0.009972,-0.000423,0.009984,-0.004878,-88.367500,0.009985,
860,300,0.928953,-17.889731,0.999998,0.000170,-0.003683,0.009024,0.000284,0.009030,-0.003690,88.719473,0.009080,
820,30,0.039494,-20.084164,0.999998,0.000000,-0.000304,0.006979,0.001881,0.007436,-0.000761,76.338772,0.008182,
1450,1380,-0.840240,-5.293285,0.999996,0.000225,-0.005953,0.010201,-0.002342,0.010534,-0.006286,-81.914521,0.010600,
1120,1970,0.046816,-0.403896,0.999997,0.000208,-0.000481,0.006311,-0.000272,0.006322,-0.000492,-87.706260,0.007033,
1430,410,-0.525402,-17.309625,0.999996,0.000221,-0.003199,0.008116,0.000603,0.008148,-0.003231,86.955525,0.008206,
1030,720,0.806684,-14.510933,0.999996,0.000247,-0.006475,0.010517,-0.002776,0.010959,-0.006917,-80.952609,0.011084,
1270,1440,-0.092065,-3.987755,0.999997,0.000201,-0.002509,0.005949,-0.000779,0.006020,-0.002580,-84.781312,0.006040,
1430,780,-0.937736,-13.866947,0.999995,0.000271,-0.007430,0.011645,0.002785,0.012043,-0.007829,81.860842,0.012223,
830,880,2.814617,-11.656758,0.999996,0.000234,-0.005351,0.011179,0.001381,0.011293,-0.005466,85.257450,0.011295,
1130,250,0.157049,-18.655688,0.999998,0.000185,-0.001731,0.007042,-0.000025,0.007042,-0.001731,-89.836442,0.007339,
900,1120,2.689598,-9.030027,0.999995,0.000265,-0.004823,0.011702,-0.001435,0.011826,-0.004947,-85.074018,0.011878,
1610,1860,-0.623950,-1.348292,0.999997,0.000214,-0.002666,0.008593,0.001114,0.008702,-0.002775,84.401040,0.008890,
1760,1940,-0.655903,-0.831703,0.999995,0.000253,-0.003536,0.009438,0.002348,0.009850,-0.003948,80.050800,0.009914,
780,110,0.443437,-19.459244,0.999995,0.000261,-0.002026,0.008436,0.002142,0.008857,-0.002447,78.867061,0.009148,
590,220,1.777843,-17.891220,0.999996,0.000276,-0.004932,0.009920,0.000311,0.009926,-0.004939,88.800318,0.009927,
650,1000,3.914085,-10.334509,0.999997,0.000228,-0.004347,0.009191,0.000280,0.009197,-0.004353,88.814015,0.009201,
1020,1960,0.110408,-0.486101,0.999998,0.000186,-0.000668,0.006631,-0.000647,0.006688,-0.000724,-84.971551,0.007340,
1830,50,-0.315558,-19.856569,0.999995,0.000276,-0.003515,0.009344,-0.003092,0.010049,-0.004220,-77.159284,0.010092,
1100,650,0.382201,-15.607259,0.999994,0.000280,-0.004084,0.007707,-0.002544,0.008233,-0.004609,-78.331439,0.008252,
1280,640,-0.113187,-16.011500,0.999997,0.000202,-0.002649,0.005787,0.001272,0.005974,-0.002836,81.606679,0.005977,
830,360,1.193657,-17.262335,0.999996,0.000233,-0.004141,0.009560,0.000113,0.009561,-0.004142,89.526820,0.009589,
960,370,0.719592,-17.485608,0.999997,0.000216,-0.003626,0.008638,-0.000415,0.008652,-0.003640,-88.066269,0.008689,
1470,1070,-2.481965,-9.447452,0.999991,0.000331,-0.004935,0.014548,0.000240,0.014551,-0.004938,89.293882,0.014799,
980,1500,0.876883,-4.284779,0.999996,0.000223,-0.004854,0.009459,0.001452,0.009605,-0.004999,84.266816,0.009607,
1640,680,-2.053274,-13.930400,0.999995,0.000278,-0.006084,0.011108,-0.000033,0.011108,-0.006085,-89.888528,0.011125,
1600,340,-1.016207,-17.526988,0.999997,0.000211,-0.003883,0.009366,-0.000064,0.009366,-0.003883,-89.725106,0.009412,
1070,1490,0.483477,-4.007905,0.999996,0.000219,-0.003871,0.008076,0.001668,0.008305,-0.004099,82.197893,0.008305,
1800,1810,-1.545443,-2.232919,0.999997,0.000256,-0.004677,0.010171,0.000719,0.010206,-0.004711,87.235514,0.010216,
1820,1170,-3.752024,-8.765584,0.999997,0.000208,-0.004568,0.009399,0.000633,0.009428,-0.004597,87.410358,0.009429,
610,940,4.021552,-10.850067,0.999997,0.000181,-0.004304,0.008943,0.000426,0.008957,-0.004318,88.160805,0.008959,
610,1580,2.586143,-4.739921,0.999996,0.000243,-0.005056,0.010156,0.000109,0.010157,-0.005057,89.590786,0.010157,
1550,1930,-0.283229,-0.738123,0.999997,0.000195,-0.001166,0.007482,0.001215,0.007650,-0.001334,82.153921,0.008173,
810,2020,0.064408,-0.110604,0.999998,0.000000,-0.000501,0.007045,-0.001856,0.007477,-0.000933,-76.903925,0.008148,
1520,510,-0.993638,-16.164164,0.999997,0.000189,-0.004660,0.009502,0.001031,0.009577,-0.004735,85.858839,0.009577,
820,100,0.325632,-19.569476,0.999997,0.000206,-0.001321,0.007806,0.001838,0.008162,-0.001677,79.030108,0.008621,
770,1550,1.852430,-4.530354,0.999996,0.000235,-0.005194,0.010306,0.000299,0.010312,-0.005199,88.894576,0.010312,
690,630,2.646024,-14.075129,0.999994,0.000288,-0.005347,0.010330,0.000218,0.010333,-0.005350,89.204691,0.010335,
940,1120,2.493562,-8.953301,0.999993,0.000318,-0.005162,0.012520,-0.001337,0.012621,-0.005262,-85.698706,0.012679,
1710,1360,-2.519974,-6.600985,0.999997,0.000273,-0.005740,0.010818,0.000473,0.010832,-0.005754,88.365408,0.010839,
800,690,2.226876,-13.748363,0.999996,0.000264,-0.006012,0.011058,0.000250,0.011062,-0.006015,89.160627,0.011076,
1350,1440,-0.334092,-4.231755,0.999996,0.000249,-0.003646,0.007385,-0.002112,0.007776,-0.004037,-79.523520,0.007778,
1810,450,-2.296899,-15.814440,0.999996,0.000235,-0.005047,0.010115,0.000148,0.010117,-0.005048,89.440571,0.010117,
1770,1300,-3.067995,-7.381434,0.999995,0.000243,-0.005274,0.010382,0.000762,0.010419,-0.005311,87.221630,0.010419,
970,1260,1.477471,-6.971519,0.999991,0.000375,-0.007669,0.012735,0.000853,0.012771,-0.007704,87.611077,0.012861,
730,1190,3.272111,-8.458604,0.999996,0.000243,-0.005007,0.010217,-0.001084,0.010294,-0.005084,-85.946469,0.010294,
1900,580,-3.138746,-14.204334,0.999995,0.000000,-0.005069,0.010243,0.000005,0.010243,-0.005069,89.979508,0.010243,
1030,700,0.772655,-14.720030,0.999995,0.000262,-0.006123,0.010191,-0.002678,0.010620,-0.006552,-80.911658,0.010716,
1380,860,-0.981993,-13.535840,0.999991,0.000340,-0.006418,0.010275,0.004196,0.011270,-0.007413,76.656056,0.011456,
1330,1310,-0.266229,-5.014228,0.999996,0.000253,-0.004138,0.006417,-0.003759,0.007618,-0.005339,-72.269640,0.007821,
900,1140,2.600333,-8.797062,0.999996,0.000252,-0.005283,0.011868,-0.001452,0.011990,-0.005405,-85.195376,0.012010,
1430,390,-0.506540,-17.471816,0.999996,0.000220,-0.003123,0.008147,0.000510,0.008170,-0.003146,87.413441,0.008241,
1250,1460,-0.045264,-3.846867,0.999998,0.000149,-0.002438,0.006060,-0.000473,0.006087,-0.002464,-86.823474,0.006123,
1020,1710,0.495868,-2.345382,0.999997,0.000204,-0.002845,0.007981,0.000277,0.007988,-0.002852,88.536409,0.008096,
740,1870,0.927319,-1.422254,0.999996,0.000218,-0.003269,0.009549,-0.001650,0.009758,-0.003478,-82.783027,0.009891,
850,1420,1.752397,-5.635262,0.999994,0.000269,-0.006035,0.010988,0.000437,0.011000,-0.006046,88.530866,0.011018,
960,350,0.686510,-17.656138,0.999996,0.000255,-0.003506,0.008498,-0.000313,0.008506,-0.003514,-88.507331,0.008548,
1220,1960,0.005903,-0.458051,0.999998,0.000171,-0.000565,0.006189,-0.000026,0.006189,-0.000565,-89.779943,0.006843,
1680,1180,-3.039424,-8.507814,0.999996,0.000257,-0.005111,0.010663,0.001210,0.010756,-0.005203,85.638352,0.010758,
1850,810,-3.661624,-12.055116,0.999995,0.000246,-0.004722,0.009398,-0.000513,0.009417,-0.004741,-87.922876,0.009417,
1610,1840,-0.695132,-1.524086,0.999997,0.000254,-0.002865,0.008638,0.000952,0.008716,-0.002943,85.301186,0.008868,
1020,1940,0.145695,-0.621327,0.999998,0.000193,-0.000876,0.006803,-0.000670,0.006861,-0.000934,-85.047323,0.007442,
770,300,1.282093,-17.682216,0.999997,0.000226,-0.004274,0.009701,0.000386,0.009712,-0.004285,88.420626,0.009734,
1470,1050,-2.547520,-9.753954,0.999990,0.000379,-0.004712,0.015054,0.000152,0.015055,-0.004713,89.558175,0.015402,
980,1920,0.215155,-0.773900,0.999997,0.000200,-0.001226,0.007049,-0.000748,0.007116,-0.001293,-84.878351,0.007581,
1470,1040,-2.562194,-9.901784,0.999991,0.000386,-0.004684,0.014795,0.000064,0.014795,-0.004684,89.811808,0.015124,
1280,620,-0.117055,-16.129722,0.999998,0.000200,-0.002655,0.006010,0.001092,0.006146,-0.002791,82.929527,0.006154,
1100,630,0.381451,-15.759347,0.999996,0.000252,-0.003882,0.007673,-0.002260,0.008100,-0.004308,-79.318466,0.008105,
1640,660,-1.989363,-14.152584,0.999996,0.000260,-0.006007,0.011015,0.000100,0.011015,-0.006007,89.664171,0.011030,
620,490,2.579716,-15.299150,0.999996,0.000241,-0.005032,0.010140,-0.000086,0.010140,-0.005033,-89.676033,0.010140,
1330,200,-0.118192,-19.005144,0.999998,0.000161,-0.001372,0.006799,-0.000096,0.006800,-0.001373,-89.326527,0.007192,
1130,230,0.142949,-18.797648,0.999998,0.000179,-0.001597,0.006923,0.000030,0.006923,-0.001597,89.798722,0.007250,
1200,1650,0.073188,-2.572020,0.999997,0.000218,-0.002332,0.007103,0.000221,0.007108,-0.002337,88.661201,0.007246,
1510,1470,-1.048485,-4.689026,0.999996,0.000251,-0.005375,0.010005,-0.001365,0.010126,-0.005496,-84.965980,0.010138,
1580,850,-2.370374,-12.113061,0.999995,0.000251,-0.006252,0.012104,-0.001211,0.012184,-0.006331,-86.240323,0.012187,
1720,1540,-2.020806,-4.722064,0.999996,0.000225,-0.005199,0.010288,-0.000234,0.010292,-0.005202,-89.133758,0.010292,
1780,1810,-1.452429,-2.171728,0.999995,0.000273,-0.004661,0.010085,0.000699,0.010118,-0.004694,87.293229,0.010127,
1070,1470,0.491464,-4.171047,0.999996,0.000211,-0.004083,0.008211,0.001935,0.008508,-0.004380,81.264268,0.008509,
620,810,3.629411,-12.071382,0.999997,0.000213,-0.004759,0.009490,0.000528,0.009509,-0.004779,87.879373,0.009509,
1520,490,-0.964922,-16.354810,0.999997,0.000193,-0.004579,0.009420,0.000979,0.009488,-0.004647,86.017565,0.009489,
670,1200,3.533577,-8.433975,0.999994,0.000283,-0.004832,0.009814,-0.000893,0.009868,-0.004887,-86.523700,0.009869,
650,390,2.133645,-16.413478,0.999996,0.000215,-0.004955,0.010090,-0.000099,0.010090,-0.004956,-89.621931,0.010091,
1550,1910,-0.336578,-0.887199,0.999997,0.000194,-0.001400,0.007569,0.001116,0.007706,-0.001536,83.010769,0.008157,
610,1560,2.644819,-4.943829,0.999996,0.000233,-0.005077,0.010116,0.000095,0.010116,-0.005078,89.642066,0.010116,
770,1530,1.905268,-4.739375,0.999995,0.000270,-0.005293,0.010382,0.000289,0.010387,-0.005298,88.944790,0.010388,
1600,320,-0.965143,-17.717745,0.999997,0.000233,-0.003784,0.009243,-0.000136,0.009244,-0.003785,-89.400518,0.009295,
690,610,2.580461,-14.280910,0.999995,0.000275,-0.005304,0.010392,0.000103,0.010392,-0.005305,89.624271,0.010393,
590,940,4.108194,-10.826606,0.999997,0.000209,-0.004196,0.008698,0.000294,0.008705,-0.004202,88.696380,0.008707,
940,1100,2.594198,-9.202879,0.999993,0.000306,-0.004586,0.012329,-0.001226,0.012417,-0.004675,-85.876486,0.012543,
810,30,0.046346,-20.083395,0.999998,0.000000,-0.000568,0.006997,0.001895,0.007445,-0.001016,76.697775,0.008075,
930,1480,1.159559,-4.685894,0.999997,0.000219,-0.005425,0.010161,0.001143,0.010245,-0.005508,85.829580,0.010254,
1810,430,-2.236394,-16.017915,0.999997,0.000233,-0.005030,0.010102,0.000145,0.010104,-0.005032,89.451498,0.010104,
820,80,0.240261,-19.722621,0.999997,0.000205,-0.000985,0.007600,0.001942,0.008019,-0.001404,77.829225,0.008565,
780,690,2.344994,-13.688586,0.999994,0.000301,-0.005876,0.010954,0.000345,0.010961,-0.005883,88.826870,0.010971,
1160,1330,0.165760,-4.705432,0.999994,0.000280,-0.003098,0.005251,0.002891,0.006155,-0.004002,72.646041,0.006247,
730,1170,3.335987,-8.665256,0.999996,0.000232,-0.004910,0.010232,-0.001127,0.010315,-0.004993,-85.764955,0.010317,
1660,1870,-0.718531,-1.321269,0.999997,0.000209,-0.003169,0.008878,0.001313,0.009019,-0.003310,83.850278,0.009125,
1380,840,-0.848899,-13.751171,0.999992,0.000332,-0.006890,0.010475,0.004004,0.011354,-0.007769,77.623094,0.011608,
980,1940,0.173833,-0.633066,0.999998,0.000182,-0.000976,0.006987,-0.000823,0.007071,-0.001060,-84.157071,0.007627,
1030,620,0.690161,-15.493244,0.999994,0.000268,-0.005024,0.009145,-0.002160,0.009467,-0.005346,-81.522262,0.009494,
1230,1460,0.003677,-3.833717,0.999997,0.000206,-0.002412,0.006043,0.000044,0.006043,-0.002412,89.704682,0.006084,
900,1160,2.496595,-8.552973,0.999995,0.000270,-0.005699,0.012096,-0.001466,0.012216,-0.005819,-85.322413,0.012220,
1310,200,-0.092064,-19.014669,0.999998,0.000197,-0.001207,0.006722,-0.000153,0.006725,-0.001210,-88.892960,0.007170,
850,1400,1.808273,-5.857835,0.999996,0.000264,-0.006159,0.011082,0.000328,0.011088,-0.006165,88.909352,0.011111,
1900,570,-3.107840,-14.305711,0.999996,0.000000,-0.005089,0.010205,0.000000,0.010205,-0.005089,89.999730,0.010205,
1220,1940,0.008363,-0.582607,0.999998,0.000153,-0.000680,0.006301,-0.000022,0.006301,-0.000680,-89.819687,0.006917,
1430,810,-1.059012,-13.505739,0.999992,0.000351,-0.007811,0.012192,0.002518,0.012504,-0.008123,82.934641,0.012689,
1360,1210,-0.750119,-6.124636,0.999994,0.000338,-0.005777,0.008732,-0.004549,0.010041,-0.007085,-73.956023,0.010320,
1610,1360,-1.916157,-6.298448,0.999997,0.000212,-0.006335,0.011382,-0.000101,0.011382,-0.006335,-89.673488,0.011407,
1280,600,-0.118645,-16.250219,0.999997,0.000225,-0.002671,0.006224,0.000928,0.006319,-0.002767,84.107130,0.006336,
770,1510,1.960356,-4.947822,0.999997,0.000249,-0.005354,0.010363,0.000259,0.010367,-0.005359,89.056786,0.010369,
1470,1020,-2.567514,-10.186457,0.999988,0.000410,-0.004685,0.014624,-0.000015,0.014624,-0.004685,-89.954457,0.014935,
1130,210,0.129677,-18.935016,0.999998,0.000177,-0.001458,0.006852,0.000097,0.006853,-0.001459,89.330036,0.007220,
1470,1030,-2.574610,-10.044535,0.999991,0.000369,-0.004666,0.014487,-0.000013,0.014487,-0.004666,-89.962365,0.014790,
1100,610,0.381391,-15.911979,0.999996,0.000242,-0.003730,0.007625,-0.002059,0.007987,-0.004092,-80.033938,0.007988,
770,280,1.210349,-17.878583,0.999997,0.000204,-0.004156,0.009667,0.000570,0.009690,-0.004180,87.642793,0.009720,
960,410,0.781955,-17.133766,0.999996,0.000272,-0.003766,0.008782,-0.000561,0.008807,-0.003791,-87.445188,0.008835,
1370,1840,-0.188138,-1.279897,0.999998,0.000171,-0.001400,0.007034,0.000227,0.007040,-0.001406,88.460863,0.007451,
840,1570,1.446853,-4.096564,0.999996,0.000272,-0.004918,0.009989,0.000485,0.010005,-0.004934,88.140198,0.010005,
1560,850,-2.240179,-12.171109,0.999995,0.000277,-0.006509,0.012379,-0.001087,0.012441,-0.006572,-86.715873,0.012448,
800,2020,0.073581,-0.114779,0.999998,0.000000,-0.000756,0.007073,-0.001868,0.007496,-0.001179,-77.243683,0.008062,
1020,1690,0.518450,-2.506355,0.999997,0.000197,-0.002979,0.008168,0.000345,0.008179,-0.002989,88.229761,0.008277,
1020,1920,0.176665,-0.758489,0.999998,0.000187,-0.001022,0.006853,-0.000594,0.006898,-0.001066,-85.708499,0.007426,
1720,1520,-2.074326,-4.929082,0.999995,0.000246,-0.005273,0.010342,-0.000185,0.010344,-0.005275,-89.321187,0.010344,
1790,800,-3.333458,-12.278048,0.999996,0.000247,-0.005059,0.010101,-0.000865,0.010150,-0.005109,-86.744134,0.010150,
1600,300,-0.915356,-17.899471,0.999997,0.000216,-0.003690,0.009018,-0.000246,0.009023,-0.003695,-88.893188,0.009072,
1480,270,-0.475346,-18.365994,0.999997,0.000219,-0.002442,0.007984,-0.000234,0.007990,-0.002447,-88.713072,0.008187,
1070,1450,0.499023,-4.337065,0.999995,0.000240,-0.004293,0.008347,0.002205,0.008721,-0.004667,80.381807,0.008728,
1510,1460,-1.067414,-4.791602,0.999995,0.000276,-0.005491,0.010099,-0.001386,0.010222,-0.005613,-84.959633,0.010238,
1810,410,-2.180407,-16.220754,0.999997,0.000217,-0.004989,0.010101,0.000155,0.010103,-0.004991,89.412386,0.010103,
1600,790,-2.216349,-12.782404,0.999996,0.000210,-0.006533,0.011897,-0.000736,0.011926,-0.006563,-87.717536,0.011946,
1640,640,-1.928951,-14.374459,0.999996,0.000252,-0.005915,0.010943,0.000174,0.010945,-0.005917,89.407587,0.010957,
950,1200,1.950048,-7.872633,0.999994,0.000307,-0.007063,0.013138,-0.000589,0.013155,-0.007080,-88.332520,0.013168,
820,60,0.158252,-19.873957,0.999997,0.000200,-0.000654,0.007291,0.001898,0.007721,-0.001084,77.230178,0.008360,
1550,1890,-0.394279,-1.042102,0.999997,0.000214,-0.001693,0.007709,0.001063,0.007828,-0.001811,83.628441,0.008195,
1140,1330,0.233640,-4.840946,0.999996,0.000241,-0.003670,0.006170,0.003356,0.007206,-0.004705,72.850898,0.007317,
730,1150,3.401689,-8.870833,0.999996,0.000230,-0.004740,0.010056,-0.000996,0.010123,-0.004806,-86.164150,0.010127,
1720,1470,-2.218325,-5.452179,0.999995,0.000257,-0.005429,0.010530,-0.000081,0.010530,-0.005429,-89.709037,0.010532,
780,670,2.276871,-13.908577,0.999996,0.000230,-0.005813,0.010880,0.000212,0.010883,-0.005815,89.271473,0.010891,
1860,1850,-1.636934,-2.056975,0.999996,0.000264,-0.004891,0.009983,0.000421,0.009994,-0.004903,88.381708,0.009995,
650,370,2.072097,-16.615780,0.999997,0.000183,-0.004969,0.010101,-0.000040,0.010101,-0.004969,-89.848209,0.010102,
980,1960,0.134010,-0.494543,0.999998,0.000181,-0.000785,0.006829,-0.000821,0.006917,-0.000873,-83.918608,0.007534,
1320,1250,-0.315968,-5.282048,0.999992,0.000352,-0.004569,0.005590,-0.004157,0.007075,-0.006053,-70.352940,0.007648,
1030,600,0.676540,-15.676372,0.999996,0.000249,-0.004727,0.009053,-0.001925,0.009317,-0.004991,-82.195807,0.009325,
1410,200,-0.230916,-18.961858,0.999998,0.000248,-0.001648,0.007132,-0.000321,0.007143,-0.001660,-87.909582,0.007477,
1360,1190,-0.910200,-6.301243,0.999988,0.000439,-0.004560,0.007630,-0.004469,0.009093,-0.006023,-71.875194,0.009252,
1380,820,-0.720954,-13.968507,0.999991,0.000358,-0.006855,0.010353,0.004095,0.011278,-0.007780,77.273465,0.011546,
1210,1460,0.052292,-3.850154,0.999998,0.000170,-0.002452,0.006074,0.000511,0.006104,-0.002483,86.580968,0.006140,
800,30,0.055933,-20.078851,0.999998,0.000000,-0.000684,0.007027,0.001917,0.007477,-0.001135,76.782954,0.008059,
1230,430,0.002869,-17.427872,0.999997,0.000189,-0.002387,0.007060,-0.000015,0.007060,-0.002387,-89.909896,0.007182,
770,1490,2.012452,-5.156112,0.999995,0.000287,-0.005453,0.010417,0.000192,0.010420,-0.005455,89.307199,0.010424,
1130,190,0.113422,-19.072593,0.999998,0.000189,-0.001362,0.006765,0.000140,0.006767,-0.001364,89.010380,0.007157,
1410,880,-1.363594,-12.852842,0.999993,0.000297,-0.006998,0.013097,0.003007,0.013537,-0.007438,81.670281,0.013559,
1490,1620,-0.766380,-3.211996,0.999997,0.000218,-0.003829,0.008804,-0.000713,0.008844,-0.003869,-86.777910,0.008867,
690,1030,3.759280,-10.054707,0.999997,0.000196,-0.004333,0.009502,-0.000049,0.009503,-0.004333,-89.795998,0.009515,
1560,830,-2.139308,-12.418217,0.999994,0.000292,-0.006750,0.012452,-0.000840,0.012489,-0.006787,-87.501260,0.012504,
880,1390,1.652707,-5.854089,0.999995,0.000247,-0.006314,0.011166,0.000533,0.011182,-0.006330,88.254425,0.011214,
940,1520,1.044424,-4.244319,0.999996,0.000237,-0.004861,0.009681,0.001095,0.009763,-0.004943,85.717833,0.009763,
900,1600,1.100204,-3.613143,0.999996,0.000252,-0.004443,0.009510,0.000595,0.009535,-0.004469,87.561053,0.009541,
1510,1450,-1.083931,-4.895388,0.999996,0.000261,-0.005588,0.010189,-0.001411,0.010314,-0.005714,-84.928078,0.010334,
1000,1710,0.553637,-2.379985,0.999997,0.000219,-0.002807,0.008158,0.000177,0.008161,-0.002810,89.077329,0.008292,
820,1590,1.498831,-3.959813,0.999995,0.000295,-0.004916,0.009950,0.000382,0.009960,-0.004926,88.529969,0.009960,
1900,560,-3.076612,-14.407827,0.999996,0.000000,-0.005099,0.010198,-0.000033,0.010198,-0.005100,-89.876496,0.010198,
1470,1010,-2.556546,-10.328735,0.999988,0.000399,-0.004718,0.014982,-0.000063,0.014982,-0.004718,-89.816462,0.015320,
1280,580,-0.119085,-16.377066,0.999997,0.000225,-0.002661,0.006468,0.000796,0.006537,-0.002730,85.052361,0.006567,
1100,590,0.379614,-16.063839,0.999995,0.000267,-0.003630,0.007654,-0.001878,0.007958,-0.003934,-80.796363,0.007958,
1720,1500,-2.130778,-5.138483,0.999995,0.000257,-0.005352,0.010413,-0.000156,0.010414,-0.005353,-89.433550,0.010415,
1430,830,-1.159937,-13.257295,0.999992,0.000334,-0.007823,0.012635,0.002311,0.012893,-0.008081,83.635041,0.013031,
1350,1840,-0.158133,-1.269041,0.999998,0.000181,-0.001470,0.006948,0.000131,0.006950,-0.001472,89.111994,0.007325,
1020,1900,0.209194,-0.897791,0.999998,0.000216,-0.001223,0.007066,-0.000628,0.007113,-0.001270,-85.692778,0.007588,
1460,270,-0.430307,-18.389041,0.999997,0.000198,-0.002218,0.007834,-0.000243,0.007840,-0.002224,-88.617433,0.008081,
960,550,0.968090,-15.843005,0.999997,0.000224,-0.004877,0.009611,-0.001278,0.009723,-0.004989,-84.998228,0.009724,
1070,1430,0.505698,-4.511818,0.999997,0.000215,-0.004471,0.008337,0.002388,0.008768,-0.004902,79.774938,0.008788,
1580,790,-2.083567,-12.847042,0.999994,0.000296,-0.006718,0.012101,-0.000563,0.012118,-0.006735,-88.288041,0.012143,
1600,280,-0.859363,-18.080944,0.999997,0.000203,-0.003559,0.008992,-0.000416,0.009006,-0.003573,-88.103036,0.009070,
1810,390,-2.118389,-16.423564,0.999997,0.000231,-0.004972,0.010095,0.000114,0.010096,-0.004973,89.564964,0.010096,
930,1200,2.089885,-7.958429,0.999996,0.000262,-0.006822,0.012823,-0.000870,0.012861,-0.006861,-87.469931,0.012871,
810,1990,0.185720,-0.324819,0.999997,0.000224,-0.000942,0.007436,-0.001958,0.007871,-0.001377,-77.475224,0.008407,
1720,1450,-2.278825,-5.666493,0.999996,0.000227,-0.005506,0.010571,0.000003,0.010571,-0.005506,89.990804,0.010574,
570,1520,2.964541,-5.473090,0.999996,0.000248,-0.005046,0.010188,-0.000003,0.010188,-0.005046,-89.988957,0.010188,
1550,1870,-0.448816,-1.197060,0.999997,0.000221,-0.001878,0.007901,0.000942,0.007991,-0.001967,84.549107,0.008327,
1740,1830,-1.179674,-1.848557,0.999997,0.000198,-0.004233,0.009862,0.000990,0.009932,-0.004302,86.002979,0.009961,
1710,1300,-2.742644,-7.251825,0.999995,0.000270,-0.005672,0.010784,0.000837,0.010826,-0.005714,87.094033,0.010832,
730,1130,3.447478,-9.070255,0.999997,0.000218,-0.004579,0.009873,-0.000839,0.009921,-0.004628,-86.687166,0.009929,
1830,360,-2.125015,-16.661347,0.999996,0.000264,-0.004907,0.010077,0.000041,0.010077,-0.004907,89.841487,0.010078,
1010,900,1.826631,-12.060670,0.999991,0.000352,-0.007053,0.014270,-0.000394,0.014277,-0.007061,-88.943126,0.014277,
1640,620,-1.868916,-14.593172,0.999996,0.000230,-0.005821,0.010782,0.000284,0.010787,-0.005826,89.020846,0.010799,
980,1980,0.098063,-0.357857,0.999998,0.000143,-0.000553,0.006696,-0.000848,0.006793,-0.000651,-83.416037,0.007497,
650,350,2.006593,-16.819687,0.999996,0.000226,-0.004975,0.010049,0.000026,0.010049,-0.004975,89.898960,0.010050,
1230,450,0.004107,-17.287358,0.999998,0.000180,-0.002453,0.006993,-0.000017,0.006993,-0.002453,-89.895403,0.007096,
1320,1230,-0.403920,-5.386636,0.999991,0.000376,-0.004680,0.005380,-0.003838,0.006677,-0.005977,-71.327559,0.007339,
1480,1730,-0.569286,-2.241607,0.999996,0.000221,-0.002937,0.008315,-0.000061,0.008315,-0.002937,-89.687851,0.008434,
1380,800,-0.645954,-14.174976,0.999992,0.000337,-0.006753,0.009966,0.004161,0.010945,-0.007732,76.769462,0.011251,
1430,850,-1.280818,-12.988468,0.999991,0.000352,-0.007630,0.013180,0.002068,0.013384,-0.007833,84.378893,0.013448,
1390,880,-1.221933,-13.160232,0.999970,0.000632,-0.006221,0.011093,0.004125,0.012025,-0.007154,77.259858,0.012097,
1390,200,-0.195908,-18.976866,0.999998,0.000178,-0.001343,0.007044,-0.000330,0.007057,-0.001356,-87.750709,0.007490,
1610,1680,-1.141345,-2.984364,0.999997,0.000221,-0.004105,0.009357,-0.000096,0.009357,-0.004106,-89.592940,0.009381,
900,1580,1.135031,-3.803071,0.999996,0.000256,-0.004610,0.009573,0.000652,0.009603,-0.004640,87.374229,0.009605,
1030,580,0.663138,-15.853289,0.999996,0.000256,-0.004491,0.008871,-0.001775,0.009103,-0.004723,-82.560339,0.009105,
770,1470,2.071520,-5.365898,0.999995,0.000261,-0.005542,0.010582,0.000148,0.010583,-0.005543,89.475667,0.010587,
790,2020,0.083176,-0.118989,0.999997,0.000000,-0.000809,0.007136,-0.001923,0.007577,-0.001250,-77.082114,0.008124,
1720,1480,-2.188844,-5.346184,0.999995,0.000255,-0.005409,0.010469,-0.000114,0.010470,-0.005410,-89.589713,0.010472,
1040,1410,0.659991,-4.844516,0.999996,0.000263,-0.005198,0.009172,0.002400,0.009563,-0.005588,80.764310,0.009608,
1180,80,0.020168,-19.792370,0.999998,0.000161,-0.000296,0.006152,0.000164,0.006156,-0.000300,88.540825,0.006941,
1680,1770,-1.176017,-2.299087,0.999997,0.000198,-0.004274,0.009642,0.000451,0.009656,-0.004288,88.147334,0.009676,
1470,990,-2.502372,-10.640391,0.999992,0.000335,-0.004907,0.014743,-0.000163,0.014745,-0.004908,-89.526166,0.015017,
1130,170,0.101354,-19.206490,0.999997,0.000183,-0.001189,0.006634,0.000143,0.006637,-0.001192,88.952807,0.007077,
960,530,0.942486,-16.034322,0.999997,0.000207,-0.004775,0.009468,-0.001198,0.009568,-0.004875,-85.225217,0.009569,
1550,140,-0.323372,-19.309680,0.999998,0.000179,-0.001321,0.007552,-0.001105,0.007687,-0.001456,-83.008950,0.008166,
1100,530,0.367424,-16.528261,0.999995,0.000254,-0.003437,0.007712,-0.001427,0.007892,-0.003617,-82.820963,0.007901,
1030,390,0.516175,-17.464948,0.999997,0.000233,-0.003069,0.008145,-0.000490,0.008166,-0.003090,-87.500905,0.008247,
610,50,0.418796,-19.773452,0.999996,0.000230,-0.003495,0.010228,0.003616,0.011122,-0.004390,76.104283,0.011204,
1280,560,-0.121297,-16.506932,0.999998,0.000199,-0.002645,0.006590,0.000683,0.006640,-0.002695,85.795290,0.006679,
1440,270,-0.384566,-18.413057,0.999998,0.000224,-0.002274,0.007714,-0.000119,0.007715,-0.002276,-89.315621,0.007928,
860,280,0.869184,-18.074958,0.999997,0.000211,-0.003547,0.009011,0.000459,0.009027,-0.003564,87.910958,0.009094,
1070,1410,0.514649,-4.675126,0.999996,0.000221,-0.004631,0.008478,0.002550,0.008957,-0.005110,79.371776,0.008986,
1810,370,-2.058202,-16.626816,0.999996,0.000226,-0.004994,0.010118,0.000042,0.010118,-0.004994,89.838912,0.010118,
1560,1170,-2.425701,-8.422977,0.999993,0.000306,-0.005957,0.012214,0.001400,0.012322,-0.006064,85.620835,0.012322,
1700,1470,-2.109667,-5.389392,0.999995,0.000267,-0.005529,0.010569,-0.000123,0.010570,-0.005530,-89.563610,0.010574,
1600,260,-0.802767,-18.258677,0.999997,0.000199,-0.003353,0.008758,-0.000536,0.008782,-0.003376,-87.472795,0.008860,
1330,1520,-0.263608,-3.584838,0.999998,0.000201,-0.002958,0.007193,-0.001069,0.007305,-0.003070,-84.053169,0.007335,
1690,1300,-2.626946,-7.206600,0.999995,0.000245,-0.005817,0.010942,0.000809,0.010981,-0.005856,87.242724,0.010989,
1430,870,-1.417801,-12.716140,0.999992,0.000342,-0.007270,0.013696,0.001952,0.013876,-0.007450,84.727223,0.013888,
590,620,3.126492,-13.878722,0.999996,0.000266,-0.004954,0.010197,0.000041,0.010197,-0.004954,89.846103,0.010198,
810,1970,0.274057,-0.479491,0.999998,0.000191,-0.001274,0.007702,-0.001912,0.008092,-0.001664,-78.464265,0.008546,
1740,1810,-1.267870,-2.046862,0.999996,0.000220,-0.004368,0.009911,0.000797,0.009955,-0.004413,86.816041,0.009977,
990,490,0.762100,-16.507720,0.999996,0.000234,-0.004080,0.008925,-0.001049,0.009009,-0.004164,-85.419345,0.009017,
1640,600,-1.816361,-14.806665,0.999995,0.000260,-0.005713,0.010677,0.000335,0.010684,-0.005720,88.829890,0.010693,
1720,1460,-2.248195,-5.559002,0.999996,0.000245,-0.005468,0.010563,-0.000038,0.010563,-0.005468,-89.863314,0.010565,
730,1110,3.491338,-9.265947,0.999996,0.000221,-0.004531,0.009929,-0.000844,0.009978,-0.004580,-86.672563,0.009989,
940,1540,1.016118,-4.056229,0.999996,0.000222,-0.004703,0.009535,0.000993,0.009604,-0.004772,86.031256,0.009604,
1680,1750,-1.240330,-2.491396,0.999997,0.000224,-0.004388,0.009617,0.000271,0.009623,-0.004393,88.893658,0.009635,
1130,150,0.085428,-19.338471,0.999998,0.000148,-0.001027,0.006596,0.000192,0.006601,-0.001032,88.554568,0.007102,
1290,850,-0.462177,-15.045921,0.999992,0.000303,-0.005638,0.002940,0.000530,0.002972,-0.005671,86.478948,0.005673,
960,1070,2.625960,-9.534884,0.999994,0.000327,-0.004162,0.012905,-0.000755,0.012939,-0.004196,-87.470431,0.013202,
580,1900,1.449785,-1.664049,0.999994,0.000282,-0.005475,0.010329,-0.001090,0.010403,-0.005550,-86.072489,0.010411,
770,1450,2.129473,-5.578625,0.999995,0.000250,-0.005614,0.010654,0.000069,0.010655,-0.005614,89.757282,0.010660,
820,1570,1.545291,-4.160152,0.999995,0.000244,-0.005091,0.010105,0.000414,0.010116,-0.005102,88.442049,0.010116,
900,1560,1.169529,-3.995520,0.999996,0.000272,-0.004844,0.009739,0.000749,0.009777,-0.004882,87.069328,0.009777,
900,30,0.027849,-20.087676,0.999998,0.000000,-0.000222,0.006641,0.001321,0.006886,-0.000467,79.474423,0.007696,
1230,470,0.005126,-17.146655,0.999998,0.000180,-0.002513,0.006889,-0.000026,0.006889,-0.002513,-89.842922,0.006973,
1390,700,-0.526083,-15.025083,0.999995,0.000255,-0.005321,0.008832,0.003176,0.009512,-0.006001,77.913181,0.009620,
1170,200,0.072078,-19.016077,0.999998,0.000163,-0.001075,0.006701,0.000143,0.006704,-0.001077,88.947445,0.007200,
1470,970,-2.417788,-10.916824,0.999993,0.000309,-0.005177,0.014211,-0.000319,0.014216,-0.005182,-89.058055,0.014389,
1810,350,-1.990816,-16.829847,0.999996,0.000232,-0.004989,0.010069,-0.000019,0.010069,-0.004989,-89.928234,0.010069,
1900,550,-3.046264,-14.509719,0.999996,0.000000,-0.005093,0.010246,-0.000021,0.010246,-0.005093,-89.921202,0.010246,
870,1420,1.632038,-5.558410,0.999994,0.000270,-0.006048,0.010979,0.000573,0.010998,-0.006067,88.074081,0.011018,
1070,1390,0.522281,-4.850718,0.999995,0.000263,-0.004847,0.008671,0.002744,0.009207,-0.005382,78.952030,0.009251,
1480,1230,-1.526015,-7.270718,0.999992,0.000356,-0.007827,0.013191,-0.000690,0.013213,-0.007850,-88.122779,0.013291,
1420,270,-0.338149,-18.438135,0.999997,0.000218,-0.002316,0.007556,-0.000018,0.007556,-0.002316,-89.895255,0.007742,
1030,410,0.536531,-17.303211,0.999997,0.000249,-0.003159,0.008130,-0.000598,0.008162,-0.003190,-86.974915,0.008226,
860,1390,1.776421,-5.932427,0.999995,0.000270,-0.006216,0.011127,0.000348,0.011134,-0.006223,88.852399,0.011160,
1510,1430,-1.115839,-5.101441,0.999996,0.000246,-0.005746,0.010336,-0.001435,0.010463,-0.005873,-84.941822,0.010489,
920,1330,1.571080,-6.374468,0.999997,0.000281,-0.006938,0.011844,0.000662,0.011867,-0.006961,87.984736,0.011926,
1770,1580,-2.164849,-4.472065,0.999998,0.000147,-0.005110,0.010199,-0.000204,0.010202,-0.005112,-89.235188,0.010202,
1460,630,-0.842060,-15.255095,0.999996,0.000230,-0.005392,0.009713,0.001967,0.009965,-0.005644,82.700260,0.009995,
1280,540,-0.123844,-16.639081,0.999998,0.000180,-0.002617,0.006705,0.000566,0.006739,-0.002652,86.536626,0.006790,
610,40,0.326749,-19.863806,0.999986,0.000435,-0.002698,0.010014,0.004103,0.011223,-0.003907,73.578114,0.011394,
1600,240,-0.743324,-18.435824,0.999997,0.000219,-0.003162,0.008845,-0.000723,0.008888,-0.003206,-86.564513,0.009003,
990,470,0.740637,-16.688593,0.999997,0.000230,-0.003987,0.008826,-0.000960,0.008897,-0.004059,-85.739542,0.008909,
810,1950,0.359034,-0.635995,0.999997,0.000221,-0.001637,0.008015,-0.001843,0.008354,-0.001977,-79.550546,0.008732,
1640,580,-1.763411,-15.021292,0.999995,0.000255,-0.005617,0.010562,0.000389,0.010571,-0.005627,88.622532,0.010578,
1520,1870,-0.390190,-1.170212,0.999996,0.000234,-0.001953,0.007712,0.000765,0.007773,-0.002014,85.502264,0.008068,
730,1520,2.144197,-4.970944,0.999997,0.000231,-0.005299,0.010328,0.000169,0.010330,-0.005301,89.379019,0.010331,
590,610,3.096393,-13.980410,0.999995,0.000291,-0.004957,0.010203,0.000014,0.010203,-0.004957,89.947239,0.010205,
1430,1430,-0.680134,-4.695690,0.999995,0.000261,-0.005020,0.009099,-0.002202,0.009434,-0.005356,-81.340151,0.009463,
730,1090,3.536018,-9.467486,0.999996,0.000223,-0.004458,0.009845,-0.000628,0.009872,-0.004485,-87.490772,0.009886,
1530,140,-0.295475,-19.320984,0.999997,0.000199,-0.001397,0.007412,-0.000981,0.007520,-0.001505,-83.719137,0.007958,
940,1560,0.985533,-3.862569,0.999996,0.000209,-0.004596,0.009463,0.000934,0.009525,-0.004657,86.216080,0.009526,
1720,1440,-2.309355,-5.771825,0.999995,0.000257,-0.005538,0.010558,0.000053,0.010558,-0.005538,89.811194,0.010562,
1230,490,0.004368,-17.011349,0.999998,0.000181,-0.002535,0.006806,-0.000023,0.006806,-0.002535,-89.856385,0.006879,
1320,690,-0.221638,-15.558273,0.999997,0.000203,-0.003416,0.006237,0.002754,0.006967,-0.004146,75.146507,0.007009,
570,1900,1.508496,-1.698793,0.999229,0.003261,-0.005756,0.010383,-0.001248,0.010479,-0.005852,-85.603629,0.010503,
1290,1840,-0.077013,-1.244500,0.999998,0.000147,-0.001217,0.006771,0.000091,0.006772,-0.001218,89.346644,0.007220,
1310,860,-0.674746,-14.766499,0.999993,0.000301,-0.004349,0.003342,0.001351,0.003572,-0.004579,80.318490,0.004813,
770,1430,2.191253,-5.793709,0.999996,0.000243,-0.005687,0.010679,-0.000020,0.010679,-0.005687,-89.930571,0.010687,
1130,130,0.071504,-19.471152,0.999998,0.000155,-0.000839,0.006482,0.000201,0.006488,-0.000844,88.430178,0.007055,
1280,850,-0.403253,-15.145696,0.999989,0.000372,-0.006504,0.002888,0.000112,0.002889,-0.006505,89.317836,0.006519,
1150,200,0.093924,-19.013890,0.999998,0.000179,-0.001208,0.006750,0.000148,0.006753,-0.001211,88.934610,0.007201,
1610,1660,-1.184253,-3.172409,0.999997,0.000256,-0.004294,0.009487,-0.000204,0.009490,-0.004297,-89.153054,0.009504,
1470,950,-2.300793,-11.208733,0.999992,0.000329,-0.005600,0.014470,-0.000436,0.014479,-0.005609,-88.757387,0.014601,
900,2020,0.042930,-0.104068,0.999998,0.000000,-0.000187,0.006697,-0.001235,0.006912,-0.000402,-80.130958,0.007759,
900,1540,1.208240,-4.194781,0.999996,0.000259,-0.005033,0.009908,0.000845,0.009955,-0.005081,86.771443,0.009956,
1810,330,-1.925076,-17.032604,0.999996,0.000240,-0.004907,0.009996,-0.000031,0.009996,-0.004907,-89.879623,0.009996,
780,810,2.804444,-12.358525,0.999997,0.000218,-0.005661,0.010947,0.001094,0.011019,-0.005733,86.248033,0.011022,
1390,680,-0.514344,-15.200547,0.999993,0.000282,-0.004994,0.008702,0.002936,0.009305,-0.005597,78.395517,0.009369,
1550,1850,-0.502482,-1.359904,0.999996,0.000240,-0.002116,0.008142,0.000878,0.008217,-0.002190,85.144207,0.008510,
650,330,1.938477,-17.021450,0.999996,0.000237,-0.004917,0.010006,0.000039,0.010006,-0.004917,89.849298,0.010007,
800,1390,2.143762,-6.134588,0.999996,0.000239,-0.005942,0.010952,-0.000093,0.010953,-0.005943,-89.683241,0.010966,
1770,1560,-2.221635,-4.676830,0.999998,0.000187,-0.005156,0.010241,-0.000170,0.010243,-0.005158,-89.367001,0.010243,
1510,1410,-1.151118,-5.308375,0.999996,0.000254,-0.005979,0.010554,-0.001450,0.010680,-0.006105,-85.027121,0.010717,
1380,780,-0.577448,-14.375360,0.999992,0.000336,-0.006460,0.009574,0.004111,0.010567,-0.007453,76.425168,0.010860,
810,1930,0.443204,-0.799760,0.999996,0.000244,-0.002024,0.008193,-0.001770,0.008491,-0.002322,-80.444535,0.008777,
920,1310,1.642593,-6.614796,0.999995,0.000347,-0.007092,0.012084,0.000469,0.012096,-0.007103,88.601234,0.012157,
1720,730,-2.704896,-13.153116,0.999997,0.000221,-0.005627,0.010710,-0.000692,0.010740,-0.005656,-87.578908,0.010745,
1540,1390,-1.379628,-5.670794,0.999995,0.000267,-0.006368,0.011134,-0.001052,0.011197,-0.006431,-86.572010,0.011238,
1600,220,-0.680163,-18.611548,0.999996,0.000229,-0.002962,0.008560,-0.000837,0.008621,-0.003022,-85.869056,0.008748,
1380,1970,-0.061670,-0.407908,0.999998,0.000165,-0.000384,0.006360,0.000437,0.006388,-0.000412,86.305559,0.007151,
1520,390,-0.813418,-17.268186,0.999996,0.000225,-0.003666,0.008816,0.000387,0.008828,-0.003678,88.225813,0.008869,
1070,1370,0.529075,-5.023154,0.999995,0.000263,-0.005149,0.008809,0.002992,0.009424,-0.005764,78.395979,0.009502,
590,600,3.065207,-14.082017,0.999996,0.000245,-0.004981,0.010134,0.000040,0.010134,-0.004981,89.848974,0.010135,
1510,140,-0.263818,-19.334664,0.999997,0.000214,-0.001528,0.007269,-0.000827,0.007346,-0.001605,-84.677066,0.007724,
1010,1260,1.166427,-6.679062,0.999996,0.000249,-0.007708,0.012407,0.001973,0.012599,-0.007900,84.450812,0.012734,
1900,540,-3.014633,-14.614628,0.999996,0.000000,-0.005067,0.010230,-0.000003,0.010230,-0.005067,-89.987975,0.010230,
940,1580,0.955229,-3.676092,0.999996,0.000221,-0.004465,0.009364,0.000914,0.009424,-0.004525,86.235910,0.009426,
990,450,0.717300,-16.861914,0.999996,0.000233,-0.003909,0.008736,-0.000868,0.008795,-0.003968,-86.089134,0.008809,
1310,850,-0.553082,-14.799205,0.999994,0.000261,-0.004408,0.003747,0.001748,0.004106,-0.004767,78.398664,0.005165,
1030,430,0.553600,-17.139311,0.999997,0.000230,-0.003276,0.008177,-0.000680,0.008217,-0.003317,-86.612680,0.008268,
1440,630,-0.736886,-15.361964,0.999995,0.000288,-0.005257,0.009363,0.002198,0.009686,-0.005580,81.633349,0.009723,
1640,1000,-3.182015,-10.364241,0.999996,0.000217,-0.003989,0.010271,-0.000392,0.010281,-0.003999,-88.426614,0.010366,
1740,130,-0.675625,-19.229685,0.999996,0.000276,-0.003163,0.009177,-0.002174,0.009548,-0.003535,-80.295523,0.009655,
1680,150,-0.629007,-19.117956,0.999997,0.000212,-0.002874,0.008785,-0.001709,0.009030,-0.003119,-81.829013,0.009173,
1280,520,-0.122703,-16.773364,0.999998,0.000174,-0.002581,0.006816,0.000460,0.006838,-0.002604,87.206409,0.006903,
1290,200,-0.067796,-19.017649,0.999998,0.000188,-0.001086,0.006687,-0.000163,0.006691,-0.001090,-88.800238,0.007180,
1810,310,-1.857972,-17.232049,0.999996,0.000231,-0.004828,0.010051,-0.000171,0.010053,-0.004830,-89.341190,0.010056,
690,1050,3.744624,-9.866223,0.999997,0.000192,-0.004334,0.009470,-0.000310,0.009477,-0.004341,-88.715867,0.009488,
710,1520,2.249229,-5.035997,0.999997,0.000266,-0.005240,0.010292,0.000114,0.010292,-0.005241,89.577903,0.010293,
1760,1920,-0.785021,-1.019880,0.999996,0.000223,-0.003827,0.009455,0.002028,0.009758,-0.004130,81.508311,0.009797,
570,1890,1.573097,-1.815145,0.999337,0.002886,-0.006034,0.010169,-0.000829,0.010211,-0.006076,-87.078859,0.010272,
1430,1410,-0.694312,-4.881746,0.999995,0.000263,-0.005295,0.009288,-0.002386,0.009668,-0.005676,-80.939344,0.009717,
1720,1420,-2.370686,-5.982850,0.999996,0.000251,-0.005572,0.010599,0.000152,0.010600,-0.005574,89.463127,0.010605,
910,30,0.027877,-20.087197,0.999999,0.000000,0.000000,0.006598,0.001299,0.006844,-0.000247,79.251337,0.007765,
1230,1330,0.003448,-4.476558,0.999997,0.000195,-0.001961,0.003660,0.000057,0.003660,-0.001962,89.414947,0.003663,
1330,1290,-0.281575,-5.143520,0.999995,0.000269,-0.004429,0.006382,-0.004066,0.007740,-0.005787,-71.526069,0.008051,
600,1740,2.131001,-3.168650,0.999997,0.000201,-0.004872,0.009922,0.000063,0.009922,-0.004872,89.754108,0.009923,
1680,1160,-3.107639,-8.718104,0.999997,0.000258,-0.004953,0.010622,0.001279,0.010726,-0.005057,85.335616,0.010732,
900,1520,1.247377,-4.394892,0.999996,0.000248,-0.005177,0.010035,0.000888,0.010087,-0.005229,86.670465,0.010089,
1630,980,-3.121283,-10.572976,0.999995,0.000260,-0.004108,0.010494,-0.000723,0.010529,-0.004144,-87.173193,0.010609,
690,740,3.030831,-12.926704,0.999995,0.000251,-0.005273,0.010361,0.000686,0.010391,-0.005303,87.491017,0.010391,
1130,110,0.056603,-19.600187,0.999998,0.000175,-0.000688,0.006430,0.000244,0.006439,-0.000697,88.041419,0.007067,
1070,1840,0.218674,-1.291748,0.999998,0.000182,-0.001519,0.007117,-0.000255,0.007124,-0.001527,-88.311754,0.007502,
1870,1850,-1.684414,-2.103735,0.999997,0.000224,-0.004876,0.009881,0.000394,0.009891,-0.004887,88.470026,0.009892,
1100,570,0.375546,-16.217723,0.999996,0.000237,-0.003601,0.007632,-0.001744,0.007897,-0.003865,-81.373240,0.007897,
1460,1730,-0.513941,-2.209506,0.999997,0.000201,-0.002655,0.008127,-0.000037,0.008127,-0.002656,-89.802365,0.008288,
1070,1350,0.545123,-5.201391,0.999995,0.000243,-0.005492,0.008978,0.003231,0.009666,-0.006181,77.967281,0.009791,
1540,1170,-2.308268,-8.368771,0.999995,0.000259,-0.006198,0.012599,0.001274,0.012685,-0.006284,86.140425,0.012686,
730,1070,3.555716,-9.663664,0.999997,0.000208,-0.004340,0.009736,-0.000322,0.009743,-0.004348,-88.688339,0.009762,
1470,930,-2.164614,-11.505742,0.999993,0.000311,-0.006089,0.014277,-0.000379,0.014284,-0.006096,-88.934213,0.014335,
660,610,2.738345,-14.193326,0.999995,0.000266,-0.005213,0.010280,0.000154,0.010282,-0.005214,89.430270,0.010282,
780,1390,2.260783,-6.195860,0.999996,0.000238,-0.005828,0.010882,-0.000192,0.010885,-0.005830,-89.340546,0.010894,
1460,850,-1.519311,-12.704546,0.999992,0.000341,-0.007845,0.013631,0.001016,0.013679,-0.007893,87.296561,0.013733,
1280,390,-0.109747,-17.687825,0.999997,0.000188,-0.002235,0.007152,0.000161,0.007155,-0.002237,89.020291,0.007320,
1270,850,-0.337691,-15.223815,0.999990,0.000348,-0.007303,0.002995,-0.000208,0.002999,-0.007307,-88.842319,0.007346,
1030,450,0.567964,-16.976960,0.999997,0.000227,-0.003432,0.008275,-0.000814,0.008331,-0.003488,-86.042702,0.008368,
770,1850,0.922686,-1.568180,0.999997,0.000217,-0.003514,0.009388,-0.001305,0.009519,-0.003645,-84.282962,0.009605,
1180,520,0.131144,-16.772535,0.999998,0.000172,-0.002590,0.006879,-0.000530,0.006908,-0.002620,-86.803621,0.006975,
1900,530,-2.985596,-14.717012,0.999994,0.000000,-0.005045,0.010186,0.000008,0.010186,-0.005045,89.970185,0.010186,
1600,200,-0.617378,-18.778413,0.999996,0.000245,-0.002761,0.008493,-0.001029,0.008586,-0.002854,-84.817774,0.008745,
770,1940,0.490793,-0.755447,0.999997,0.000205,-0.002066,0.008597,-0.002248,0.009051,-0.002521,-78.569012,0.009343,
1550,1830,-0.557656,-1.523805,0.999997,0.000210,-0.002285,0.008207,0.000730,0.008257,-0.002336,86.038988,0.008513,
900,590,1.351000,-15.199768,0.999995,0.000290,-0.005680,0.010404,-0.000947,0.010460,-0.005735,-86.642005,0.010476,
1360,1970,-0.054719,-0.405560,0.999998,0.000176,-0.000413,0.006317,0.000359,0.006336,-0.000432,86.952010,0.007080,
810,480,1.584373,-16.016021,0.999995,0.000234,-0.005059,0.010077,-0.000402,0.010088,-0.005070,-88.479835,0.010088,
760,810,2.915869,-12.322971,0.999996,0.000228,-0.005504,0.010720,0.001068,0.010790,-0.005575,86.248883,0.010792,
1130,1200,0.696667,-5.744108,0.999990,0.000427,-0.004026,0.005283,0.003066,0.006202,-0.004945,73.314542,0.006557,
860,700,1.888523,-13.828883,0.999995,0.000257,-0.006404,0.011405,-0.000105,0.011406,-0.006404,-89.662238,0.011434,
1810,290,-1.780491,-17.436430,0.999996,0.000251,-0.004771,0.010163,-0.000297,0.010169,-0.004777,-88.861449,0.010175,
1270,200,-0.047468,-19.019890,0.999998,0.000160,-0.001144,0.006658,-0.000079,0.006658,-0.001144,-89.422276,0.007120,
1280,500,-0.122244,-16.909666,0.999998,0.000173,-0.002541,0.006888,0.000390,0.006904,-0.002557,87.636154,0.006981,
700,270,1.478621,-17.790208,0.999997,0.000246,-0.004764,0.009995,0.000466,0.010009,-0.004779,88.193704,0.010013,
1720,1400,-2.437770,-6.197403,0.999995,0.000279,-0.005600,0.010642,0.000261,0.010647,-0.005604,89.078621,0.010652,
570,1510,2.995247,-5.576674,0.999996,0.000241,-0.005023,0.010208,-0.000009,0.010208,-0.005023,-89.966677,0.010209,
1330,1270,-0.316018,-5.272069,0.999995,0.000290,-0.004732,0.006449,-0.004333,0.007931,-0.006215,-71.110054,0.008346,
1680,1140,-3.179518,-8.933124,0.999996,0.000245,-0.004760,0.010439,0.001152,0.010526,-0.004847,85.689162,0.010537,
1430,1390,-0.715652,-5.075991,0.999994,0.000270,-0.005528,0.009585,-0.002494,0.009986,-0.005929,-80.866489,0.010044,
1760,1900,-0.906145,-1.214437,0.999997,0.000208,-0.004103,0.009777,0.001717,0.009986,-0.004312,83.050274,0.010017,
1850,940,-4.007819,-10.852411,0.999998,0.000192,-0.004315,0.008975,-0.000447,0.008990,-0.004330,-88.076375,0.008992,
900,1500,1.282051,-4.597718,0.999995,0.000267,-0.005316,0.010184,0.000892,0.010235,-0.005367,86.716552,0.010239,
1070,1330,0.566220,-5.388610,0.999995,0.000251,-0.005832,0.009311,0.003459,0.010064,-0.006585,77.724855,0.010222,
1500,1170,-2.048323,-8.204406,0.999996,0.000264,-0.006748,0.013410,0.000768,0.013439,-0.006778,87.821853,0.013439,
1740,450,-1.943769,-16.040264,0.999997,0.000182,-0.005041,0.010108,0.000202,0.010110,-0.005043,89.236335,0.010110,
1610,1620,-1.273776,-3.558791,0.999998,0.000225,-0.004686,0.009766,-0.000407,0.009778,-0.004697,-88.386723,0.009780,
1600,190,-0.581174,-18.868013,0.999996,0.000244,-0.002639,0.008379,-0.001070,0.008482,-0.002742,-84.505226,0.008657,
1050,1840,0.251608,-1.306846,0.999998,0.000195,-0.001829,0.007214,-0.000239,0.007220,-0.001835,-88.484980,0.007506,
770,1870,0.828900,-1.375071,0.999996,0.000212,-0.003262,0.009212,-0.001491,0.009388,-0.003438,-83.277585,0.009499,
910,2020,0.042584,-0.103003,0.999999,0.000000,-0.000032,0.006661,-0.001197,0.006869,-0.000240,-80.155880,0.007797,
1850,790,-3.597187,-12.245404,0.999996,0.000243,-0.004818,0.009703,-0.000506,0.009720,-0.004835,-88.005806,0.009720,
570,1880,1.629256,-1.916002,0.999766,0.001761,-0.005851,0.010095,-0.000712,0.010126,-0.005883,-87.448569,0.010171,
1470,910,-2.019340,-11.787693,0.999993,0.000310,-0.006624,0.014065,-0.000285,0.014069,-0.006628,-89.211222,0.014076,
1140,770,0.257293,-15.049524,0.999992,0.000353,-0.004267,0.005939,-0.004027,0.007337,-0.005665,-70.861815,0.007690,
1720,1930,-0.600137,-0.861504,0.999997,0.000182,-0.002141,0.008929,0.002438,0.009442,-0.002654,78.115865,0.009739,
1600,180,-0.547341,-18.951715,0.999997,0.000214,-0.002488,0.008200,-0.001091,0.008310,-0.002598,-84.228680,0.008502,
1570,1540,-1.244134,-4.220232,0.999996,0.000250,-0.005063,0.009961,-0.000796,0.010003,-0.005105,-86.976395,0.010004,
1510,1390,-1.192835,-5.525579,0.999995,0.000276,-0.006262,0.010920,-0.001469,0.011044,-0.006387,-85.147999,0.011089,
920,690,1.465583,-14.191609,0.999994,0.000293,-0.006595,0.011357,-0.000901,0.011402,-0.006640,-87.133905,0.011453,
1030,890,1.603358,-12.401535,0.999992,0.000358,-0.007032,0.014159,-0.001699,0.014294,-0.007168,-85.444965,0.014294,
810,1910,0.529057,-0.964092,0.999996,0.000245,-0.002358,0.008397,-0.001620,0.008636,-0.002597,-81.618227,0.008862,
1330,480,-0.255593,-16.977697,0.999998,0.000195,-0.002830,0.007305,0.000820,0.007371,-0.002896,85.403729,0.007427,
740,810,3.024088,-12.291104,0.999997,0.000209,-0.005322,0.010554,0.001053,0.010623,-0.005392,86.220393,0.010624,
900,570,1.311974,-15.409026,0.999995,0.000270,-0.005432,0.010297,-0.000920,0.010350,-0.005486,-86.663949,0.010357,
1900,520,-2.955435,-14.817750,0.999996,0.000000,-0.005011,0.010080,0.000009,0.010080,-0.005011,89.967467,0.010080,
1130,1190,0.822639,-5.784378,0.999996,0.000245,-0.003467,0.004758,0.002928,0.005694,-0.004403,72.274991,0.005971,
1010,880,1.673298,-12.351373,0.999993,0.000340,-0.007517,0.014045,-0.000662,0.014065,-0.007537,-88.242953,0.014077,
1130,90,0.042957,-19.728096,0.999998,0.000177,-0.000520,0.006256,0.000238,0.006264,-0.000528,87.992698,0.006949,
1550,1810,-0.606269,-1.689382,0.999997,0.000227,-0.002501,0.008379,0.000648,0.008417,-0.002539,86.604120,0.008635,
860,720,1.956934,-13.598090,0.999995,0.000248,-0.006469,0.011601,0.000062,0.011601,-0.006469,89.804040,0.011627,
950,90,0.153366,-19.689210,0.999998,0.000178,-0.000901,0.006875,0.000973,0.006995,-0.001020,82.977646,0.007557,
700,250,1.396149,-17.990266,0.999995,0.000282,-0.004700,0.010017,0.000595,0.010041,-0.004724,87.689915,0.010047,
800,90,0.309324,-19.634687,0.999997,0.000213,-0.001619,0.007823,0.001930,0.008203,-0.001998,78.879459,0.008555,
1180,500,0.128922,-16.906866,0.999998,0.000180,-0.002557,0.006903,-0.000416,0.006922,-0.002575,-87.486365,0.006997,
1280,480,-0.121639,-17.046561,0.999998,0.000161,-0.002497,0.006968,0.000332,0.006979,-0.002509,87.995880,0.007071,
640,870,3.723676,-11.534105,0.999995,0.000247,-0.004648,0.009566,0.000750,0.009606,-0.004687,86.988285,0.009607,
1890,310,-2.244161,-16.940362,0.999997,0.000225,-0.004862,0.009777,0.000074,0.009777,-0.004862,89.711807,0.009777,
1430,1370,-0.734200,-5.269484,0.999993,0.000290,-0.005813,0.009933,-0.002635,0.010363,-0.006242,-80.748487,0.010435,
1060,1390,0.570882,-4.909045,0.999994,0.000291,-0.005064,0.008921,0.002709,0.009427,-0.005570,79.410501,0.009479,
1680,1120,-3.228167,-9.137928,0.999997,0.000211,-0.004545,0.010215,0.000935,0.010274,-0.004604,86.388334,0.010293,
900,1480,1.319667,-4.803306,0.999995,0.000281,-0.005505,0.010352,0.000909,0.010404,-0.005557,86.730739,0.010412,
1480,1170,-1.910306,-8.091813,0.999992,0.000340,-0.007092,0.013715,0.000268,0.013719,-0.007096,89.262230,0.013721,
1850,920,-3.964631,-11.035173,0.999997,0.000202,-0.004369,0.009033,-0.000486,0.009051,-0.004386,-87.927687,0.009052,
570,1500,3.024625,-5.678596,0.999994,0.000284,-0.005013,0.010216,-0.000016,0.010216,-0.005013,-89.938995,0.010217,
1600,600,-1.584373,-14.951392,0.999994,0.000289,-0.005749,0.010566,0.000614,0.010590,-0.005772,87.847485,0.010604,
1810,270,-1.703348,-17.642004,0.999996,0.000227,-0.004719,0.010126,-0.000448,0.010140,-0.004732,-88.271659,0.010147,
1700,1870,-0.852177,-1.385407,0.999997,0.000177,-0.003192,0.009249,0.001557,0.009440,-0.003384,82.973523,0.009566,
1850,770,-3.525856,-12.445651,0.999996,0.000230,-0.004899,0.009830,-0.000479,0.009846,-0.004915,-88.138460,0.009846,
1720,1820,-1.143339,-1.902282,0.999997,0.000190,-0.003788,0.009773,0.001125,0.009865,-0.003881,85.288728,0.009940,
1330,1250,-0.357318,-5.400849,0.999993,0.000340,-0.004923,0.006369,-0.004404,0.007883,-0.006437,-71.021248,0.008393,
1600,170,-0.517654,-19.029371,0.999997,0.000209,-0.002341,0.008113,-0.001165,0.008241,-0.002469,-83.718066,0.008459,
1760,1880,-1.018132,-1.410678,0.999997,0.000195,-0.004293,0.009808,0.001414,0.009949,-0.004433,84.331010,0.009968,
1110,1840,0.163498,-1.270963,0.999998,0.000166,-0.001434,0.006936,-0.000131,0.006938,-0.001436,-89.104630,0.007324,
1160,770,0.183466,-15.224568,0.999998,0.000177,-0.003509,0.004801,-0.003542,0.006106,-0.004813,-69.778683,0.006435,
1070,1750,0.314583,-1.954175,0.999997,0.000202,-0.002209,0.007496,0.000074,0.007496,-0.002209,89.563607,0.007704,
1020,2020,0.026150,-0.098515,0.999998,0.000000,-0.000064,0.006179,-0.000601,0.006236,-0.000122,-84.549939,0.007132,
800,1890,0.645498,-1.151277,0.999996,0.000228,-0.002944,0.008717,-0.001481,0.008902,-0.003129,-82.874653,0.009032,
1230,1310,0.003146,-4.546224,0.999997,0.000204,-0.001995,0.003135,0.000078,0.003136,-0.001996,89.127872,0.003175,
590,490,2.730908,-15.205161,0.999995,0.000284,-0.005119,0.010077,-0.000066,0.010077,-0.005119,-89.751830,0.010078,
1130,1180,0.946611,-5.826998,0.999996,0.000250,-0.002928,0.004512,0.003186,0.005690,-0.004106,69.711107,0.005874,
1690,1600,-1.706634,-4.008963,0.999996,0.000260,-0.005012,0.010124,-0.000269,0.010129,-0.005017,-88.981211,0.010129,
860,740,2.034079,-13.363621,0.999996,0.000243,-0.006513,0.011697,0.000224,0.011699,-0.006515,89.294469,0.011725,
1040,270,0.345827,-18.434247,0.999997,0.000204,-0.002321,0.007575,0.000032,0.007575,-0.002321,89.816269,0.007762,
770,1890,0.743774,-1.197392,0.999996,0.000213,-0.002973,0.009053,-0.001736,0.009299,-0.003218,-81.948397,0.009444,
650,310,1.873959,-17.222598,0.999997,0.000223,-0.004819,0.010088,0.000169,0.010090,-0.004821,89.349589,0.010093,
950,70,0.109553,-19.826932,0.999998,0.000191,-0.000667,0.006773,0.000993,0.006903,-0.000797,82.525166,0.007553,
1490,1040,-2.642334,-9.916683,0.999995,0.000273,-0.004028,0.013324,0.000214,0.013327,-0.004031,89.294657,0.013669,
1430,1350,-0.758660,-5.468806,0.999995,0.000267,-0.006150,0.010185,-0.002799,0.010651,-0.006617,-80.541443,0.010755,
610,230,1.729485,-17.877519,0.999997,0.000253,-0.004873,0.010007,0.000277,0.010012,-0.004878,88.932304,0.010013,
1470,1330,-1.060914,-5.963583,0.999993,0.000315,-0.006921,0.011314,-0.002019,0.011535,-0.007142,-83.755603,0.011644,
1030,870,1.442344,-12.679410,0.999991,0.000366,-0.007369,0.013723,-0.001774,0.013871,-0.007517,-85.224780,0.013887,
1900,730,-3.630470,-12.692389,0.999996,0.000000,-0.004860,0.009713,-0.000189,0.009716,-0.004863,-89.257694,0.009716,
1680,130,-0.536231,-19.290135,0.999997,0.000217,-0.002468,0.008455,-0.001868,0.008765,-0.002779,-80.559203,0.008959,
1290,700,-0.130823,-15.643367,0.999998,0.000203,-0.002693,0.005190,0.002138,0.005732,-0.003236,75.760515,0.005748,
1190,200,0.051784,-19.020549,0.999998,0.000173,-0.001157,0.006684,0.000068,0.006685,-0.001158,89.504761,0.007145,
1280,460,-0.118504,-17.186485,0.999998,0.000157,-0.002447,0.007053,0.000278,0.007061,-0.002455,88.325743,0.007169,
1550,1790,-0.659001,-1.859741,0.999996,0.000233,-0.002658,0.008427,0.000519,0.008451,-0.002682,87.324857,0.008637,
900,1460,1.361914,-5.013090,0.999994,0.000301,-0.005727,0.010427,0.000965,0.010485,-0.005784,86.594239,0.010503,
990,820,1.446053,-13.003389,0.999991,0.000380,-0.007855,0.013071,-0.000961,0.013115,-0.007899,-87.375815,0.013206,
720,810,3.128191,-12.257045,0.999996,0.000289,-0.005223,0.010420,0.001028,0.010488,-0.005290,86.257937,0.010488,
1610,1600,-1.318364,-3.757825,0.999997,0.000243,-0.004828,0.009853,-0.000481,0.009869,-0.004843,-88.127112,0.009869,
1040,1390,0.677500,-5.033728,0.999995,0.000307,-0.005460,0.009426,0.002574,0.009859,-0.005893,80.461147,0.009921,
880,1690,1.005589,-2.819713,0.999996,0.000243,-0.004156,0.009194,0.000201,0.009197,-0.004159,89.135630,0.009211,
1580,1170,-2.544475,-8.469636,0.999995,0.000318,-0.005725,0.011916,0.001464,0.012036,-0.005845,85.289397,0.012038,
1500,810,-1.604481,-12.951600,0.999989,0.000411,-0.007637,0.012929,0.000449,0.012938,-0.007647,88.749431,0.013010,
1680,1100,-3.276926,-9.343653,0.999996,0.000231,-0.004410,0.010286,0.000963,0.010349,-0.004473,86.268390,0.010380,
1630,1340,-2.112544,-6.594328,0.999994,0.000295,-0.006269,0.011376,0.000245,0.011380,-0.006273,89.203999,0.011399,
1700,1850,-0.945151,-1.577173,0.999996,0.000218,-0.003454,0.009535,0.001363,0.009677,-0.003595,84.073186,0.009783,
570,1490,3.054925,-5.781526,0.999991,0.000349,-0.004974,0.010188,-0.000011,0.010188,-0.004974,-89.957967,0.010189,
1830,940,-3.920008,-10.874009,0.999997,0.000228,-0.004418,0.009180,-0.000540,0.009201,-0.004440,-87.731226,0.009203,
1120,1260,0.403395,-5.487176,0.999993,0.000348,-0.005367,0.007388,0.004581,0.008862,-0.006842,72.155522,0.009289,
920,670,1.410420,-14.419008,0.999995,0.000266,-0.006402,0.011217,-0.001015,0.011276,-0.006460,-86.715451,0.011316,
1410,140,-0.145511,-19.381532,0.999997,0.000201,-0.001121,0.006795,-0.000426,0.006818,-0.001143,-86.928649,0.007302,
770,1920,0.592468,-0.926270,0.999996,0.000239,-0.002430,0.008643,-0.001971,0.008983,-0.002771,-80.201201,0.009201,
1600,620,-1.634379,-14.739038,0.999994,0.000283,-0.005908,0.010771,0.000563,0.010790,-0.005927,88.069714,0.010808,
1330,1230,-0.456279,-5.523356,0.999992,0.000347,-0.005010,0.006163,-0.004149,0.007535,-0.006382,-71.698970,0.008117,
1090,1840,0.190601,-1.281564,0.999998,0.000186,-0.001379,0.007019,-0.000226,0.007025,-0.001385,-88.457669,0.007442,
1720,1840,-1.059652,-1.709488,0.999997,0.000176,-0.003607,0.009709,0.001340,0.009842,-0.003740,84.309996,0.009936,
1180,480,0.128926,-17.046900,0.999997,0.000204,-0.002526,0.006975,-0.000345,0.006987,-0.002538,-87.923159,0.007074,
1690,320,-1.331610,-17.496490,0.999994,0.000270,-0.004366,0.009808,-0.000225,0.009812,-0.004370,-89.092718,0.009831,
1070,1770,0.297575,-1.803668,0.999997,0.000197,-0.002058,0.007496,-0.000049,0.007496,-0.002059,-89.708938,0.007746,
1180,770,0.119691,-15.371286,0.999996,0.000338,-0.002884,0.003814,-0.002787,0.004822,-0.003892,-70.117940,0.005116,
1810,690,-3.044222,-13.349902,0.999997,0.000212,-0.005167,0.010164,-0.000438,0.010177,-0.005179,-88.364428,0.010177,
1230,1290,0.002568,-4.601253,0.999997,0.000217,-0.002170,0.002603,0.000104,0.002606,-0.002173,88.758499,0.002793,
1690,1580,-1.760269,-4.212959,0.999997,0.000210,-0.005052,0.010142,-0.000296,0.010148,-0.005058,-88.883874,0.010148,
580,490,2.781095,-15.174349,0.999995,0.000270,-0.005349,0.010014,-0.000166,0.010016,-0.005350,-89.381420,0.010024,
1760,1910,-0.844016,-1.114243,0.999996,0.000208,-0.003975,0.009586,0.001860,0.009836,-0.004225,82.330399,0.009869,
1020,30,0.019366,-20.091523,0.999998,0.000000,0.000077,0.006256,0.000654,0.006325,0.000008,84.027626,0.007308,
650,290,1.793647,-17.426168,0.999997,0.000221,-0.004781,0.010115,0.000285,0.010121,-0.004787,88.905732,0.010126,
770,1910,0.636586,-1.009394,0.999996,0.000226,-0.002636,0.008807,-0.001888,0.009110,-0.002940,-80.869026,0.009299,
1760,1860,-1.124215,-1.609462,0.999996,0.000218,-0.004465,0.009935,0.001152,0.010026,-0.004557,85.452968,0.010040,
1060,270,0.300549,-18.459209,0.999997,0.000224,-0.002134,0.007462,0.000049,0.007462,-0.002134,89.706377,0.007687,
1470,1350,-1.016801,-5.739562,0.999995,0.000278,-0.006602,0.011025,-0.002074,0.011266,-0.006843,-83.380063,0.011352,
950,1260,1.627992,-7.084091,0.999992,0.000333,-0.007490,0.012687,0.000372,0.012694,-0.007497,88.943627,0.012763,
860,760,2.107614,-13.127313,0.999995,0.000278,-0.006564,0.011769,0.000422,0.011779,-0.006574,88.680516,0.011805,
1900,740,-3.662925,-12.595025,0.999995,0.000000,-0.004887,0.009825,-0.000189,0.009827,-0.004889,-89.262451,0.009827,
1030,850,1.302211,-12.957510,0.999992,0.000320,-0.007731,0.013254,-0.001902,0.013425,-0.007902,-84.862927,0.013495,
1280,440,-0.118124,-17.329640,0.999998,0.000177,-0.002404,0.007074,0.000220,0.007079,-0.002409,88.672057,0.007199,
1430,1330,-0.795750,-5.680573,0.999996,0.000243,-0.006505,0.010518,-0.002852,0.010983,-0.006970,-80.736365,0.011115,
1310,700,-0.187145,-15.552772,0.999994,0.000286,-0.003184,0.005827,0.002670,0.006558,-0.003916,74.674321,0.006599,
660,190,1.285480,-18.482009,0.999996,0.000269,-0.004289,0.010219,0.001397,0.010352,-0.004422,84.549421,0.010389,
900,1440,1.405463,-5.223638,0.999994,0.000294,-0.005894,0.010587,0.000944,0.010640,-0.005948,86.732176,0.010665,
610,250,1.821450,-17.682769,0.999996,0.000250,-0.004837,0.009971,0.000186,0.009973,-0.004840,89.281298,0.009975,
1390,1360,-0.522248,-5.089341,0.999992,0.000333,-0.005250,0.008824,-0.003106,0.009479,-0.005905,-78.093655,0.009574,
1660,730,-2.351915,-13.306940,0.999995,0.000323,-0.006084,0.011206,-0.000555,0.011223,-0.006102,-88.164348,0.011238,
1590,1620,-1.183008,-3.499813,0.999997,0.000254,-0.004451,0.009597,-0.000430,0.009610,-0.004464,-88.249793,0.009618,
1680,1080,-3.324015,-9.550936,0.999994,0.000288,-0.004281,0.010163,0.000632,0.010190,-0.004309,87.498640,0.010231,
1890,470,-2.755730,-15.355376,0.999996,0.000249,-0.004917,0.010104,0.000013,0.010104,-0.004917,89.949449,0.010105,
810,1200,2.820298,-8.249325,0.999996,0.000260,-0.005505,0.011142,-0.001307,0.011244,-0.005607,-85.538527,0.011244,
1450,140,-0.191052,-19.364401,0.999998,0.000216,-0.001047,0.006951,-0.000628,0.007000,-0.001096,-85.537116,0.007531,
990,430,0.694501,-17.038141,0.999997,0.000224,-0.003794,0.008659,-0.000776,0.008707,-0.003842,-86.446512,0.008727,
1510,1370,-1.235633,-5.750281,0.999994,0.000276,-0.006528,0.011180,-0.001409,0.011291,-0.006639,-85.477537,0.011349,
1570,1520,-1.282381,-4.421423,0.999996,0.000252,-0.005172,0.010092,-0.000825,0.010136,-0.005216,-86.914110,0.010138,
730,1050,3.573919,-9.858434,0.999996,0.000234,-0.004299,0.009698,-0.000349,0.009707,-0.004308,-88.572610,0.009728,
610,680,3.227052,-13.330852,0.999997,0.000193,-0.005036,0.010062,0.000275,0.010067,-0.005041,88.958037,0.010067,
1400,670,-0.556958,-15.225251,0.999994,0.000290,-0.005069,0.008881,0.002784,0.009416,-0.005604,79.121935,0.009472,
810,1890,0.613954,-1.137242,0.999996,0.000218,-0.002641,0.008622,-0.001502,0.008819,-0.002838,-82.532765,0.009004,
1600,640,-1.687252,-14.515473,0.999994,0.000270,-0.006069,0.011022,0.000494,0.011036,-0.006084,88.344643,0.011055,
1720,1860,-0.963625,-1.510056,0.999997,0.000199,-0.003328,0.009594,0.001558,0.009779,-0.003513,83.222764,0.009907,
900,1330,1.711766,-6.466695,0.999996,0.000300,-0.006813,0.011814,0.000364,0.011821,-0.006820,88.882018,0.011868,
1330,1210,-0.574523,-5.646400,0.999991,0.000374,-0.004456,0.005515,-0.003362,0.006543,-0.005483,-73.003041,0.007024,
930,1260,1.779065,-7.188836,0.999994,0.000311,-0.007276,0.012563,0.000016,0.012563,-0.007276,89.954840,0.012616,
1050,200,0.232609,-18.960344,0.999998,0.000205,-0.001717,0.007139,0.000320,0.007150,-0.001728,87.930569,0.007461,
1070,1790,0.272824,-1.653197,0.999997,0.000196,-0.001928,0.007359,-0.000121,0.007361,-0.001929,-89.254148,0.007633,
1380,760,-0.539238,-14.563768,0.999994,0.000296,-0.006106,0.009270,0.003967,0.010233,-0.007070,76.352539,0.010478,
860,1200,2.536504,-8.164228,0.999994,0.000313,-0.005932,0.011682,-0.001301,0.011777,-0.006028,-85.798471,0.011778,
1640,1020,-3.201633,-10.158111,0.999996,0.000233,-0.003954,0.010292,-0.000196,0.010295,-0.003956,-89.210314,0.010386,
690,1070,3.728376,-9.676067,0.999997,0.000207,-0.004353,0.009442,-0.000271,0.009448,-0.004358,-88.874795,0.009457,
1280,420,-0.116163,-17.472563,0.999998,0.000171,-0.002333,0.007097,0.000210,0.007101,-0.002338,88.725337,0.007238,
960,470,0.860231,-16.598536,0.999997,0.000238,-0.004157,0.009121,-0.000845,0.009175,-0.004210,-86.373827,0.009185,
1080,1390,0.476153,-4.791972,0.999996,0.000218,-0.004701,0.008387,0.002801,0.008961,-0.005276,78.412249,0.009008,
660,170,1.168352,-18.686486,0.999995,0.000265,-0.004104,0.010313,0.001747,0.010521,-0.004313,83.188966,0.010578,
1470,1370,-0.979490,-5.522257,0.999997,0.000220,-0.006284,0.010705,-0.002043,0.010947,-0.006527,-83.239640,0.011015,
1430,1310,-0.834671,-5.896112,0.999995,0.000251,-0.006834,0.010888,-0.002867,0.011341,-0.007286,-81.035642,0.011493,
1480,810,-1.448222,-13.086415,0.999992,0.000323,-0.007807,0.012936,0.000933,0.012978,-0.007849,87.430356,0.013073,
1520,430,-0.873486,-16.912937,0.999996,0.000244,-0.003953,0.009005,0.000583,0.009031,-0.003979,87.431063,0.009052,
1530,660,-1.306760,-14.593225,0.999994,0.000307,-0.006286,0.010998,0.001194,0.011080,-0.006368,86.065933,0.011121,
1620,1930,-0.395084,-0.783776,0.999995,0.000249,-0.001614,0.007929,0.001615,0.008194,-0.001880,80.650884,0.008585,
1210,1840,0.029353,-1.236251,0.999998,0.000207,-0.001311,0.006709,0.000043,0.006710,-0.001311,89.695517,0.007113,
1550,1770,-0.705440,-2.029401,0.999997,0.000197,-0.002878,0.008613,0.000419,0.008628,-0.002893,87.915670,0.008783,
900,1420,1.449593,-5.438922,0.999994,0.000288,-0.006063,0.010898,0.000875,0.010943,-0.006108,87.055661,0.010968,
1130,70,0.033644,-19.851924,0.999998,0.000156,-0.000379,0.006170,0.000285,0.006183,-0.000392,87.514526,0.006924,
910,880,2.361352,-11.817221,0.999995,0.000264,-0.006131,0.012333,0.001329,0.012428,-0.006227,85.903844,0.012428,
780,400,1.529954,-16.725573,0.999997,0.000220,-0.004689,0.009913,-0.000112,0.009914,-0.004690,-89.558835,0.009919,
1680,1870,-0.787218,-1.353141,0.999996,0.000239,-0.003355,0.009082,0.001391,0.009236,-0.003509,83.697759,0.009324,
1900,750,-3.698053,-12.493638,0.999995,0.000000,-0.004871,0.009821,-0.000205,0.009824,-0.004874,-89.199564,0.009824,
720,150,0.807600,-19.039317,0.999996,0.000209,-0.003625,0.009482,0.001854,0.009739,-0.003882,82.103659,0.009805,
1180,460,0.125788,-17.184654,0.999997,0.000207,-0.002478,0.007031,-0.000293,0.007040,-0.002487,-88.238504,0.007140,
1760,1840,-1.223239,-1.809885,0.999996,0.000242,-0.004541,0.009955,0.000935,0.010016,-0.004601,86.326188,0.010027,
690,1140,3.608215,-9.000644,0.999996,0.000224,-0.004589,0.009607,-0.000711,0.009642,-0.004624,-87.138219,0.009645,
1440,990,-2.336214,-10.777660,0.999987,0.000433,-0.006653,0.017731,0.001119,0.017783,-0.006704,87.377520,0.017961,
1680,1060,-3.339945,-9.754427,0.999996,0.000219,-0.004152,0.010024,0.000357,0.010033,-0.004161,88.558167,0.010081,
910,1200,2.222175,-8.029059,0.999995,0.000260,-0.006570,0.012471,-0.001067,0.012531,-0.006629,-86.801565,0.012538,
1730,1640,-1.797338,-3.731180,0.999998,0.000229,-0.004934,0.010108,-0.000166,0.010110,-0.004935,-89.368460,0.010111,
1230,1270,0.001468,-4.646215,0.999995,0.000266,-0.002568,0.002222,0.000074,0.002223,-0.002570,89.114687,0.002789,
600,1770,2.018035,-2.869904,0.999996,0.000227,-0.004850,0.009792,-0.000040,0.009792,-0.004850,-89.843437,0.009792,
770,1900,0.688545,-1.102579,0.999997,0.000215,-0.002822,0.008986,-0.001839,0.009265,-0.003101,-81.350867,0.009433,
570,1000,4.239271,-10.308547,0.999969,0.000710,-0.003287,0.008034,0.000105,0.008035,-0.003288,89.467754,0.008079,
650,270,1.716767,-17.630605,0.999996,0.000257,-0.004741,0.010149,0.000432,0.010161,-0.004754,88.339494,0.010168,
1600,660,-1.742545,-14.294749,0.999995,0.000273,-0.006200,0.011130,0.000401,0.011139,-0.006210,88.675804,0.011164,
1660,710,-2.277831,-13.531974,0.999995,0.000285,-0.006078,0.011195,-0.000400,0.011205,-0.006088,-88.673814,0.011219,
1810,710,-3.115541,-13.145449,0.999997,0.000224,-0.005147,0.010160,-0.000485,0.010175,-0.005162,-88.185562,0.010176,
1010,2020,0.027096,-0.100246,0.999999,0.000000,0.000001,0.006253,-0.000663,0.006323,-0.000068,-84.009939,0.007262,
1720,1880,-0.868688,-1.325352,0.999997,0.000215,-0.003070,0.009397,0.001782,0.009647,-0.003320,82.021411,0.009802,
1400,650,-0.548923,-15.401160,0.999995,0.000245,-0.004773,0.008689,0.002577,0.009166,-0.005249,79.525376,0.009198,
730,1380,2.579672,-6.448180,0.999995,0.000254,-0.005597,0.010628,-0.000394,0.010637,-0.005606,-88.610234,0.010642,
1170,700,0.139594,-15.631137,0.999998,0.000194,-0.002761,0.005277,-0.002224,0.005851,-0.003335,-75.522484,0.005870,
1370,200,-0.172081,-18.984949,0.999998,0.000162,-0.001281,0.006983,-0.000301,0.006994,-0.001292,-87.916913,0.007443,
1030,830,1.184230,-13.232011,0.999994,0.000296,-0.007860,0.012746,-0.002187,0.012976,-0.008089,-84.007297,0.013107,
1090,1260,0.583180,-5.850025,0.999993,0.000314,-0.006475,0.009434,0.004279,0.010513,-0.007553,75.860238,0.010842,
1330,850,-0.623364,-14.490955,0.999990,0.000395,-0.004239,0.005291,0.003149,0.006237,-0.005186,73.269485,0.006678,
1070,1810,0.250919,-1.508068,0.999997,0.000196,-0.001750,0.007270,-0.000196,0.007274,-0.001754,-88.752761,0.007592,
1280,1220,-0.273103,-4.966157,0.999990,0.000380,-0.005079,0.003107,-0.001098,0.003252,-0.005224,-82.489763,0.005276,
1440,1490,-0.686158,-4.201711,0.999996,0.000268,-0.004426,0.008895,-0.001636,0.009093,-0.004624,-83.100239,0.009094,
760,710,2.534722,-13.414001,0.999995,0.000287,-0.005743,0.010898,0.000546,0.010916,-0.005761,88.122896,0.010922,
1430,1290,-0.887292,-6.118853,0.999995,0.000276,-0.007215,0.011360,-0.002868,0.011793,-0.007647,-81.419859,0.011965,
1660,370,-1.342313,-17.091149,0.999995,0.000249,-0.004621,0.009695,0.000068,0.009696,-0.004621,89.728294,0.009699,
750,1780,1.276528,-2.279972,0.999996,0.000217,-0.004069,0.009814,-0.000690,0.009849,-0.004103,-87.161577,0.009894,
1770,360,-1.829392,-16.859049,0.999996,0.000222,-0.004798,0.010044,-0.000018,0.010044,-0.004798,-89.930525,0.010047,
860,1180,2.625437,-8.394717,0.999994,0.000307,-0.005639,0.011662,-0.001417,0.011777,-0.005754,-85.348648,0.011778,
1430,140,-0.168197,-19.373049,0.999998,0.000174,-0.001153,0.006883,-0.000514,0.006916,-0.001185,-86.351586,0.007397,
1470,1390,-0.945433,-5.313892,0.999995,0.000256,-0.006012,0.010405,-0.002049,0.010657,-0.006264,-82.993496,0.010711,
1080,270,0.261635,-18.475812,0.999997,0.000227,-0.001836,0.007339,0.000104,0.007340,-0.001837,89.353292,0.007639,
570,1390,3.365521,-6.802291,0.999908,0.001278,-0.004617,0.010295,-0.000301,0.010301,-0.004623,-88.843812,0.010319,
900,660,1.511983,-14.444268,0.999995,0.000257,-0.006296,0.011181,-0.000794,0.011217,-0.006332,-87.402923,0.011248,
1510,1620,-0.841366,-3.265754,0.999997,0.000202,-0.003885,0.008940,-0.000635,0.008972,-0.003916,-87.172321,0.008996,
1500,870,-1.951739,-12.154680,0.999994,0.000323,-0.007081,0.013383,-0.000529,0.013396,-0.007095,-88.521255,0.013404,
1900,760,-3.733675,-12.393826,0.999996,0.000000,-0.004830,0.009736,-0.000204,0.009739,-0.004833,-89.196497,0.009739,
1120,1960,0.050454,-0.465834,0.999998,0.000182,-0.000560,0.006342,-0.000253,0.006352,-0.000569,-87.899840,0.007029,
890,1200,2.352037,-8.089190,0.999995,0.000251,-0.006291,0.012160,-0.001213,0.012239,-0.006370,-86.255358,0.012243,
1640,1870,-0.662877,-1.295577,0.999996,0.000244,-0.002502,0.008675,0.001347,0.008835,-0.002662,83.223464,0.009064,
1760,1820,-1.317672,-2.008831,0.999996,0.000255,-0.004616,0.009981,0.000725,0.010017,-0.004652,87.164097,0.010025,
1680,1040,-3.358657,-9.953727,0.999996,0.000220,-0.004115,0.010039,0.000264,0.010044,-0.004120,88.931672,0.010097,
1850,750,-3.455645,-12.642489,0.999997,0.000211,-0.004924,0.009813,-0.000462,0.009827,-0.004938,-88.206768,0.009827,
940,1980,0.128270,-0.371251,0.999998,0.000174,-0.000668,0.006870,-0.001062,0.007017,-0.000814,-82.131238,0.007675,
1010,30,0.016543,-20.092843,0.999998,0.000000,0.000077,0.006296,0.000750,0.006385,-0.000012,83.221417,0.007366,
730,1030,3.587417,-10.055219,0.999996,0.000258,-0.004294,0.009756,-0.000063,0.009757,-0.004294,-89.743746,0.009780,
1560,1550,-1.172292,-4.083311,0.999997,0.000218,-0.004913,0.009787,-0.000830,0.009834,-0.004960,-86.778944,0.009834,
1510,1350,-1.283591,-5.974915,0.999993,0.000302,-0.006792,0.011463,-0.001331,0.011560,-0.006889,-85.851258,0.011630,
810,1870,0.697046,-1.309948,0.999996,0.000234,-0.002908,0.008790,-0.001317,0.008937,-0.003054,-83.655101,0.009085,
1330,830,-0.483068,-14.606729,0.999991,0.000366,-0.004862,0.006067,0.004062,0.007411,-0.006206,71.687550,0.007954,
1810,730,-3.186476,-12.941067,0.999997,0.000196,-0.005087,0.010120,-0.000570,0.010141,-0.005108,-87.856919,0.010141,
1080,300,0.293992,-18.252665,0.999997,0.000207,-0.002051,0.007447,0.000000,0.007447,-0.002051,-89.998735,0.007694,
1400,630,-0.539898,-15.568226,0.999997,0.000214,-0.004594,0.008510,0.002413,0.008940,-0.005024,79.892289,0.008962,
1600,1100,-2.931521,-9.298910,0.999996,0.000243,-0.004322,0.010901,0.001088,0.010978,-0.004399,85.933699,0.011050,
1390,140,-0.126950,-19.390982,0.999998,0.000159,-0.000857,0.006689,-0.000399,0.006710,-0.000878,-86.981165,0.007294,
1540,1410,-1.335285,-5.451255,0.999994,0.000291,-0.006142,0.010872,-0.001097,0.010942,-0.006212,-86.325328,0.010976,
1820,570,-2.700817,-14.552904,0.999996,0.000223,-0.005124,0.010266,0.000023,0.010266,-0.005124,89.915690,0.010266,
910,1260,1.921095,-7.276570,0.999994,0.000325,-0.007028,0.012397,-0.000304,0.012402,-0.007033,-89.104055,0.012439,
1430,1270,-0.952067,-6.356092,0.999995,0.000268,-0.007516,0.011796,-0.002787,0.012190,-0.007910,-81.950136,0.012369,
1280,1240,-0.191026,-4.907727,0.999995,0.000271,-0.003942,0.003040,-0.002328,0.003745,-0.004647,-73.152123,0.004929,
1180,440,0.123485,-17.326766,0.999998,0.000184,-0.002431,0.007103,-0.000252,0.007110,-0.002438,-88.489416,0.007226,
1550,1750,-0.755080,-2.203966,0.999998,0.000203,-0.003061,0.008647,0.000210,0.008650,-0.003065,88.971351,0.008772,
780,380,1.475241,-16.925670,0.999996,0.000231,-0.004612,0.009792,-0.000074,0.009793,-0.004613,-89.707045,0.009798,
1440,1470,-0.698144,-4.379181,0.999997,0.000228,-0.004639,0.009061,-0.001776,0.009288,-0.004866,-82.733188,0.009291,
1150,1840,0.103274,-1.247561,0.999998,0.000186,-0.001331,0.006831,-0.000081,0.006832,-0.001332,-89.431795,0.007243,
860,1160,2.720619,-8.631698,0.999996,0.000277,-0.005329,0.011471,-0.001418,0.011590,-0.005448,-85.207526,0.011597,
1180,1650,0.120526,-2.583271,0.999998,0.000166,-0.002311,0.007160,0.000193,0.007164,-0.002315,88.833274,0.007312,
1350,200,-0.146822,-18.993857,0.999998,0.000171,-0.001355,0.006899,-0.000186,0.006903,-0.001359,-88.709138,0.007314,
1090,580,0.413826,-16.104896,0.999995,0.000280,-0.003684,0.007799,-0.001800,0.008075,-0.003960,-81.295011,0.008076,
1770,380,-1.891592,-16.657425,0.999997,0.000213,-0.004870,0.010103,0.000068,0.010103,-0.004870,89.739718,0.010106,
780,790,2.724844,-12.579603,0.999996,0.000240,-0.005769,0.011047,0.001008,0.011107,-0.005829,86.582363,0.011111,
1520,370,-0.781134,-17.444305,0.999997,0.000224,-0.003558,0.008686,0.000282,0.008693,-0.003564,88.679896,0.008739,
1030,810,1.081652,-13.475432,0.999994,0.000284,-0.007788,0.012222,-0.002415,0.012510,-0.008075,-83.214392,0.012685,
700,450,2.061280,-15.966423,0.999996,0.000217,-0.005003,0.010140,-0.000177,0.010142,-0.005005,-89.329460,0.010142,
730,1780,1.359902,-2.329387,0.999996,0.000226,-0.004325,0.009943,-0.000618,0.009970,-0.004352,-87.524380,0.009996,
1730,390,-1.727949,-16.683576,0.999996,0.000247,-0.004871,0.010111,0.000073,0.010111,-0.004872,89.720362,0.010113,
1600,1080,-2.988253,-9.518979,0.999996,0.000259,-0.004022,0.010834,0.000900,0.010888,-0.004076,86.545665,0.011002,
570,1330,3.583194,-7.404828,0.999741,0.002029,-0.006349,0.010012,0.000314,0.010018,-0.006355,88.902450,0.010138,
900,1400,1.497174,-5.660578,0.999995,0.000288,-0.006244,0.011050,0.000784,0.011086,-0.006280,87.409029,0.011118,
1010,820,1.288729,-13.165130,0.999992,0.000342,-0.007847,0.012839,-0.001664,0.012972,-0.007980,-85.430828,0.013086,
1500,910,-2.212791,-11.617979,0.999993,0.000333,-0.006174,0.013317,-0.001037,0.013372,-0.006229,-86.962709,0.013383,
720,130,0.686502,-19.224484,0.999997,0.000217,-0.003343,0.009198,0.002156,0.009558,-0.003703,80.512820,0.009639,
630,1000,4.000335,-10.329627,0.999998,0.000193,-0.004262,0.008994,0.000266,0.009000,-0.004267,88.850141,0.009004,
730,1140,3.424888,-8.971005,0.999996,0.000225,-0.004652,0.009935,-0.000897,0.009990,-0.004706,-86.494364,0.009995,
1870,360,-2.317591,-16.518541,0.999996,0.000251,-0.004933,0.009856,0.000105,0.009857,-0.004934,89.592752,0.009857,
1470,1830,-0.373468,-1.432108,0.999997,0.000190,-0.001892,0.007618,0.000478,0.007642,-0.001916,87.130055,0.007952,
1130,1840,0.131688,-1.258994,0.999998,0.000177,-0.001495,0.006869,-0.000059,0.006869,-0.001495,-89.592910,0.007225,
1160,1650,0.165320,-2.594058,0.999998,0.000167,-0.002412,0.007251,0.000309,0.007261,-0.002422,88.171543,0.007393,
580,1520,2.914680,-5.443985,0.999996,0.000234,-0.005062,0.010183,0.000015,0.010183,-0.005062,89.944254,0.010183,
860,1140,2.799455,-8.855891,0.999996,0.000252,-0.005002,0.011233,-0.001435,0.011358,-0.005128,-84.988041,0.011376,
1320,770,-0.244706,-15.080624,0.999994,0.000295,-0.004089,0.005744,0.003950,0.007134,-0.005479,70.608904,0.007468,
1610,2000,-0.122726,-0.247175,0.999998,0.000182,-0.000539,0.007050,0.001589,0.007369,-0.000858,78.639293,0.008060,
1510,1330,-1.342645,-6.208807,0.999994,0.000301,-0.007007,0.011698,-0.001215,0.011777,-0.007086,-86.298554,0.011858,
940,1960,0.173984,-0.508503,0.999997,0.000206,-0.000870,0.006971,-0.001015,0.007100,-0.000999,-82.744291,0.007687,
1180,420,0.122641,-17.470435,0.999997,0.000209,-0.002344,0.007137,-0.000203,0.007142,-0.002348,-88.776484,0.007280,
1380,1460,-0.441872,-4.200000,0.999996,0.000247,-0.003912,0.007996,-0.001966,0.008313,-0.004228,-80.862989,0.008313,
1330,810,-0.375892,-14.728362,0.999993,0.000322,-0.004983,0.006295,0.004294,0.007744,-0.006432,71.353597,0.008289,
1550,1730,-0.791535,-2.377407,0.999997,0.000211,-0.003255,0.008850,0.000079,0.008850,-0.003256,89.626250,0.008952,
1640,1040,-3.199364,-9.950285,0.999996,0.000235,-0.003954,0.010318,0.000255,0.010323,-0.003959,88.974822,0.010416,
1440,970,-2.243553,-11.104556,0.999980,0.000651,-0.006369,0.016747,0.001466,0.016840,-0.006462,86.386123,0.016991,
1280,1260,-0.134813,-4.848711,0.999996,0.000254,-0.003259,0.003203,-0.002655,0.004154,-0.004210,-70.295807,0.004830,
1540,1370,-1.430769,-5.895637,0.999994,0.000291,-0.006579,0.011302,-0.000946,0.011352,-0.006629,-86.978848,0.011405,
570,1200,3.997169,-8.628215,0.999996,0.000220,-0.004315,0.008999,-0.000158,0.009001,-0.004316,-89.318168,0.009003,
1090,560,0.410762,-16.258072,0.999997,0.000224,-0.003635,0.007760,-0.001681,0.008003,-0.003878,-81.780475,0.008004,
1210,200,0.027878,-19.023338,0.999998,0.000197,-0.001210,0.006652,0.000010,0.006652,-0.001210,89.928138,0.007087,
1430,1250,-1.034130,-6.595100,0.999994,0.000301,-0.007726,0.012063,-0.002596,0.012398,-0.008061,-82.649960,0.012583,
630,500,2.558453,-15.228833,0.999996,0.000244,-0.005062,0.010158,-0.000102,0.010159,-0.005063,-89.615227,0.010159,
1850,730,-3.385136,-12.838519,0.999997,0.000203,-0.004965,0.009855,-0.000395,0.009865,-0.004976,-88.472735,0.009866,
1710,1640,-1.698960,-3.666493,0.999997,0.000207,-0.004902,0.010074,-0.000182,0.010076,-0.004904,-89.305117,0.010078,
1760,1800,-1.404211,-2.210180,0.999996,0.000256,-0.004668,0.010008,0.000573,0.010031,-0.004690,87.767240,0.010038,
1100,330,0.275635,-18.046223,0.999996,0.000222,-0.002235,0.007463,-0.000141,0.007465,-0.002237,-89.167577,0.007662,
780,360,1.420920,-17.118517,0.999995,0.000265,-0.004510,0.009744,0.000028,0.009744,-0.004510,89.887682,0.009753,
780,770,2.645235,-12.802008,0.999995,0.000248,-0.005844,0.011043,0.000912,0.011092,-0.005893,86.918702,0.011100,
1600,1060,-3.025042,-9.733223,0.999996,0.000249,-0.003870,0.010626,0.000519,0.010645,-0.003888,87.950797,0.010773,
610,270,1.910419,-17.476259,0.999997,0.000228,-0.004848,0.009964,0.000119,0.009965,-0.004849,89.537925,0.009966,
1830,1980,-0.547141,-0.556658,0.999995,0.000267,-0.003916,0.010504,0.002891,0.011062,-0.004474,79.074334,0.011129,
1030,790,0.990891,-13.721365,0.999994,0.000279,-0.007602,0.011941,-0.002661,0.012297,-0.007958,-82.382722,0.012473,
1680,1020,-3.363307,-10.156111,0.999997,0.000221,-0.004135,0.010041,-0.000162,0.010043,-0.004137,-89.345007,0.010095,
650,250,1.628927,-17.836262,0.999996,0.000257,-0.004712,0.010178,0.000581,0.010201,-0.004735,87.769404,0.010210,
730,1760,1.432297,-2.529294,0.999994,0.000297,-0.004459,0.009977,-0.000449,0.009991,-0.004473,-88.219220,0.010009,
1520,270,-0.586136,-18.305061,0.999995,0.000249,-0.002842,0.008277,-0.000284,0.008284,-0.002849,-88.537628,0.008417,
1800,190,-1.274356,-18.490907,0.999995,0.000255,-0.004274,0.010229,-0.001412,0.010365,-0.004410,-84.490174,0.010403,
1120,1940,0.069398,-0.595488,0.999998,0.000174,-0.000735,0.006445,-0.000283,0.006456,-0.000746,-87.744118,0.007063,
1730,370,-1.666043,-16.887256,0.999996,0.000246,-0.004857,0.010015,-0.000018,0.010015,-0.004857,-89.931472,0.010017,
810,1850,0.775990,-1.488728,0.999997,0.000210,-0.003136,0.008964,-0.001159,0.009074,-0.003246,-84.578148,0.009196,
1500,890,-2.078878,-11.889108,0.999993,0.000326,-0.006641,0.013376,-0.000849,0.013411,-0.006677,-87.576738,0.013412,
590,1330,3.481969,-7.337802,0.999996,0.000262,-0.004986,0.009825,-0.000173,0.009827,-0.004988,-89.329030,0.009828,
590,1770,2.066708,-2.910132,0.999996,0.000228,-0.004799,0.009720,-0.000043,0.009720,-0.004799,-89.829866,0.009720,
1130,1220,0.527986,-5.629386,0.999994,0.000317,-0.004853,0.006241,0.003989,0.007526,-0.006138,72.141191,0.008011,
1680,330,-1.317390,-17.423618,0.999994,0.000268,-0.004425,0.009844,-0.000162,0.009846,-0.004427,-89.348843,0.009862,
710,1140,3.516142,-8.984381,0.999997,0.000214,-0.004630,0.009759,-0.000798,0.009804,-0.004675,-86.834875,0.009807,
1180,400,0.118727,-17.613721,0.999997,0.000197,-0.002274,0.007147,-0.000159,0.007150,-0.002277,-89.034087,0.007305,
610,1000,4.083329,-10.323847,0.999997,0.000201,-0.004201,0.008780,0.000239,0.008785,-0.004205,88.947340,0.008787,
1230,1250,0.008571,-4.688061,0.999995,0.000260,-0.003510,0.001963,0.000065,0.001964,-0.003511,89.323971,0.003519,
900,1360,1.611449,-6.113759,0.999994,0.000300,-0.006586,0.011451,0.000595,0.011470,-0.006605,88.113832,0.011514,
1140,1650,0.216207,-2.617615,0.999997,0.000200,-0.002609,0.007337,0.000541,0.007366,-0.002638,86.892834,0.007465,
860,1120,2.884228,-9.082228,0.999996,0.000253,-0.004644,0.011079,-0.001347,0.011194,-0.004758,-85.140343,0.011236,
1300,770,-0.173311,-15.248146,0.999998,0.000191,-0.003387,0.004585,0.003403,0.005840,-0.004642,69.755751,0.006169,
1330,660,-0.258598,-15.701430,0.999997,0.000232,-0.003511,0.006734,0.002495,0.007309,-0.004086,77.016651,0.007326,
1410,1840,-0.246739,-1.303837,0.999997,0.000195,-0.001798,0.007191,0.000225,0.007197,-0.001804,88.570023,0.007489,
940,1940,0.224458,-0.650966,0.999997,0.000197,-0.001126,0.007237,-0.001056,0.007369,-0.001257,-82.911033,0.007884,
1640,1990,-0.176735,-0.323268,0.999997,0.000214,-0.000665,0.007394,0.001915,0.007826,-0.001096,77.290745,0.008475,
1510,1750,-0.627536,-2.129890,0.999997,0.000202,-0.003142,0.008294,0.000023,0.008294,-0.003142,89.883931,0.008375,
1660,1450,-1.942828,-5.472750,0.999996,0.000216,-0.005669,0.010718,-0.000213,0.010721,-0.005671,-89.256884,0.010727,
1380,1480,-0.439704,-4.042539,0.999996,0.000236,-0.003744,0.007891,-0.001748,0.008148,-0.004001,-81.638457,0.008148,
1250,200,-0.024454,-19.023731,0.999998,0.000184,-0.001247,0.006643,0.000011,0.006643,-0.001247,89.920208,0.007062,
650,1200,3.629015,-8.464463,0.999995,0.000270,-0.004769,0.009687,-0.000825,0.009734,-0.004816,-86.744252,0.009734,
730,1010,3.577103,-10.251915,0.999996,0.000243,-0.004304,0.009793,0.000319,0.009800,-0.004311,88.704911,0.009824,
1030,820,1.132636,-13.355889,0.999995,0.000274,-0.007853,0.012469,-0.002305,0.012727,-0.008111,-83.608450,0.012886,
1490,720,-1.189364,-14.124514,0.999996,0.000277,-0.006902,0.011469,0.001612,0.011609,-0.007042,85.022776,0.011697,
1640,1060,-3.179145,-9.742841,0.999997,0.000229,-0.003999,0.010260,0.000447,0.010274,-0.004013,88.205893,0.010355,
1330,790,-0.323103,-14.857356,0.999994,0.000303,-0.004786,0.006504,0.004369,0.007998,-0.006279,71.129538,0.008420,
1390,1560,-0.450601,-3.440372,0.999996,0.000215,-0.003483,0.008027,-0.001196,0.008150,-0.003606,-84.129620,0.008168,
1560,200,-0.507708,-18.834635,0.999996,0.000229,-0.002241,0.008133,-0.000910,0.008213,-0.002320,-85.022989,0.008468,
610,290,1.990536,-17.280447,0.999997,0.000231,-0.004857,0.009913,0.000022,0.009913,-0.004857,89.914275,0.009913,
960,590,1.019231,-15.451500,0.999997,0.000213,-0.005370,0.009991,-0.001440,0.010125,-0.005504,-84.690276,0.010138,
1870,190,-1.604233,-18.200977,0.999996,0.000250,-0.004903,0.010008,-0.000523,0.010026,-0.004921,-87.993178,0.010027,
1470,1810,-0.408954,-1.585246,0.999997,0.000203,-0.002076,0.007814,0.000414,0.007832,-0.002094,87.605932,0.008109,
780,340,1.363408,-17.315353,0.999996,0.000247,-0.004418,0.009839,0.000134,0.009840,-0.004419,89.461167,0.009857,
650,230,1.538321,-18.042677,0.999996,0.000261,-0.004619,0.010164,0.000760,0.010203,-0.004658,87.064059,0.010216,
1830,1960,-0.731502,-0.768482,0.999994,0.000284,-0.004188,0.010447,0.002453,0.010847,-0.004588,80.733845,0.010890,
1280,1280,-0.116627,-4.787078,0.999997,0.000243,-0.002863,0.003573,-0.002666,0.004534,-0.003824,-70.180505,0.004877,
1430,370,-0.486665,-17.637640,0.999997,0.000222,-0.003023,0.008154,0.000404,0.008168,-0.003038,87.934827,0.008257,
840,1910,0.471221,-0.940639,0.999997,0.000215,-0.001834,0.008136,-0.001536,0.008368,-0.002065,-81.438900,0.008718,
710,540,2.262411,-15.071584,0.999995,0.000235,-0.005275,0.010317,-0.000119,0.010318,-0.005276,-89.562583,0.010318,
960,270,0.537313,-18.330913,0.999995,0.000251,-0.002899,0.008155,0.000256,0.008161,-0.002905,88.672002,0.008273,
1600,1040,-3.043690,-9.945287,0.999996,0.000240,-0.003747,0.010631,0.000278,0.010637,-0.003752,88.890838,0.010789,
890,820,2.178144,-12.499563,0.999995,0.000294,-0.006648,0.012249,0.000818,0.012285,-0.006683,87.525471,0.012301,
1730,350,-1.603211,-17.089016,0.999995,0.000249,-0.004824,0.009981,-0.000091,0.009982,-0.004824,-89.648771,0.009984,
810,1830,0.851195,-1.669938,0.999997,0.000208,-0.003372,0.009084,-0.000983,0.009161,-0.003449,-85.514114,0.009254,
1540,910,-2.447333,-11.480216,0.999994,0.000321,-0.005607,0.012389,-0.001446,0.012505,-0.005723,-85.434385,0.012520,
1030,770,0.924922,-13.955249,0.999994,0.000279,-0.007336,0.011522,-0.002751,0.011915,-0.007729,-81.866511,0.012089,
1770,290,-1.590863,-17.565032,0.999995,0.000256,-0.004792,0.010064,-0.000291,0.010070,-0.004798,-88.878323,0.010074,
1710,1620,-1.755026,-3.869723,0.999996,0.000236,-0.004978,0.010114,-0.000216,0.010117,-0.004982,-89.181341,0.010117,
580,1330,3.530193,-7.367738,0.999996,0.000271,-0.005886,0.009913,0.000096,0.009913,-0.005886,89.651012,0.009971,
760,110,0.477868,-19.445719,0.999996,0.000243,-0.001767,0.008647,0.002383,0.009167,-0.002286,77.705084,0.009543,
1230,1230,0.008177,-4.723591,0.999992,0.000319,-0.005512,0.002479,0.000021,0.002479,-0.005512,89.852158,0.005521,
830,1140,2.948089,-8.889610,0.999996,0.000247,-0.004850,0.010912,-0.001377,0.011032,-0.004970,-85.044306,0.011050,
580,1770,2.114542,-2.949765,0.999995,0.000260,-0.004637,0.009638,-0.000031,0.009638,-0.004637,-89.875254,0.009640,
1020,450,0.603192,-16.952611,0.999997,0.000237,-0.003584,0.008396,-0.000859,0.008457,-0.003645,-85.917907,0.008484,
1180,380,0.115353,-17.757871,0.999997,0.000196,-0.002179,0.007130,-0.000120,0.007132,-0.002181,-89.259578,0.007309,
1510,1770,-0.590138,-1.967583,0.999996,0.000215,-0.003001,0.008303,0.000162,0.008305,-0.003004,89.177293,0.008411,
800,1990,0.199265,-0.330797,0.999997,0.000228,-0.001140,0.007501,-0.001997,0.007940,-0.001579,-77.594478,0.008407,
1670,1040,-3.317134,-9.953216,0.999996,0.000218,-0.004063,0.010096,0.000258,0.010101,-0.004067,88.956060,0.010165,
900,1340,1.678175,-6.347558,0.999995,0.000301,-0.006742,0.011717,0.000452,0.011728,-0.006753,88.599054,0.011773,
940,1920,0.274364,-0.797581,0.999997,0.000206,-0.001340,0.007308,-0.000951,0.007412,-0.001444,-83.799204,0.007859,
1790,940,-3.740014,-10.905242,0.999997,0.000208,-0.004528,0.009548,-0.000741,0.009587,-0.004567,-86.996276,0.009590,
1850,710,-3.315931,-13.035043,0.999997,0.000218,-0.004992,0.009971,-0.000341,0.009979,-0.005000,-88.694740,0.009979,
1640,1500,-1.697181,-4.874728,0.999996,0.000224,-0.005454,0.010430,-0.000457,0.010444,-0.005467,-88.353786,0.010447,
1390,1840,-0.215447,-1.290258,0.999998,0.000183,-0.001472,0.007101,0.000275,0.007110,-0.001481,88.161910,0.007503,
1380,1500,-0.434972,-3.889355,0.999997,0.000211,-0.003655,0.007853,-0.001604,0.008073,-0.003874,-82.212638,0.008075,
1330,770,-0.285970,-14.984113,0.999995,0.000273,-0.004525,0.006364,0.004127,0.007751,-0.005912,71.420674,0.008100,
1660,1430,-2.001158,-5.689625,0.999997,0.000207,-0.005779,0.010815,-0.000137,0.010816,-0.005781,-89.526787,0.010825,
860,1100,2.944711,-9.300662,0.999996,0.000236,-0.004316,0.010874,-0.001094,0.010953,-0.004395,-85.903213,0.011024,
1560,220,-0.564075,-18.667433,0.999997,0.000228,-0.002465,0.008246,-0.000769,0.008301,-0.002520,-85.911499,0.008512,
1120,1650,0.270187,-2.648463,0.999998,0.000205,-0.002639,0.007411,0.000554,0.007441,-0.002669,86.856202,0.007540,
1790,2000,-0.291490,-0.304261,0.999996,0.000279,-0.000855,0.008893,0.003807,0.010204,-0.002166,71.002980,0.010752,
780,320,1.300129,-17.515441,0.999996,0.000248,-0.004380,0.009769,0.000208,0.009772,-0.004383,89.159559,0.009789,
1600,1020,-3.051662,-10.161392,0.999996,0.000245,-0.003728,0.010658,-0.000171,0.010660,-0.003730,-89.319682,0.010819,
1520,910,-2.331747,-11.537992,0.999995,0.000284,-0.005858,0.012830,-0.001296,0.012919,-0.005948,-86.051818,0.012933,
730,1430,2.413516,-5.915174,0.999995,0.000237,-0.005487,0.010540,-0.000122,0.010540,-0.005488,-89.563956,0.010543,
960,570,0.993384,-15.649778,0.999997,0.000225,-0.005082,0.009804,-0.001371,0.009929,-0.005207,-84.780516,0.009933,
1430,1230,-1.133661,-6.838929,0.999994,0.000301,-0.007862,0.012507,-0.002339,0.012772,-0.008127,-83.532515,0.012929,
1330,640,-0.261838,-15.839287,0.999996,0.000259,-0.003426,0.006788,0.002184,0.007235,-0.003874,78.424523,0.007241,
1230,200,0.002051,-19.026176,0.999998,0.000159,-0.001249,0.006639,0.000003,0.006639,-0.001249,89.977353,0.007056,
1870,180,-1.544394,-18.303904,0.999996,0.000236,-0.004899,0.010134,-0.000645,0.010162,-0.004927,-87.548095,0.010163,
820,690,2.104768,-13.809213,0.999997,0.000234,-0.006151,0.011168,0.000141,0.011169,-0.006153,89.533869,0.011188,
1470,1790,-0.444363,-1.744058,0.999996,0.000213,-0.002240,0.007847,0.000296,0.007856,-0.002249,88.322313,0.008092,
1850,660,-3.143671,-13.543097,0.999998,0.000169,-0.005062,0.010106,-0.000247,0.010110,-0.005066,-89.068559,0.010110,
1030,750,0.865271,-14.184580,0.999996,0.000239,-0.006976,0.011076,-0.002815,0.011505,-0.007405,-81.339426,0.011662,
650,210,1.435849,-18.248208,0.999995,0.000274,-0.004560,0.010262,0.000982,0.010327,-0.004625,86.227351,0.010345,
610,730,3.399766,-12.828740,0.999994,0.000259,-0.004965,0.009835,0.000386,0.009845,-0.004975,88.506955,0.009846,
1730,330,-1.539734,-17.288379,0.999995,0.000254,-0.004678,0.009973,-0.000153,0.009975,-0.004679,-89.402596,0.009981,
820,300,1.070752,-17.808793,0.999997,0.000218,-0.003767,0.009360,0.000419,0.009373,-0.003781,88.174532,0.009431,
1770,310,-1.664003,-17.362849,0.999996,0.000244,-0.004828,0.010049,-0.000144,0.010051,-0.004829,-89.447289,0.010053,
1590,1680,-1.057230,-2.930715,0.999997,0.000206,-0.004171,0.009296,-0.000217,0.009299,-0.004175,-89.075968,0.009315,
1280,1720,-0.100186,-2.080612,0.999998,0.000171,-0.001976,0.007095,-0.000055,0.007095,-0.001976,-89.649652,0.007323,
810,1140,3.045578,-8.909436,0.999995,0.000295,-0.004796,0.010740,-0.001285,0.010846,-0.004902,-85.302019,0.010862,
1660,830,-2.755261,-12.176994,0.999996,0.000270,-0.005680,0.011075,-0.001198,0.011160,-0.005765,-85.931942,0.011162,
1460,1550,-0.724192,-3.742368,0.999996,0.000255,-0.004197,0.008868,-0.001208,0.008978,-0.004307,-84.763380,0.008981,
1160,1310,0.169773,-4.810514,0.999996,0.000225,-0.003251,0.005035,0.003208,0.006132,-0.004348,71.122412,0.006308,
620,430,2.405511,-15.909962,0.999996,0.000271,-0.004986,0.010044,-0.000131,0.010045,-0.004987,-89.501116,0.010045,
820,1910,0.510253,-0.956929,0.999997,0.000219,-0.002032,0.008285,-0.001627,0.008536,-0.002283,-81.246209,0.008838,
1180,360,0.108858,-17.898952,0.999998,0.000169,-0.002118,0.007102,-0.000118,0.007103,-0.002119,-89.266331,0.007293,
900,530,1.237414,-15.814971,0.999997,0.000231,-0.005177,0.009988,-0.000892,0.010040,-0.005229,-86.644227,0.010043,
740,110,0.513081,-19.432456,0.999997,0.000203,-0.001949,0.008811,0.002492,0.009360,-0.002498,77.570992,0.009694,
1540,1730,-0.761048,-2.358656,0.999997,0.000203,-0.003196,0.008798,0.000059,0.008798,-0.003196,89.717981,0.008907,
1230,810,0.006825,-15.462714,0.999995,0.000264,-0.003875,0.002096,-0.000057,0.002096,-0.003876,-89.453475,0.003880,
940,1900,0.323625,-0.946531,0.999997,0.000200,-0.001611,0.007556,-0.000931,0.007649,-0.001704,-84.259074,0.008032,
1510,1790,-0.545928,-1.796702,0.999996,0.000232,-0.002834,0.008127,0.000260,0.008134,-0.002840,88.640705,0.008256,
900,1320,1.745253,-6.586579,0.999996,0.000280,-0.006866,0.011899,0.000271,0.011903,-0.006870,89.172414,0.011950,
1430,1190,-1.379306,-7.377310,0.999994,0.000311,-0.007412,0.013603,-0.001979,0.013788,-0.007597,-84.667342,0.013812,
1150,1520,0.215701,-3.547154,0.999997,0.000209,-0.002918,0.007071,0.001072,0.007184,-0.003032,83.945617,0.007213,
1330,1840,-0.127176,-1.255846,0.999998,0.000181,-0.001481,0.006862,0.000075,0.006863,-0.001482,89.485707,0.007223,
1850,690,-3.246398,-13.239161,0.999996,0.000227,-0.005024,0.010044,-0.000303,0.010050,-0.005030,-88.847949,0.010050,
1600,1000,-3.028833,-10.375671,0.999997,0.000228,-0.003822,0.010587,-0.000453,0.010601,-0.003836,-88.199133,0.010735,
1810,1920,-0.967916,-1.124576,0.999996,0.000240,-0.003770,0.010289,0.002246,0.010639,-0.004120,81.141315,0.010728,
1640,1480,-1.749573,-5.085072,0.999996,0.000224,-0.005597,0.010513,-0.000392,0.010522,-0.005607,-88.608602,0.010530,
1260,1650,-0.066469,-2.571022,0.999997,0.000230,-0.002317,0.007093,-0.000219,0.007098,-0.002322,-88.669826,0.007238,
1460,610,-0.821336,-15.449070,0.999997,0.000198,-0.005198,0.009594,0.001878,0.009829,-0.005433,82.874917,0.009848,
780,300,1.239397,-17.708910,0.999997,0.000223,-0.004292,0.009635,0.000351,0.009644,-0.004301,88.556646,0.009663,
1380,1520,-0.431202,-3.729728,0.999996,0.000223,-0.003597,0.007895,-0.001497,0.008087,-0.003789,-82.696946,0.008092,
1500,850,-1.827698,-12.423975,0.999993,0.000373,-0.007378,0.013353,-0.000212,0.013355,-0.007380,-89.414221,0.013379,
730,1450,2.349956,-5.703688,0.999996,0.000229,-0.005458,0.010504,-0.000059,0.010504,-0.005459,-89.786678,0.010507,
1590,1040,-3.006097,-9.945878,0.999997,0.000232,-0.003719,0.010748,0.000287,0.010754,-0.003724,88.865636,0.010921,
1790,1980,-0.455562,-0.496049,0.999996,0.000251,-0.001673,0.009637,0.003856,0.010827,-0.002863,72.853920,0.011220,
1330,750,-0.268562,-15.114717,0.999996,0.000249,-0.004218,0.006383,0.003842,0.007629,-0.005464,72.031359,0.007863,
1020,490,0.639975,-16.607838,0.999996,0.000246,-0.004012,0.008620,-0.001204,0.008734,-0.004126,-84.603012,0.008738,
1560,240,-0.619942,-18.501586,0.999997,0.000221,-0.002644,0.008474,-0.000682,0.008516,-0.002685,-86.500820,0.008708,
1550,980,-2.799122,-10.622950,0.999996,0.000238,-0.003905,0.011586,-0.000968,0.011647,-0.003965,-86.439857,0.011843,
860,1080,2.999743,-9.520288,0.999997,0.000226,-0.004046,0.010819,-0.000922,0.010876,-0.004103,-86.465629,0.010985,
1850,200,-1.559100,-18.197891,0.999996,0.000247,-0.004894,0.010095,-0.000481,0.010111,-0.004910,-88.164275,0.010112,
580,790,3.751757,-12.159056,0.999994,0.000294,-0.005044,0.009301,0.000088,0.009301,-0.005045,89.647370,0.009312,
1030,730,0.825175,-14.403539,0.999995,0.000251,-0.006642,0.010719,-0.002810,0.011162,-0.007086,-81.030816,0.011297,
1730,310,-1.475051,-17.489316,0.999995,0.000272,-0.004519,0.009954,-0.000332,0.009962,-0.004526,-88.687181,0.009975,
1090,200,0.174536,-18.984055,0.999998,0.000175,-0.001253,0.006989,0.000302,0.007000,-0.001264,87.907436,0.007462,
1090,500,0.392880,-16.731756,0.999997,0.000209,-0.003400,0.007795,-0.001231,0.007928,-0.003533,-83.799727,0.007944,
1820,1110,-3.886858,-9.324626,0.999997,0.000228,-0.004423,0.009281,0.000564,0.009304,-0.004447,87.648735,0.009307,
840,690,1.981060,-13.874972,0.999995,0.000261,-0.006238,0.011262,-0.000007,0.011262,-0.006238,-89.977466,0.011284,
1470,1770,-0.477430,-1.902009,0.999997,0.000188,-0.002401,0.007980,0.000207,0.007984,-0.002405,88.858673,0.008192,
660,1330,3.131125,-7.149094,0.999997,0.000212,-0.005148,0.010205,-0.000573,0.010226,-0.005170,-87.866381,0.010226,
1180,340,0.107621,-18.041454,0.999998,0.000155,-0.002006,0.007105,-0.000074,0.007106,-0.002006,-89.535737,0.007327,
650,630,2.855884,-13.957621,0.999997,0.000219,-0.005208,0.010204,0.000200,0.010207,-0.005211,89.255906,0.010208,
1280,1700,-0.102567,-2.222870,0.999998,0.000183,-0.002086,0.007106,-0.000122,0.007107,-0.002087,-89.242610,0.007306,
1340,1970,-0.045422,-0.402977,0.999998,0.000182,-0.000499,0.006268,0.000273,0.006279,-0.000510,87.691900,0.006974,
600,430,2.502874,-15.842961,0.999996,0.000243,-0.004972,0.009996,-0.000100,0.009997,-0.004972,-89.618633,0.009997,
1170,260,0.098295,-18.605253,0.999998,0.000150,-0.001491,0.006957,0.000058,0.006957,-0.001491,89.604177,0.007326,
820,320,1.126777,-17.622662,0.999997,0.000219,-0.003962,0.009473,0.000234,0.009477,-0.003966,89.001232,0.009519,
1510,1810,-0.507945,-1.640577,0.999997,0.000219,-0.002634,0.008069,0.000391,0.008083,-0.002648,87.913143,0.008241,
1430,1170,-1.545091,-7.652767,0.999992,0.000345,-0.007065,0.013997,-0.001901,0.014167,-0.007235,-84.884967,0.014168,
1450,1740,-0.473951,-2.113864,0.999996,0.000235,-0.002587,0.007974,-0.000056,0.007974,-0.002588,-89.695186,0.008136,
940,1880,0.374987,-1.098707,0.999997,0.000203,-0.001796,0.007583,-0.000803,0.007651,-0.001864,-85.143958,0.007980,
610,710,3.330806,-13.026982,0.999995,0.000262,-0.004977,0.009986,0.000313,0.009992,-0.004984,88.801891,0.009992,
1310,1840,-0.099352,-1.246750,0.999998,0.000180,-0.001303,0.006808,0.000124,0.006810,-0.001305,89.122729,0.007229,
710,320,1.617078,-17.317040,0.999997,0.000247,-0.004821,0.010054,0.000100,0.010055,-0.004822,89.613497,0.010057,
1240,1650,-0.018997,-2.559546,0.999998,0.000175,-0.002332,0.007063,-0.000119,0.007065,-0.002334,-89.272386,0.007199,
1600,980,-3.001008,-10.586639,0.999997,0.000224,-0.004014,0.010768,-0.000826,0.010814,-0.004060,-86.810264,0.010925,
1570,1680,-0.973814,-2.878243,0.999997,0.000188,-0.004128,0.009205,-0.000205,0.009208,-0.004131,-89.120464,0.009224,
1770,330,-1.731090,-17.162791,0.999996,0.000230,-0.004806,0.010037,-0.000036,0.010037,-0.004806,-89.861319,0.010040,
580,940,4.150246,-10.813103,0.999997,0.000207,-0.003999,0.008536,0.000199,0.008539,-0.004002,89.089772,0.008545,
1380,1960,-0.070810,-0.472186,0.999998,0.000176,-0.000439,0.006426,0.000427,0.006452,-0.000465,86.452787,0.007197,
580,800,3.782313,-12.066665,0.999995,0.000258,-0.004895,0.009170,0.000090,0.009170,-0.004896,89.634244,0.009177,
1570,980,-2.877725,-10.605669,0.999997,0.000243,-0.003947,0.011178,-0.000936,0.011236,-0.004004,-86.472345,0.011389,
780,280,1.171568,-17.903771,0.999997,0.000197,-0.004218,0.009601,0.000519,0.009621,-0.004238,87.851899,0.009644,
750,880,3.221322,-11.566742,0.999995,0.000275,-0.004944,0.010364,0.001174,0.010453,-0.005034,85.640324,0.010456,
1230,790,0.003137,-15.504678,0.999995,0.000276,-0.002812,0.002125,-0.000067,0.002126,-0.002813,-89.221375,0.002933,
590,1580,2.687178,-4.803753,0.999996,0.000241,-0.005091,0.010094,0.000084,0.010094,-0.005092,89.681585,0.010094,
1020,470,0.621171,-16.781481,0.999997,0.000207,-0.003818,0.008547,-0.001028,0.008632,-0.003903,-85.278268,0.008645,
1850,220,-1.665866,-17.992439,0.999996,0.000227,-0.004871,0.010103,-0.000370,0.010112,-0.004880,-88.585627,0.010114,
1780,2000,-0.278624,-0.300307,0.999997,0.000202,-0.001046,0.008811,0.003612,0.009993,-0.002228,71.880520,0.010493,
1370,1500,-0.398792,-3.853028,0.999997,0.000220,-0.003621,0.007716,-0.001658,0.007953,-0.003859,-81.847813,0.007955,
860,1060,3.036439,-9.734807,0.999997,0.000222,-0.003876,0.010568,-0.000522,0.010587,-0.003895,-87.933366,0.010709,
670,1800,1.557296,-2.314458,0.999996,0.000267,-0.004655,0.010155,-0.000633,0.010182,-0.004682,-87.557786,0.010192,
1560,260,-0.671103,-18.329235,0.999996,0.000231,-0.002854,0.008487,-0.000532,0.008512,-0.002878,-87.321660,0.008659,
1330,1510,-0.264738,-3.656481,0.999997,0.000212,-0.002972,0.007156,-0.001117,0.007278,-0.003093,-83.781378,0.007305,
1640,1460,-1.803197,-5.298107,0.999996,0.000223,-0.005687,0.010683,-0.000353,0.010690,-0.005695,-88.765290,0.010698,
1070,200,0.199314,-18.974593,0.999998,0.000168,-0.001408,0.007052,0.000332,0.007065,-0.001421,87.755593,0.007474,
1460,590,-0.801527,-15.642578,0.999998,0.000179,-0.005038,0.009426,0.001799,0.009646,-0.005258,83.015738,0.009659,
1330,700,-0.257986,-15.432066,0.999998,0.000169,-0.003729,0.006591,0.003024,0.007412,-0.004549,74.814186,0.007475,
1030,710,0.787606,-14.618114,0.999995,0.000264,-0.006295,0.010343,-0.002732,0.010780,-0.006732,-80.910951,0.010891,
1850,1110,-4.020716,-9.353268,0.999997,0.000192,-0.004314,0.008975,0.000381,0.008986,-0.004325,88.358463,0.008988,
900,1300,1.821225,-6.829555,0.999994,0.000280,-0.006930,0.012056,0.000071,0.012056,-0.006931,89.786295,0.012101,
1800,1110,-3.795941,-9.308619,0.999997,0.000240,-0.004496,0.009450,0.000646,0.009480,-0.004526,87.355102,0.009483,
690,1090,3.712427,-9.485878,0.999997,0.000231,-0.004418,0.009523,-0.000455,0.009538,-0.004433,-88.131765,0.009546,
1370,140,-0.110649,-19.395367,0.999998,0.000173,-0.000792,0.006622,-0.000373,0.006641,-0.000811,-87.124336,0.007246,
1890,1000,-4.236420,-10.311586,0.999996,0.000223,-0.004047,0.008276,-0.000231,0.008281,-0.004052,-88.926010,0.008281,
1310,1320,-0.190122,-4.807665,0.999997,0.000209,-0.003404,0.005435,-0.003244,0.006498,-0.004467,-71.858892,0.006648,
1000,2020,0.025791,-0.099651,0.999998,0.000000,0.000007,0.006272,-0.000753,0.006361,-0.000082,-83.238377,0.007298,
1730,290,-1.401332,-17.690241,0.999995,0.000249,-0.004401,0.009947,-0.000514,0.009965,-0.004420,-87.949929,0.009986,
640,1330,3.233510,-7.201578,0.999996,0.000247,-0.005059,0.010085,-0.000494,0.010101,-0.005075,-88.134565,0.010101,
1520,300,-0.651471,-18.050923,0.999997,0.000227,-0.003076,0.008359,-0.000100,0.008360,-0.003077,-89.497566,0.008456,
1530,340,-0.760464,-17.684829,0.999998,0.000180,-0.003224,0.008847,-0.000020,0.008847,-0.003224,-89.906517,0.008955,
600,410,2.441781,-16.044116,0.999995,0.000286,-0.004953,0.009983,-0.000113,0.009984,-0.004954,-89.567534,0.009984,
1170,1530,0.155922,-3.434609,0.999997,0.000196,-0.002741,0.006934,0.000726,0.006988,-0.002796,85.734484,0.007034,
1280,1680,-0.107588,-2.366465,0.999997,0.000193,-0.002161,0.007123,-0.000145,0.007125,-0.002163,-89.102484,0.007306,
1420,1970,-0.082127,-0.415300,0.999998,0.000191,-0.000646,0.006478,0.000542,0.006519,-0.000687,85.677490,0.007164,
730,1470,2.287816,-5.493852,0.999996,0.000236,-0.005413,0.010506,0.000044,0.010506,-0.005413,89.842531,0.010508,
1430,1150,-1.709860,-7.931086,0.999992,0.000348,-0.006793,0.014378,-0.001957,0.014557,-0.006973,-84.762887,0.014561,
1770,1660,-1.937179,-3.655622,0.999998,0.000179,-0.004923,0.010137,-0.000131,0.010138,-0.004924,-89.499897,0.010140,
1770,350,-1.797948,-16.960190,0.999996,0.000229,-0.004783,0.010039,-0.000034,0.010039,-0.004783,-89.870003,0.010043,
1550,1620,-1.008120,-3.383007,0.999998,0.000181,-0.004360,0.009387,-0.000590,0.009412,-0.004386,-87.547219,0.009420,
710,300,1.547116,-17.520296,0.999996,0.000257,-0.004805,0.010056,0.000248,0.010060,-0.004809,89.044139,0.010063,
830,1840,0.759313,-1.553096,0.999996,0.000213,-0.002807,0.008848,-0.001115,0.008954,-0.002912,-84.584042,0.009134,
940,1860,0.421078,-1.253325,0.999997,0.000212,-0.002040,0.007854,-0.000780,0.007915,-0.002102,-85.519705,0.008200,
1380,1940,-0.091794,-0.600945,0.999998,0.000167,-0.000587,0.006567,0.000441,0.006594,-0.000614,86.483067,0.007286,
820,340,1.180433,-17.430984,0.999997,0.000205,-0.004195,0.009570,0.000112,0.009571,-0.004196,89.535027,0.009595,
1890,730,-3.579963,-12.721955,0.999996,0.000265,-0.004842,0.009738,-0.000200,0.009741,-0.004844,-89.216135,0.009741,
580,1580,2.737427,-4.834797,0.999997,0.000222,-0.005274,0.010029,0.000143,0.010031,-0.005276,89.463718,0.010035,
670,1780,1.642486,-2.516209,0.999995,0.000246,-0.004724,0.010093,-0.000458,0.010107,-0.004738,-88.229586,0.010114,
1470,1750,-0.512192,-2.063787,0.999997,0.000202,-0.002583,0.008019,0.000075,0.008020,-0.002584,89.596917,0.008187,
1770,660,-2.731191,-13.769299,0.999996,0.000240,-0.005359,0.010425,-0.000349,0.010433,-0.005366,-88.735305,0.010435,
1600,960,-2.943729,-10.806878,0.999997,0.000236,-0.004298,0.010876,-0.001063,0.010950,-0.004372,-86.012418,0.011024,
1830,480,-2.484258,-15.443224,0.999996,0.000240,-0.005078,0.010178,0.000121,0.010179,-0.005079,89.544674,0.010179,
570,940,4.188503,-10.797922,0.999967,0.000722,-0.003896,0.008363,0.000119,0.008364,-0.003897,89.441721,0.008371,
780,260,1.100428,-18.093843,0.999997,0.000199,-0.004059,0.009450,0.000676,0.009484,-0.004093,87.143309,0.009513,
1100,390,0.313615,-17.595057,0.999997,0.000191,-0.002537,0.007559,-0.000375,0.007573,-0.002551,-87.876203,0.007706,
860,1040,3.056246,-9.945032,0.999996,0.000243,-0.003747,0.010557,-0.000291,0.010563,-0.003753,-88.833056,0.010709,
610,690,3.261659,-13.230740,0.999997,0.000218,-0.005019,0.010056,0.000287,0.010061,-0.005024,88.910351,0.010061,
900,1280,1.902501,-7.068497,0.999993,0.000293,-0.006955,0.012148,-0.000188,0.012150,-0.006957,-89.436101,0.012193,
1850,1130,-3.975688,-9.168797,0.999997,0.000189,-0.004385,0.009045,0.000515,0.009065,-0.004405,87.808111,0.009066,
1370,1480,-0.403138,-4.005560,0.999996,0.000231,-0.003670,0.007732,-0.001768,0.008000,-0.003938,-81.382989,0.008001,
1770,2000,-0.264727,-0.296743,0.999997,0.000221,-0.001311,0.008694,0.003392,0.009736,-0.002353,72.932630,0.010160,
1560,700,-1.606930,-14.001400,0.999994,0.000314,-0.006656,0.011493,0.000604,0.011513,-0.006676,88.097524,0.011562,
1320,330,-0.175093,-18.093634,0.999998,0.000175,-0.002184,0.007208,0.000182,0.007211,-0.002188,88.888579,0.007395,
650,650,2.922503,-13.752957,0.999997,0.000213,-0.005175,0.010257,0.000250,0.010261,-0.005179,89.073411,0.010261,
1330,1530,-0.262506,-3.512542,0.999997,0.000199,-0.002941,0.007223,-0.001023,0.007325,-0.003043,-84.307124,0.007360,
1640,1440,-1.855478,-5.514598,0.999996,0.000221,-0.005785,0.010757,-0.000297,0.010762,-0.005790,-88.972098,0.010773,
1860,1110,-4.061680,-9.362315,0.999998,0.000175,-0.004283,0.008825,0.000321,0.008833,-0.004291,88.599775,0.008835,
1770,400,-1.952070,-16.452698,0.999995,0.000252,-0.004934,0.010137,0.000118,0.010138,-0.004935,89.551196,0.010139,
1330,680,-0.259010,-15.565307,0.999997,0.000213,-0.003586,0.006634,0.002770,0.007336,-0.004289,75.770359,0.007371,
970,200,0.369770,-18.897114,0.999998,0.000203,-0.002091,0.007617,0.000598,0.007654,-0.002127,86.490834,0.007901,
620,1330,3.334255,-7.253280,0.999997,0.000217,-0.004962,0.009937,-0.000430,0.009950,-0.004975,-88.347768,0.009950,
1280,1660,-0.111128,-2.509810,0.999998,0.000191,-0.002246,0.007134,-0.000166,0.007137,-0.002249,-88.985115,0.007297,
1180,320,0.099625,-18.186147,0.999998,0.000155,-0.001876,0.007106,-0.000032,0.007106,-0.001876,-89.793711,0.007365,
1800,170,-1.157570,-18.694806,0.999997,0.000231,-0.004085,0.010285,-0.001800,0.010507,-0.004307,-82.968223,0.010563,
1070,1260,0.715390,-6.081310,0.999992,0.000372,-0.007061,0.010553,0.003791,0.011334,-0.007843,78.354943,0.011609,
730,1490,2.229604,-5.283437,0.999995,0.000267,-0.005375,0.010399,0.000121,0.010399,-0.005375,89.559402,0.010401,
650,340,1.972541,-16.920367,0.999995,0.000283,-0.004959,0.010023,0.000026,0.010023,-0.004959,89.902236,0.010023,
1020,1880,0.247042,-1.041133,0.999998,0.000211,-0.001404,0.007132,-0.000512,0.007163,-0.001434,-86.578092,0.007580,
1350,260,-0.194497,-18.572652,0.999998,0.000178,-0.001795,0.007129,0.000001,0.007129,-0.001795,89.991209,0.007416,
850,80,0.219973,-19.727809,0.999997,0.000200,-0.000948,0.007403,0.001688,0.007731,-0.001276,78.994222,0.008289,
1530,1620,-0.921651,-3.321187,0.999998,0.000214,-0.004174,0.009177,-0.000652,0.009209,-0.004206,-87.210171,0.009220,
1620,1870,-0.614989,-1.272970,0.999997,0.000215,-0.002437,0.008480,0.001230,0.008617,-0.002574,83.653033,0.008847,
1750,660,-2.621804,-13.825327,0.999994,0.000274,-0.005492,0.010496,-0.000350,0.010504,-0.005500,-88.745601,0.010508,
680,1730,1.778837,-2.990811,0.999995,0.000265,-0.004802,0.010013,-0.000055,0.010013,-0.004802,-89.788344,0.010016,
1680,1000,-3.344752,-10.356281,0.999997,0.000218,-0.004162,0.010018,-0.000365,0.010028,-0.004172,-88.525492,0.010075,
1880,730,-3.531576,-12.753037,0.999996,0.000248,-0.004860,0.009756,-0.000222,0.009760,-0.004863,-89.130750,0.009760,
570,1580,2.788258,-4.865860,0.999960,0.000805,-0.005397,0.009940,0.000202,0.009943,-0.005399,89.246180,0.009955,
940,1840,0.471892,-1.412263,0.999996,0.000238,-0.002251,0.007891,-0.000606,0.007928,-0.002287,-86.590277,0.008161,
810,1840,0.815991,-1.579731,0.999996,0.000219,-0.003266,0.008998,-0.001062,0.009089,-0.003357,-85.084772,0.009192,
1380,1920,-0.114110,-0.735855,0.999998,0.000157,-0.000757,0.006632,0.000392,0.006653,-0.000778,86.968250,0.007275,
1710,1040,-3.484001,-9.956379,0.999995,0.000260,-0.004236,0.009887,0.000279,0.009893,-0.004241,88.869817,0.009926,
1900,980,-4.260187,-10.466206,0.999997,0.000000,-0.003969,0.007963,-0.000022,0.007963,-0.003969,-89.895406,0.007963,
1440,1970,-0.096381,-0.419993,0.999998,0.000162,-0.000566,0.006550,0.000634,0.006606,-0.000623,84.946732,0.007295,
1770,790,-3.196250,-12.415669,0.999997,0.000224,-0.005140,0.010224,-0.000897,0.010276,-0.005192,-86.669172,0.010277,
600,150,1.319998,-18.646585,0.999994,0.000293,-0.004904,0.010318,0.000949,0.010377,-0.004963,86.447462,0.010380,
1600,940,-2.887320,-11.022886,0.999996,0.000282,-0.004625,0.011053,-0.001256,0.011153,-0.004725,-85.447469,0.011196,
850,680,1.886334,-14.023088,0.999998,0.000182,-0.006222,0.011199,-0.000152,0.011200,-0.006223,-89.500683,0.011223,
1790,1680,-1.973996,-3.518172,0.999997,0.000195,-0.004896,0.010088,-0.000030,0.010088,-0.004896,-89.884224,0.010090,
690,1200,3.436307,-8.407556,0.999995,0.000269,-0.004884,0.009923,-0.000965,0.009985,-0.004947,-86.288302,0.009985,
570,1380,3.404177,-6.904868,0.999909,0.001167,-0.005271,0.010576,-0.000655,0.010603,-0.005298,-87.636861,0.010603,
1120,1920,0.082569,-0.725382,0.999998,0.000155,-0.000873,0.006490,-0.000234,0.006498,-0.000881,-88.184024,0.007049,
1300,330,-0.136131,-18.105605,0.999998,0.000189,-0.001930,0.007149,0.000044,0.007149,-0.001930,89.724022,0.007397,
1330,1550,-0.261752,-3.368363,0.999997,0.000198,-0.002916,0.007309,-0.000922,0.007391,-0.002999,-84.888727,0.007435,
650,1800,1.650883,-2.376588,0.999995,0.000240,-0.004737,0.010199,-0.000541,0.010218,-0.004756,-87.928617,0.010226,
1850,1150,-3.931951,-8.986057,0.999997,0.000217,-0.004400,0.008981,0.000433,0.008995,-0.004414,88.149914,0.008995,
1810,750,-3.256608,-12.739679,0.999997,0.000216,-0.005048,0.010023,-0.000627,0.010049,-0.005074,-87.620500,0.010049,
900,1260,1.991999,-7.316300,0.999994,0.000298,-0.006914,0.012311,-0.000421,0.012320,-0.006924,-88.746062,0.012352,
730,1930,0.622631,-0.871673,0.999997,0.000226,-0.002698,0.009080,-0.002334,0.009526,-0.003144,-79.188586,0.009707,
690,1530,2.323784,-4.994883,0.999995,0.000264,-0.005187,0.010269,0.000099,0.010269,-0.005188,89.633017,0.010270,
780,240,1.025019,-18.282878,0.999998,0.000171,-0.003923,0.009502,0.000856,0.009556,-0.003978,86.367198,0.009600,
1430,1130,-1.872452,-8.231251,0.999993,0.000325,-0.006591,0.014795,-0.002079,0.014996,-0.006791,-84.499043,0.015018,
1470,1730,-0.540457,-2.225188,0.999997,0.000211,-0.002742,0.008207,-0.000025,0.008207,-0.002742,-89.869579,0.008356,
1000,30,0.017661,-20.092121,0.999998,0.000000,0.000045,0.006330,0.000807,0.006432,-0.000057,82.801297,0.007394,
650,320,1.906996,-17.121459,0.999998,0.000213,-0.004862,0.010046,0.000090,0.010046,-0.004862,89.652795,0.010048,
1560,680,-1.549725,-14.228250,0.999994,0.000303,-0.006448,0.011321,0.000708,0.011349,-0.006476,87.721749,0.011387,
1030,690,0.757817,-14.820861,0.999994,0.000273,-0.005953,0.010040,-0.002609,0.010455,-0.006368,-80.964205,0.010538,
990,410,0.667563,-17.213377,0.999996,0.000249,-0.003652,0.008585,-0.000657,0.008620,-0.003687,-86.935305,0.008650,
680,1710,1.842487,-3.191748,0.999997,0.000212,-0.004827,0.010064,-0.000019,0.010064,-0.004827,-89.926080,0.010067,
1280,1640,-0.112581,-2.653160,0.999998,0.000192,-0.002295,0.007112,-0.000170,0.007115,-0.002298,-88.962734,0.007262,
650,670,2.989483,-13.545006,0.999997,0.000200,-0.005144,0.010226,0.000337,0.010234,-0.005152,88.744653,0.010234,
600,1330,3.432714,-7.308747,0.999996,0.000235,-0.004921,0.009822,-0.000330,0.009829,-0.004928,-88.719052,0.009829,
1870,1980,-0.728937,-0.724084,0.999995,0.000244,-0.004376,0.011800,0.003015,0.012344,-0.004919,79.778754,0.012428,
940,1080,2.673254,-9.446438,0.999996,0.000258,-0.004162,0.012225,-0.000967,0.012282,-0.004219,-86.633483,0.012481,
1620,1850,-0.688789,-1.450103,0.999997,0.000235,-0.002693,0.008763,0.001147,0.008877,-0.002807,84.337313,0.009075,
1800,730,-3.135093,-12.967232,0.999997,0.000203,-0.005159,0.010177,-0.000610,0.010201,-0.005183,-87.724087,0.010201,
1080,280,0.271768,-18.401923,0.999997,0.000224,-0.001907,0.007408,0.000084,0.007409,-0.001907,89.481055,0.007694,
1090,800,0.601413,-14.261411,0.999993,0.000303,-0.006572,0.009583,-0.004313,0.010662,-0.007651,-75.950774,0.010993,
1890,1610,-2.681328,-4.553060,0.999996,0.000270,-0.004952,0.010031,-0.000038,0.010031,-0.004952,-89.854239,0.010031,
910,1580,1.090289,-3.771769,0.999996,0.000249,-0.004548,0.009508,0.000709,0.009544,-0.004583,87.121464,0.009546,
1430,200,-0.261719,-18.947239,0.999998,0.000208,-0.001704,0.007240,-0.000391,0.007258,-0.001721,-87.500940,0.007585,
1380,1900,-0.134501,-0.868691,0.999998,0.000163,-0.000920,0.006768,0.000404,0.006789,-0.000941,86.997436,0.007356,
1680,1420,-2.143680,-5.864406,0.999995,0.000265,-0.005768,0.010777,0.000014,0.010777,-0.005768,89.951808,0.010786,
1800,570,-2.598467,-14.616075,0.999995,0.000248,-0.005190,0.010290,0.000026,0.010290,-0.005190,89.903406,0.010290,
1640,1420,-1.913118,-5.731085,0.999995,0.000255,-0.005884,0.010896,-0.000215,0.010898,-0.005887,-89.266688,0.010910,
1270,1840,-0.051051,-1.240059,0.999998,0.000204,-0.001257,0.006744,0.000012,0.006744,-0.001257,89.916782,0.007173,
980,1390,1.024735,-5.382108,0.999994,0.000279,-0.006122,0.010606,0.001849,0.010808,-0.006324,83.765346,0.010860,
590,660,3.260166,-13.473653,0.999996,0.000257,-0.004940,0.010100,0.000125,0.010101,-0.004941,89.524393,0.010102,
740,630,2.374418,-14.220856,0.999996,0.000238,-0.005555,0.010584,0.000116,0.010585,-0.005556,89.587834,0.010589,
1810,1680,-2.072122,-3.584280,0.999996,0.000214,-0.004945,0.010082,-0.000055,0.010082,-0.004946,-89.791024,0.010083,
1450,260,-0.393445,-18.476977,0.999997,0.000204,-0.002167,0.007694,-0.000215,0.007699,-0.002172,-88.752302,0.007938,
870,80,0.199420,-19.734756,0.999997,0.000192,-0.001101,0.007238,0.001503,0.007501,-0.001363,80.087384,0.007991,
1900,970,-4.250853,-10.547587,0.999998,0.000000,-0.003969,0.007944,0.000073,0.007944,-0.003970,89.649727,0.007944,
1840,1110,-3.975098,-9.341160,0.999995,0.000261,-0.004345,0.009087,0.000447,0.009102,-0.004360,88.095152,0.009104,
1850,1170,-3.888581,-8.807029,0.999996,0.000243,-0.004443,0.009025,0.000420,0.009038,-0.004456,88.214323,0.009038,
1330,1570,-0.258023,-3.218081,0.999997,0.000190,-0.002894,0.007335,-0.000842,0.007404,-0.002963,-85.325592,0.007453,
1690,1040,-3.398945,-9.954997,0.999996,0.000222,-0.004171,0.009985,0.000275,0.009990,-0.004177,88.887319,0.010035,
1810,1900,-1.101460,-1.330702,0.999996,0.000249,-0.004002,0.010351,0.001858,0.010587,-0.004239,82.742756,0.010657,
1600,920,-2.804525,-11.251309,0.999996,0.000264,-0.004934,0.011269,-0.001430,0.011394,-0.005060,-84.993968,0.011418,
990,2020,0.025320,-0.098075,0.999998,0.000000,-0.000086,0.006296,-0.000788,0.006392,-0.000182,-83.067261,0.007278,
1810,1190,-3.646020,-8.557840,0.999996,0.000241,-0.004726,0.009693,0.000834,0.009741,-0.004774,86.700343,0.009742,
780,220,0.945628,-18.475067,0.999997,0.000187,-0.003716,0.009321,0.001032,0.009402,-0.003797,85.500454,0.009460,
1770,770,-3.124791,-12.621562,0.999997,0.000223,-0.005202,0.010253,-0.000809,0.010296,-0.005244,-87.012962,0.010296,
1430,1110,-2.029726,-8.532210,0.999988,0.000402,-0.006570,0.015889,-0.002472,0.016158,-0.006839,-83.792198,0.016222,
1100,1970,0.057212,-0.406495,0.999998,0.000149,-0.000407,0.006340,-0.000371,0.006360,-0.000427,-86.865320,0.007110,
960,450,0.835577,-16.778911,0.999998,0.000170,-0.003943,0.008965,-0.000712,0.009004,-0.003982,-86.851797,0.009024,
690,1510,2.383126,-5.201092,0.999995,0.000251,-0.005241,0.010263,0.000069,0.010264,-0.005241,89.745589,0.010264,
1740,1170,-3.372325,-8.673264,0.999996,0.000262,-0.004863,0.010189,0.001084,0.010267,-0.004941,85.902642,0.010269,
1120,1900,0.101091,-0.855148,0.999998,0.000147,-0.001030,0.006646,-0.000227,0.006653,-0.001037,-88.311047,0.007159,
1560,660,-1.491688,-14.457340,0.999994,0.000317,-0.006279,0.011138,0.000800,0.011175,-0.006316,87.376830,0.011206,
900,1240,2.082891,-7.563522,0.999994,0.000271,-0.006818,0.012446,-0.000689,0.012470,-0.006842,-87.955272,0.012490,
730,1910,0.741236,-1.053916,0.999997,0.000232,-0.003032,0.009243,-0.002037,0.009572,-0.003361,-80.820313,0.009712,
1680,70,-0.244910,-19.781315,0.999997,0.000199,-0.001285,0.007686,-0.002148,0.008173,-0.001773,-77.205222,0.008599,
1520,280,-0.608929,-18.220486,0.999996,0.000232,-0.002940,0.008383,-0.000249,0.008388,-0.002946,-88.741193,0.008511,
1470,1710,-0.571412,-2.392319,0.999996,0.000211,-0.002925,0.008200,-0.000182,0.008203,-0.002928,-89.065568,0.008314,
1030,650,0.715725,-15.211535,0.999995,0.000277,-0.005384,0.009456,-0.002376,0.009827,-0.005755,-81.121399,0.009875,
1350,1500,-0.327308,-3.779770,0.999997,0.000194,-0.003356,0.007433,-0.001487,0.007634,-0.003557,-82.296612,0.007640,
1730,270,-1.326848,-17.890931,0.999996,0.000232,-0.004244,0.009866,-0.000699,0.009900,-0.004278,-87.169848,0.009931,
1230,770,0.001933,-15.546070,0.999996,0.000232,-0.002242,0.002474,-0.000087,0.002476,-0.002243,-88.943085,0.002734,
990,390,0.639443,-17.387639,0.999996,0.000242,-0.003459,0.008540,-0.000489,0.008560,-0.003478,-87.670986,0.008610,
740,1330,2.700955,-6.959199,0.999997,0.000221,-0.005635,0.010680,-0.000664,0.010707,-0.005662,-87.674785,0.010713,
960,1390,1.147951,-5.489004,0.999996,0.000251,-0.006247,0.010852,0.001567,0.010994,-0.006390,84.808086,0.011042,
1850,1980,-0.639332,-0.647850,0.999996,0.000230,-0.004580,0.011144,0.002665,0.011584,-0.005019,80.638796,0.011618,
1090,780,0.537774,-14.449414,0.999993,0.000340,-0.006227,0.009197,-0.004189,0.010261,-0.007291,-75.746134,0.010560,
1890,1850,-1.782236,-2.199075,0.999997,0.000216,-0.004865,0.009716,0.000357,0.009724,-0.004874,88.597715,0.009724,
1280,1620,-0.118100,-2.794334,0.999998,0.000172,-0.002363,0.007090,-0.000222,0.007095,-0.002368,-88.655888,0.007225,
1610,980,-3.037987,-10.582589,0.999996,0.000255,-0.004025,0.010659,-0.000797,0.010702,-0.004069,-86.902595,0.010804,
910,1560,1.123561,-3.962583,0.999997,0.000212,-0.004728,0.009641,0.000774,0.009682,-0.004770,86.925393,0.009682,
1450,200,-0.293742,-18.931953,0.999998,0.000216,-0.001628,0.007380,-0.000504,0.007409,-0.001656,-86.806058,0.007777,
660,1730,1.874293,-3.054659,0.999996,0.000220,-0.004868,0.010033,-0.000066,0.010034,-0.004868,-89.745606,0.010035,
1080,260,0.254210,-18.548689,0.999997,0.000217,-0.001770,0.007298,0.000138,0.007300,-0.001772,89.131130,0.007615,
1380,1880,-0.158016,-1.006459,0.999998,0.000169,-0.001065,0.006799,0.000325,0.006812,-0.001078,87.639155,0.007324,
860,1020,3.062792,-10.160073,0.999996,0.000241,-0.003754,0.010605,0.000181,0.010607,-0.003756,89.278376,0.010756,
1740,730,-2.816919,-13.108483,0.999996,0.000233,-0.005508,0.010542,-0.000715,0.010574,-0.005540,-87.455856,0.010578,
820,360,1.234495,-17.240303,0.999996,0.000226,-0.004365,0.009621,0.000044,0.009621,-0.004366,89.818947,0.009635,
940,1820,0.513630,-1.570927,0.999997,0.000210,-0.002514,0.008150,-0.000534,0.008176,-0.002541,-87.139555,0.008369,
1430,1090,-2.161127,-8.878633,0.999986,0.000435,-0.006941,0.017532,-0.002621,0.017809,-0.007219,-83.955995,0.017915,
910,1680,0.905527,-2.833286,0.999997,0.000216,-0.003788,0.009030,0.000174,0.009032,-0.003790,89.224328,0.009071,
1340,60,-0.025172,-19.913574,0.999998,0.000157,-0.000321,0.006129,-0.000296,0.006142,-0.000334,-87.376108,0.006908,
1850,1610,-2.482961,-4.424962,0.999995,0.000275,-0.005016,0.010096,-0.000119,0.010096,-0.005016,-89.549158,0.010097,
1460,450,-0.667832,-16.902337,0.999996,0.000230,-0.003865,0.008635,0.000929,0.008704,-0.003934,85.771822,0.008717,
1880,1610,-2.631389,-4.521184,0.999996,0.000250,-0.004955,0.010029,-0.000053,0.010029,-0.004956,-89.795513,0.010029,
1810,1170,-3.709357,-8.751811,0.999996,0.000255,-0.004616,0.009512,0.000715,0.009548,-0.004653,87.108470,0.009549,
720,630,2.484114,-14.160611,0.999996,0.000236,-0.005454,0.010491,0.000164,0.010492,-0.005455,89.412043,0.010495,
990,30,0.017088,-20.093636,0.999998,0.000000,-0.000092,0.006369,0.000830,0.006474,-0.000197,82.798231,0.007365,
1810,1880,-1.228672,-1.542692,0.999995,0.000271,-0.004248,0.010329,0.001553,0.010492,-0.004412,83.983873,0.010536,
690,1490,2.441204,-5.409027,0.999995,0.000247,-0.005290,0.010324,0.000017,0.010324,-0.005290,89.939283,0.010325,
590,640,3.191970,-13.674810,0.999996,0.000257,-0.004954,0.010080,0.000096,0.010081,-0.004955,89.634343,0.010081,
1600,160,-0.485076,-19.108955,0.999996,0.000230,-0.002220,0.008118,-0.001268,0.008271,-0.002373,-83.109914,0.008518,
770,1410,2.251955,-6.010609,0.999995,0.000256,-0.005730,0.010728,-0.000130,0.010729,-0.005731,-89.548234,0.010737,
1680,1440,-2.085251,-5.643450,0.999996,0.000242,-0.005673,0.010755,-0.000105,0.010756,-0.005674,-89.634241,0.010761,
650,690,3.058250,-13.343308,0.999997,0.000211,-0.005121,0.010150,0.000422,0.010161,-0.005133,88.419954,0.010162,
1560,640,-1.442293,-14.678143,0.999995,0.000292,-0.006109,0.010931,0.000875,0.010976,-0.006153,87.067844,0.011003,
750,1820,1.116952,-1.888499,0.999998,0.000178,-0.003736,0.009696,-0.001087,0.009784,-0.003823,-85.402343,0.009861,
900,1220,2.186152,-7.816290,0.999995,0.000256,-0.006663,0.012344,-0.000931,0.012389,-0.006709,-87.201999,0.012404,
1720,1170,-3.273236,-8.652556,0.999997,0.000227,-0.004944,0.010338,0.001148,0.010424,-0.005030,85.726908,0.010426,
1430,260,-0.348334,-18.500388,0.999997,0.000245,-0.002217,0.007553,-0.000092,0.007554,-0.002218,-89.463064,0.007766,
1630,100,-0.309831,-19.572467,0.999996,0.000227,-0.001133,0.007686,-0.001750,0.008020,-0.001467,-79.177366,0.008541,
730,1890,0.851633,-1.242744,0.999996,0.000238,-0.003352,0.009494,-0.001803,0.009742,-0.003601,-82.159955,0.009852,
1120,1880,0.115237,-0.990236,0.999998,0.000168,-0.001161,0.006715,-0.000182,0.006719,-0.001165,-88.679509,0.007181,
690,280,1.567662,-17.658024,0.999996,0.000241,-0.004776,0.010051,0.000386,0.010061,-0.004786,88.510629,0.010065,
720,1330,2.813253,-7.005990,0.999997,0.000222,-0.005535,0.010520,-0.000669,0.010548,-0.005563,-87.617192,0.010553,
1470,1690,-0.596320,-2.554293,0.999997,0.000214,-0.003105,0.008358,-0.000326,0.008367,-0.003115,-88.373765,0.008457,
1030,630,0.699251,-15.400029,0.999994,0.000277,-0.005163,0.009192,-0.002256,0.009538,-0.005509,-81.275330,0.009577,
1880,1850,-1.732810,-2.151412,0.999997,0.000227,-0.004852,0.009790,0.000367,0.009799,-0.004861,88.565643,0.009799,
990,370,0.611051,-17.558444,0.999997,0.000211,-0.003232,0.008407,-0.000351,0.008418,-0.003243,-88.272867,0.008491,
1070,800,0.736732,-14.023892,0.999991,0.000361,-0.007128,0.010699,-0.003781,0.011468,-0.007897,-78.505898,0.011737,
1380,1860,-0.177003,-1.142174,0.999998,0.000164,-0.001218,0.006977,0.000335,0.006990,-0.001232,87.663548,0.007463,
1350,1260,-0.442272,-5.575938,0.999994,0.000298,-0.005658,0.007956,-0.004586,0.009357,-0.007059,-73.016854,0.009752,
1280,1600,-0.118837,-2.936433,0.999998,0.000184,-0.002413,0.007014,-0.000293,0.007023,-0.002422,-88.220546,0.007134,
1080,240,0.230739,-18.695788,0.999997,0.000211,-0.001588,0.007222,0.000211,0.007227,-0.001593,88.629737,0.007594,
1450,1360,-0.872037,-5.505925,0.999995,0.000278,-0.006268,0.010509,-0.002412,0.010849,-0.006608,-81.978703,0.010935,
1810,1150,-3.754125,-8.939607,0.999995,0.000276,-0.004518,0.009323,0.000591,0.009348,-0.004543,87.558706,0.009349,
590,1670,2.414982,-3.898571,0.999996,0.000252,-0.005264,0.009970,0.000030,0.009970,-0.005264,89.888261,0.009975,
1780,730,-3.029772,-13.013904,0.999997,0.000245,-0.005247,0.010286,-0.000669,0.010315,-0.005275,-87.537206,0.010316,
1850,1590,-2.542736,-4.628370,0.999995,0.000273,-0.005043,0.010131,-0.000105,0.010131,-0.005043,-89.602934,0.010132,
820,2010,0.101668,-0.180934,0.999998,0.000161,-0.000366,0.007058,-0.001840,0.007489,-0.000797,-76.819061,0.008226,
1330,1990,-0.025839,-0.275749,0.999998,0.000162,-0.000360,0.006157,0.000264,0.006168,-0.000371,87.687943,0.006918,
970,1580,0.826508,-3.578715,0.999996,0.000214,-0.004126,0.009020,0.000889,0.009080,-0.004185,86.148207,0.009089,
940,1780,0.605454,-1.899286,0.999996,0.000235,-0.002868,0.008349,-0.000286,0.008357,-0.002875,-88.539208,0.008491,
1100,1650,0.322434,-2.679136,0.999998,0.000184,-0.002606,0.007495,0.000478,0.007518,-0.002629,87.294496,0.007630,
1800,550,-2.538081,-14.823043,0.999994,0.000299,-0.005174,0.010254,0.000048,0.010254,-0.005174,89.821006,0.010254,
650,1130,3.811309,-9.130185,0.999996,0.000259,-0.004529,0.009356,-0.000655,0.009387,-0.004560,-87.303711,0.009388,
1680,1460,-2.025881,-5.431510,0.999997,0.000206,-0.005587,0.010593,-0.000173,0.010595,-0.005589,-89.388712,0.010601,
1460,470,-0.688795,-16.726508,0.999997,0.000222,-0.004005,0.008742,0.001048,0.008827,-0.004090,85.331059,0.008835,
750,1840,1.035163,-1.696826,0.999996,0.000251,-0.003535,0.009584,-0.001335,0.009719,-0.003670,-84.246457,0.009815,
900,1200,2.285950,-8.058385,0.999995,0.000252,-0.006423,0.012311,-0.001158,0.012383,-0.006494,-86.475514,0.012388,
650,600,2.757725,-14.266661,0.999996,0.000221,-0.005186,0.010253,0.000115,0.010254,-0.005187,89.572540,0.010254,
590,630,3.158123,-13.776891,0.999996,0.000261,-0.004962,0.010157,0.000076,0.010157,-0.004962,89.710528,0.010158,
1430,950,-2.068488,-11.551671,0.999988,0.000448,-0.006720,0.016285,0.002548,0.016564,-0.006999,83.755222,0.016630,
980,2020,0.027451,-0.098855,0.999998,0.000000,-0.000254,0.006346,-0.000791,0.006440,-0.000347,-83.261288,0.007243,
1600,900,-2.725484,-11.476492,0.999996,0.000272,-0.005268,0.011436,-0.001431,0.011558,-0.005390,-85.138521,0.011566,
910,1700,0.861911,-2.653320,0.999997,0.000222,-0.003582,0.008979,0.000028,0.008979,-0.003582,89.872303,0.009040,
670,280,1.662267,-17.592686,0.999997,0.000238,-0.004722,0.010111,0.000389,0.010121,-0.004732,88.500274,0.010128,
730,1870,0.958642,-1.435444,0.999996,0.000210,-0.003609,0.009659,-0.001516,0.009829,-0.003780,-83.564460,0.009916,
1560,620,-1.398272,-14.896524,0.999994,0.000303,-0.005930,0.010648,0.000964,0.010704,-0.005986,86.682920,0.010729,
780,200,0.865023,-18.658497,0.999997,0.000194,-0.003525,0.009310,0.001268,0.009434,-0.003649,84.409555,0.009514,
690,1470,2.503418,-5.616014,0.999996,0.000234,-0.005309,0.010392,-0.000041,0.010392,-0.005309,-89.849470,0.010393,
1640,1400,-1.973185,-5.952684,0.999995,0.000246,-0.005993,0.011000,-0.000107,0.011001,-0.005993,-89.638195,0.011016,
630,1140,3.878835,-9.058081,0.999995,0.000275,-0.004447,0.009155,-0.000541,0.009176,-0.004468,-87.727340,0.009177,
990,350,0.587695,-17.722760,0.999997,0.000200,-0.003010,0.008209,-0.000235,0.008214,-0.003015,-88.799855,0.008311,
1470,1670,-0.622571,-2.723139,0.999996,0.000239,-0.003342,0.008472,-0.000452,0.008489,-0.003359,-87.814352,0.008550,
1380,1840,-0.202373,-1.285538,0.999998,0.000183,-0.001385,0.007067,0.000269,0.007076,-0.001393,88.180463,0.007496,
1660,750,-2.430267,-13.081642,0.999994,0.000313,-0.006061,0.011251,-0.000677,0.011277,-0.006087,-87.764040,0.011289,
1570,1940,-0.274983,-0.669733,0.999997,0.000205,-0.001392,0.007513,0.001292,0.007697,-0.001575,81.910959,0.008132,
1650,1040,-3.237552,-9.951540,0.999996,0.000237,-0.003985,0.010247,0.000242,0.010252,-0.003990,89.025629,0.010335,
1900,960,-4.243501,-10.626993,0.999997,0.000000,-0.004018,0.008024,0.000104,0.008025,-0.004019,89.505741,0.008025,
1770,750,-3.052359,-12.830890,0.999997,0.000230,-0.005256,0.010360,-0.000741,0.010395,-0.005291,-87.289152,0.010395,
1490,1900,-0.267344,-0.922993,0.999997,0.000198,-0.001535,0.007249,0.000775,0.007317,-0.001603,84.999035,0.007693,
1200,1250,0.104293,-4.774787,0.999997,0.000220,-0.003418,0.002426,0.001654,0.002862,-0.003853,75.241936,0.004002,
630,1200,3.723391,-8.497172,0.999994,0.000301,-0.004698,0.009560,-0.000731,0.009597,-0.004735,-87.073907,0.009597,
1760,730,-2.924603,-13.061795,0.999997,0.000247,-0.005357,0.010403,-0.000683,0.010433,-0.005386,-87.523221,0.010435,
1390,260,-0.263838,-18.543606,0.999997,0.000186,-0.001846,0.007298,-0.000120,0.007300,-0.001848,-89.250537,0.007591,
1630,80,-0.232825,-19.723156,0.999997,0.000189,-0.000826,0.007529,-0.001857,0.007923,-0.001221,-78.014975,0.008532,
940,1760,0.651029,-2.074931,0.999997,0.000214,-0.003006,0.008394,-0.000165,0.008396,-0.003008,-89.169681,0.008508,
1120,1860,0.131798,-1.126272,0.999998,0.000167,-0.001346,0.006853,-0.000156,0.006856,-0.001349,-88.908875,0.007264,
1850,1570,-2.599329,-4.832119,0.999995,0.000256,-0.005040,0.010092,-0.000084,0.010092,-0.005041,-89.681188,0.010092,
1330,1970,-0.038485,-0.402330,0.999998,0.000182,-0.000494,0.006240,0.000237,0.006248,-0.000503,87.984913,0.006943,
1810,1130,-3.797383,-9.128098,0.999996,0.000252,-0.004504,0.009363,0.000654,0.009394,-0.004535,87.307419,0.009396,
1720,590,-2.232900,-14.654956,0.999996,0.000216,-0.005473,0.010514,0.000041,0.010515,-0.005474,89.853357,0.010518,
770,1840,0.963250,-1.660027,0.999997,0.000203,-0.003599,0.009365,-0.001179,0.009471,-0.003706,-84.846701,0.009546,
1030,610,0.681188,-15.586940,0.999995,0.000254,-0.004872,0.009130,-0.002041,0.009422,-0.005163,-81.874619,0.009436,
650,580,2.695659,-14.471683,0.999997,0.000228,-0.005146,0.010257,0.000023,0.010257,-0.005146,89.913469,0.010257,
980,330,0.585968,-17.870005,0.999996,0.000223,-0.003042,0.008367,-0.000131,0.008369,-0.003043,-89.344081,0.008472,
1680,1480,-1.969267,-5.218912,0.999996,0.000211,-0.005498,0.010502,-0.000222,0.010505,-0.005501,-89.205862,0.010509,
820,2000,0.139242,-0.251528,0.999998,0.000197,-0.000572,0.007184,-0.001868,0.007611,-0.000998,-77.143104,0.008272,
980,30,0.017239,-20.093169,0.999998,0.000000,-0.000223,0.006377,0.000820,0.006477,-0.000324,83.021412,0.007300,
1600,860,-2.540744,-11.943394,0.999993,0.000322,-0.005908,0.011733,-0.001321,0.011831,-0.006006,-85.741662,0.011831,
1760,1450,-2.496735,-5.786209,0.999995,0.000254,-0.005384,0.010398,0.000089,0.010399,-0.005384,89.676828,0.010401,
1430,1360,-0.747515,-5.369317,0.999994,0.000285,-0.005982,0.010069,-0.002721,0.010518,-0.006430,-80.635919,0.010604,
590,1920,1.262742,-1.405179,0.999996,0.000238,-0.004832,0.010498,-0.001358,0.010617,-0.004951,-84.975994,0.010626,
1790,520,-2.396664,-15.160932,0.999995,0.000250,-0.005160,0.010222,0.000107,0.010223,-0.005160,89.599756,0.010223,
900,1180,2.393811,-8.310920,0.999995,0.000254,-0.006097,0.012236,-0.001320,0.012331,-0.006192,-85.903054,0.012331,
1280,1580,-0.119452,-3.075715,0.999998,0.000183,-0.002498,0.006968,-0.000293,0.006977,-0.002507,-88.230641,0.007069,
1080,220,0.211104,-18.837108,0.999998,0.000173,-0.001434,0.007058,0.000253,0.007066,-0.001442,88.292304,0.007467,
650,300,1.833675,-17.324142,0.999997,0.000227,-0.004798,0.010119,0.000238,0.010123,-0.004802,89.085895,0.010128,
1430,930,-1.911529,-11.851643,0.999992,0.000337,-0.006556,0.014891,0.002145,0.015104,-0.006768,84.342943,0.015131,
730,1850,1.055042,-1.631818,0.999996,0.000239,-0.003813,0.009795,-0.001297,0.009918,-0.003936,-84.605128,0.009988,
1380,1820,-0.220790,-1.426186,0.999997,0.000198,-0.001502,0.007199,0.000228,0.007205,-0.001508,88.498490,0.007600,
1600,1870,-0.563585,-1.250520,0.999996,0.000244,-0.002595,0.008342,0.001069,0.008446,-0.002699,84.467404,0.008627,
1590,660,-1.681997,-14.332928,0.999994,0.000280,-0.006239,0.011152,0.000515,0.011167,-0.006254,88.306453,0.011194,
1330,1950,-0.050335,-0.526777,0.999998,0.000182,-0.000660,0.006368,0.000234,0.006376,-0.000668,88.092508,0.007009,
1850,1550,-2.658898,-5.034362,0.999996,0.000249,-0.005035,0.010143,-0.000063,0.010143,-0.005036,-89.762287,0.010143,
1810,1110,-3.842114,-9.316782,0.999997,0.000231,-0.004459,0.009376,0.000616,0.009403,-0.004487,87.457583,0.009406,
690,1450,2.565317,-5.826048,0.999995,0.000233,-0.005316,0.010363,-0.000098,0.010364,-0.005317,-89.642522,0.010365,
940,1740,0.686098,-2.237844,0.999997,0.000202,-0.003148,0.008562,-0.000042,0.008562,-0.003148,-89.793756,0.008662,
780,160,0.687881,-19.020964,0.999996,0.000224,-0.002993,0.008917,0.001702,0.009155,-0.003231,82.022376,0.009286,
1470,1650,-0.648964,-2.894109,0.999996,0.000247,-0.003570,0.008504,-0.000605,0.008534,-0.003600,-87.138341,0.008568,
580,1670,2.463290,-3.932520,0.999997,0.000226,-0.007170,0.010081,-0.000155,0.010083,-0.007171,-89.485629,0.010378,
1000,330,0.530598,-17.903513,0.999997,0.000191,-0.002702,0.008179,-0.000039,0.008179,-0.002702,-89.794469,0.008334,
1560,600,-1.355418,-15.106473,0.999995,0.000301,-0.005749,0.010443,0.001006,0.010506,-0.005811,86.458961,0.010525,
1300,1650,-0.157852,-2.590913,0.999997,0.000210,-0.002385,0.007222,-0.000253,0.007229,-0.002392,-88.491933,0.007365,
1210,1720,0.044820,-2.070519,0.999998,0.000159,-0.002011,0.007032,0.000153,0.007034,-0.002014,89.028186,0.007246,
1860,730,-3.434616,-12.810853,0.999997,0.000229,-0.004920,0.009805,-0.000331,0.009812,-0.004927,-88.712560,0.009812,
1130,200,0.122682,-19.003350,0.999997,0.000188,-0.001407,0.006822,0.000132,0.006824,-0.001409,89.079385,0.007206,
650,1110,3.857367,-9.319006,0.999997,0.000220,-0.004450,0.009330,-0.000589,0.009355,-0.004476,-87.557034,0.009358,
610,1140,3.966617,-9.081728,0.999998,0.000179,-0.004365,0.008965,-0.000460,0.008981,-0.004381,-88.024637,0.008982,
1640,1380,-2.036650,-6.174215,0.999997,0.000220,-0.006082,0.011077,0.000021,0.011077,-0.006082,89.929466,0.011094,
990,330,0.556829,-17.889871,0.999997,0.000204,-0.002816,0.008270,-0.000071,0.008270,-0.002816,-89.631222,0.008410,
1600,840,-2.445058,-12.182880,0.999993,0.000288,-0.006134,0.011858,-0.001184,0.011936,-0.006212,-86.251297,0.011939,
570,490,2.834049,-15.141548,0.999984,0.000506,-0.005478,0.009935,-0.000259,0.009939,-0.005483,-89.036313,0.009957,
700,1330,2.922548,-7.053521,0.999997,0.000238,-0.005365,0.010394,-0.000666,0.010422,-0.005393,-87.585259,0.010424,
900,1380,1.555424,-5.885692,0.999994,0.000302,-0.006411,0.011260,0.000688,0.011287,-0.006438,87.773202,0.011324,
1100,1390,0.382152,-4.669548,0.999995,0.000260,-0.004269,0.007743,0.002794,0.008361,-0.004887,77.527350,0.008401,
1530,1400,-1.294030,-5.512668,0.999994,0.000283,-0.006215,0.010946,-0.001207,0.011031,-0.006299,-85.997716,0.011068,
1530,720,-1.466733,-13.905815,0.999994,0.000285,-0.006902,0.011698,0.000891,0.011740,-0.006945,87.264714,0.011806,
610,1200,3.817326,-8.534922,0.999996,0.000235,-0.004563,0.009405,-0.000568,0.009428,-0.004586,-87.676930,0.009430,
1900,950,-4.235260,-10.706667,0.999996,0.000000,-0.004067,0.008190,-0.000012,0.008190,-0.004067,-89.942493,0.008190,
1370,260,-0.230154,-18.558810,0.999997,0.000191,-0.001716,0.007201,-0.000097,0.007202,-0.001717,-89.374676,0.007523,
1320,70,-0.025907,-19.853587,0.999999,0.000130,-0.000364,0.006163,-0.000237,0.006171,-0.000373,-87.927001,0.006921,
790,30,0.061793,-20.077114,0.999998,0.000000,-0.000537,0.007097,0.002004,0.007591,-0.001031,76.147275,0.008235,
820,1990,0.178589,-0.324379,0.999997,0.000222,-0.000727,0.007387,-0.001919,0.007818,-0.001158,-77.341265,0.008438,
1770,730,-2.977712,-13.036524,0.999997,0.000236,-0.005290,0.010346,-0.000677,0.010375,-0.005319,-87.525312,0.010376,
920,1970,0.167657,-0.446014,0.999997,0.000198,-0.000677,0.006993,-0.001195,0.007175,-0.000859,-81.342907,0.007836,
1120,1840,0.146915,-1.263600,0.999998,0.000173,-0.001480,0.006896,-0.000088,0.006896,-0.001481,-89.399448,0.007261,
1680,1920,-0.557226,-0.911243,0.999996,0.000239,-0.002561,0.008514,0.001780,0.008793,-0.002840,81.090364,0.008974,
1740,1470,-2.326127,-5.515995,0.999994,0.000272,-0.005392,0.010457,-0.000025,0.010457,-0.005392,-89.909155,0.010459,
1030,590,0.670512,-15.765966,0.999996,0.000255,-0.004598,0.008973,-0.001834,0.009217,-0.004841,-82.437760,0.009221,
1590,640,-1.628141,-14.555687,0.999994,0.000279,-0.006088,0.011004,0.000592,0.011025,-0.006109,88.017760,0.011046,
1280,1560,-0.122433,-3.215252,0.999998,0.000181,-0.002543,0.006965,-0.000350,0.006978,-0.002556,-87.892433,0.007060,
1080,200,0.186570,-18.980387,0.999998,0.000171,-0.001279,0.007015,0.000327,0.007028,-0.001292,87.743119,0.007481,
730,1830,1.150293,-1.828136,0.999995,0.000257,-0.004012,0.009788,-0.001063,0.009869,-0.004094,-85.621490,0.009917,
1380,1800,-0.243158,-1.573520,0.999997,0.000207,-0.001660,0.007263,0.000163,0.007266,-0.001663,88.954365,0.007614,
650,280,1.755956,-17.527898,0.999996,0.000239,-0.004758,0.010120,0.000344,0.010128,-0.004766,88.677742,0.010134,
1450,1800,-0.385982,-1.646488,0.999997,0.000182,-0.002114,0.007666,0.000258,0.007673,-0.002121,88.490791,0.007924,
1430,910,-1.750816,-12.155729,0.999991,0.000336,-0.006697,0.014513,0.001971,0.014695,-0.006878,84.736228,0.014705,
760,1070,3.427896,-9.657321,0.999996,0.000260,-0.004264,0.009928,-0.000426,0.009941,-0.004277,-88.283347,0.009973,
780,140,0.586487,-19.204775,0.999996,0.000219,-0.002662,0.008609,0.001799,0.008889,-0.002942,81.147980,0.009057,
1810,1090,-3.875784,-9.503752,0.999997,0.000217,-0.004387,0.009193,0.000295,0.009200,-0.004394,88.756289,0.009203,
640,750,3.322052,-12.709194,0.999996,0.000230,-0.004994,0.009909,0.000577,0.009931,-0.005017,87.786641,0.009931,
710,1820,1.283942,-1.987581,0.999996,0.000233,-0.004606,0.009950,-0.000758,0.009990,-0.004646,-87.026976,0.009998,
680,1330,3.028034,-7.099628,0.999996,0.000250,-0.005217,0.010286,-0.000640,0.010312,-0.005243,-87.638572,0.010313,
1840,730,-3.335946,-12.864956,0.999998,0.000187,-0.004985,0.009904,-0.000443,0.009917,-0.004998,-88.297805,0.009917,
1850,1530,-2.718445,-5.239338,0.999995,0.000259,-0.005039,0.010178,-0.000060,0.010178,-0.005039,-89.775545,0.010178,
1330,1930,-0.066680,-0.656066,0.999998,0.000160,-0.000784,0.006450,0.000209,0.006456,-0.000790,88.347508,0.007044,
960,630,1.083529,-15.038920,0.999995,0.000269,-0.005771,0.010265,-0.001540,0.010411,-0.005917,-84.562263,0.010444,
1000,1770,0.461537,-1.893692,0.999995,0.000242,-0.002324,0.007948,-0.000190,0.007952,-0.002327,-88.943393,0.008176,
940,1720,0.728586,-2.418274,0.999998,0.000197,-0.003243,0.008817,-0.000005,0.008817,-0.003243,-89.975324,0.008920,
900,1620,1.066078,-3.420161,0.999997,0.000226,-0.004344,0.009474,0.000530,0.009494,-0.004364,87.805990,0.009504,
690,1430,2.627950,-6.033176,0.999995,0.000257,-0.005344,0.010345,-0.000215,0.010348,-0.005347,-89.213383,0.010350,
1470,890,-1.874888,-12.065384,0.999992,0.000325,-0.007143,0.013958,-0.000038,0.013958,-0.007143,-89.896644,0.013960,
970,2020,0.031167,-0.101059,0.999998,0.000000,-0.000376,0.006386,-0.000789,0.006477,-0.000467,-83.436239,0.007224,
730,1810,1.235761,-2.028495,0.999996,0.000241,-0.004154,0.009883,-0.000885,0.009939,-0.004210,-86.406120,0.009978,
1510,720,-1.327054,-14.010218,0.999995,0.000245,-0.006967,0.011622,0.001257,0.011707,-0.007052,86.149406,0.011788,
1220,1650,0.027017,-2.560625,0.999997,0.000191,-0.002308,0.007068,0.000165,0.007071,-0.002311,88.992572,0.007211,
910,1540,1.157222,-4.157059,0.999995,0.000291,-0.004939,0.009800,0.000879,0.009852,-0.004992,86.600765,0.009852,
1090,480,0.383919,-16.889405,0.999997,0.000197,-0.003265,0.007771,-0.001049,0.007870,-0.003364,-84.616168,0.007898,
590,1140,4.052518,-9.111572,0.999998,0.000184,-0.004195,0.008814,-0.000337,0.008823,-0.004204,-88.516327,0.008826,
1180,280,0.087618,-18.467166,0.999998,0.000162,-0.001638,0.007019,0.000025,0.007019,-0.001638,89.832587,0.007344,
1600,820,-2.351752,-12.420815,0.999994,0.000281,-0.006342,0.011902,-0.001007,0.011957,-0.006398,-86.848749,0.011967,
1650,1940,-0.398303,-0.716604,0.999997,0.000245,-0.001746,0.008102,0.001802,0.008421,-0.002066,79.947498,0.008778,
1640,250,-0.899277,-18.280281,0.999997,0.000208,-0.003285,0.009181,-0.000859,0.009239,-0.003344,-86.077914,0.009356,
1380,1780,-0.260089,-1.717463,0.999997,0.000210,-0.001793,0.007351,0.000106,0.007352,-0.001794,89.334090,0.007667,
780,950,3.278818,-10.865373,0.999996,0.000234,-0.004449,0.010229,0.000935,0.010288,-0.004508,86.371014,0.010315,
900,640,1.461554,-14.666144,0.999994,0.000278,-0.006119,0.010932,-0.000867,0.010976,-0.006163,-87.095847,0.011004,
1380,70,-0.045311,-19.848202,0.999998,0.000193,-0.000283,0.006309,-0.000444,0.006339,-0.000313,-86.160430,0.007146,
1730,250,-1.245154,-18.087583,0.999996,0.000224,-0.004106,0.009860,-0.000877,0.009915,-0.004161,-86.421433,0.009957,
1320,1270,-0.269303,-5.168775,0.999995,0.000283,-0.004314,0.005717,-0.004139,0.007205,-0.005801,-70.235132,0.007639,
1330,1500,-0.264881,-3.727447,0.999997,0.000227,-0.003014,0.007149,-0.001183,0.007284,-0.003150,-83.447622,0.007307,
830,220,0.777806,-18.561166,0.999996,0.000243,-0.002847,0.008863,0.001094,0.008965,-0.002948,84.709997,0.009138,
610,670,3.193462,-13.432048,0.999996,0.000229,-0.005049,0.010075,0.000263,0.010080,-0.005054,89.002594,0.010080,
1120,1820,0.163267,-1.403872,0.999998,0.000176,-0.001652,0.007033,-0.000060,0.007033,-0.001653,-89.603971,0.007355,
790,1840,0.887799,-1.620031,0.999997,0.000206,-0.003698,0.009165,-0.001023,0.009246,-0.003779,-85.482011,0.009297,
1810,1070,-3.889032,-9.687611,0.999997,0.000221,-0.004332,0.009146,0.000215,0.009150,-0.004335,89.086517,0.009154,
1080,390,0.363931,-17.568746,0.999996,0.000222,-0.002712,0.007741,-0.000439,0.007760,-0.002731,-87.601294,0.007873,
970,1200,1.804471,-7.759728,0.999994,0.000323,-0.007406,0.013464,-0.000171,0.013465,-0.007407,-89.531158,0.013488,
990,310,0.525019,-18.052364,0.999997,0.000199,-0.002655,0.008082,0.000034,0.008082,-0.002655,89.820088,0.008239,
1230,750,0.004612,-15.599732,0.999997,0.000181,-0.002011,0.002987,-0.000080,0.002988,-0.002013,-89.088848,0.003047,
650,560,2.634198,-14.677493,0.999994,0.000267,-0.005133,0.010231,-0.000028,0.010231,-0.005133,-89.896079,0.010231,
1640,1360,-2.103206,-6.398783,0.999996,0.000269,-0.006163,0.011256,0.000157,0.011257,-0.006165,89.484441,0.011274,
660,370,2.021952,-16.649552,0.999998,0.000180,-0.004961,0.010091,-0.000026,0.010091,-0.004961,-89.900323,0.010092,
840,1890,0.552097,-1.110632,0.999996,0.000226,-0.002155,0.008377,-0.001437,0.008569,-0.002348,-82.369125,0.008856,
1280,1540,-0.122752,-3.353184,0.999998,0.000179,-0.002588,0.006862,-0.000452,0.006883,-0.002610,-87.265019,0.006950,
1170,1720,0.124287,-2.087515,0.999998,0.000147,-0.001980,0.007155,0.000040,0.007155,-0.001981,89.746693,0.007389,
1080,180,0.165161,-19.119015,0.999997,0.000175,-0.001116,0.006869,0.000339,0.006883,-0.001130,87.573994,0.007383,
1390,1340,-0.540556,-5.270337,0.999995,0.000246,-0.005584,0.009038,-0.003368,0.009776,-0.006323,-77.632334,0.009915,
1820,730,-3.235824,-12.915816,0.999998,0.000188,-0.005031,0.010050,-0.000532,0.010069,-0.005049,-87.981133,0.010069,
1900,940,-4.222470,-10.790852,0.999996,0.000000,-0.004141,0.008378,-0.000145,0.008379,-0.004143,-89.338078,0.008380,
1100,790,0.503399,-14.474866,0.999992,0.000344,-0.006093,0.008775,-0.004416,0.009988,-0.007305,-74.643748,0.010339,
1030,570,0.658239,-15.941575,0.999996,0.000254,-0.004410,0.008798,-0.001722,0.009019,-0.004631,-82.693365,0.009020,
1680,1900,-0.650849,-1.089989,0.999996,0.000231,-0.002928,0.008833,0.001698,0.009073,-0.003168,81.947611,0.009210,
1850,1510,-2.778091,-5.443516,0.999995,0.000250,-0.005061,0.010175,-0.000048,0.010175,-0.005061,-89.818736,0.010175,
1330,1910,-0.078502,-0.787841,0.999998,0.000147,-0.000954,0.006547,0.000188,0.006552,-0.000958,88.564630,0.007077,
1560,580,-1.313649,-15.317344,0.999995,0.000290,-0.005522,0.010339,0.000962,0.010397,-0.005580,86.543145,0.010406,
780,120,0.499035,-19.367242,0.999996,0.000235,-0.002221,0.008528,0.002047,0.008904,-0.002598,79.576630,0.009158,
820,800,2.532065,-12.551989,0.999994,0.000313,-0.006054,0.011427,0.000997,0.011484,-0.006110,86.745625,0.011492,
730,1790,1.320552,-2.228824,0.999996,0.000241,-0.004289,0.009932,-0.000722,0.009969,-0.004325,-87.099106,0.009998,
1700,530,-1.955248,-15.345978,0.999995,0.000285,-0.005285,0.010366,0.000276,0.010370,-0.005290,88.991234,0.010371,
660,750,3.221597,-12.755197,0.999996,0.000227,-0.005070,0.010046,0.000666,0.010075,-0.005099,87.483571,0.010076,
590,1910,1.336076,-1.511000,0.999996,0.000230,-0.004931,0.010353,-0.001123,0.010435,-0.005013,-85.821886,0.010438,
1340,1650,-0.260901,-2.643827,0.999998,0.000200,-0.002662,0.007382,-0.000578,0.007415,-0.002695,-86.715914,0.007507,
1090,460,0.373453,-17.045746,0.999997,0.000238,-0.003124,0.007734,-0.000881,0.007805,-0.003195,-85.393297,0.007847,
1570,1480,-1.358415,-4.829611,0.999995,0.000287,-0.005566,0.010353,-0.000880,0.010402,-0.005614,-86.845965,0.010413,
1770,710,-2.905353,-13.245035,0.999997,0.000231,-0.005300,0.010355,-0.000577,0.010376,-0.005321,-87.893150,0.010377,
860,260,0.812565,-18.252659,0.999997,0.000227,-0.003345,0.008835,0.000577,0.008862,-0.003372,87.295008,0.008946,
1570,1040,-2.933478,-9.941026,0.999996,0.000266,-0.003596,0.010945,0.000297,0.010951,-0.003602,88.829962,0.011162,
1600,800,-2.260652,-12.661599,0.999995,0.000261,-0.006477,0.011956,-0.000829,0.011993,-0.006515,-87.430731,0.012008,
1180,260,0.083039,-18.608283,0.999998,0.000178,-0.001500,0.006938,0.000012,0.006938,-0.001501,89.916284,0.007301,
800,950,3.190546,-10.876664,0.999995,0.000272,-0.004401,0.010359,0.000960,0.010421,-0.004463,86.292987,0.010457,
1640,230,-0.831213,-18.465193,0.999997,0.000199,-0.003063,0.009057,-0.000988,0.009137,-0.003143,-85.368206,0.009284,
940,1700,0.767182,-2.594602,0.999997,0.000225,-0.003377,0.008680,0.000147,0.008682,-0.003378,89.301689,0.008753,
900,600,1.373150,-15.094526,0.999995,0.000288,-0.005791,0.010451,-0.000954,0.010507,-0.005847,-86.648662,0.010529,
580,1140,4.096413,-9.124984,0.999998,0.000168,-0.003981,0.008759,-0.000249,0.008764,-0.003986,-88.882979,0.008776,
740,1850,1.021921,-1.615379,0.999997,0.000239,-0.003538,0.009707,-0.001439,0.009861,-0.003693,-83.868977,0.009964,
610,1520,2.763011,-5.350504,0.999996,0.000222,-0.005053,0.010186,0.000053,0.010186,-0.005053,89.801960,0.010187,
1730,230,-1.161155,-18.286804,0.999996,0.000229,-0.003943,0.009804,-0.001045,0.009882,-0.004022,-85.678856,0.009939,
1470,1630,-0.677944,-3.068172,0.999997,0.000230,-0.003770,0.008613,-0.000733,0.008657,-0.003813,-86.624737,0.008677,
1400,70,-0.051960,-19.845820,0.999999,0.000147,-0.000414,0.006357,-0.000499,0.006393,-0.000450,-85.808608,0.007137,
690,1410,2.696930,-6.241522,0.999995,0.000248,-0.005371,0.010411,-0.000311,0.010417,-0.005377,-88.871856,0.010419,
610,650,3.124665,-13.634951,0.999996,0.000244,-0.005049,0.010120,0.000206,0.010123,-0.005051,89.220430,0.010123,
1500,1350,-1.218481,-5.919649,0.999994,0.000295,-0.006756,0.011376,-0.001522,0.011503,-0.006883,-85.234424,0.011577,
980,1480,0.900710,-4.477315,0.999996,0.000235,-0.005018,0.009640,0.001524,0.009797,-0.005175,84.125184,0.009802,
1810,1050,-3.906951,-9.871883,0.999997,0.000220,-0.004328,0.009198,0.000303,0.009205,-0.004334,88.715794,0.009210,
1120,1800,0.179795,-1.546356,0.999998,0.000169,-0.001798,0.007084,0.000015,0.007084,-0.001798,89.904711,0.007365,
1280,400,-0.112065,-17.614887,0.999998,0.000180,-0.002286,0.007168,0.000184,0.007171,-0.002290,88.887050,0.007326,
1080,160,0.142361,-19.256236,0.999998,0.000150,-0.000972,0.006823,0.000406,0.006844,-0.000993,87.028126,0.007396,
1220,1920,0.007293,-0.710886,0.999998,0.000163,-0.000811,0.006376,-0.000005,0.006376,-0.000811,-89.959420,0.006942,
860,1870,0.570309,-1.254194,0.999995,0.000262,-0.002565,0.008324,-0.001098,0.008434,-0.002674,-84.298034,0.008620,
1380,740,-0.510544,-14.744970,0.999996,0.000261,-0.005719,0.008950,0.003749,0.009853,-0.006622,76.462031,0.010045,
1030,550,0.644771,-16.115948,0.999996,0.000230,-0.004310,0.008744,-0.001599,0.008937,-0.004503,-83.118309,0.008937,
1390,1320,-0.563049,-5.456864,0.999994,0.000279,-0.005930,0.009345,-0.003576,0.010141,-0.006726,-77.455135,0.010320,
1330,1890,-0.093473,-0.918534,0.999998,0.000159,-0.001101,0.006615,0.000163,0.006619,-0.001105,88.792005,0.007091,
620,1810,1.750681,-2.386729,0.999996,0.000227,-0.004857,0.010044,-0.000215,0.010047,-0.004860,-89.173111,0.010049,
1750,720,-2.833957,-13.190521,0.999996,0.000232,-0.005455,0.010471,-0.000640,0.010497,-0.005481,-87.700916,0.010500,
1850,1490,-2.837276,-5.649638,0.999996,0.000223,-0.005102,0.010206,-0.000006,0.010206,-0.005102,-89.977908,0.010206,
1580,730,-1.841897,-13.566993,0.999996,0.000247,-0.006683,0.011750,0.000104,0.011750,-0.006683,89.676718,0.011787,
1310,760,-0.199052,-15.216448,0.999997,0.000238,-0.003586,0.005267,0.003604,0.006549,-0.004868,70.425926,0.006802,
990,1200,1.651761,-7.630200,0.999990,0.000391,-0.007682,0.013613,0.000415,0.013621,-0.007690,88.883615,0.013659,
1840,1530,-2.668453,-5.208148,0.999996,0.000266,-0.005066,0.010180,-0.000065,0.010180,-0.005067,-89.756513,0.010180,
780,100,0.388935,-19.547310,0.999996,0.000240,-0.001803,0.008190,0.002113,0.008619,-0.002232,78.538174,0.008946,
860,1000,3.040695,-10.373439,0.999996,0.000232,-0.003852,0.010589,0.000454,0.010604,-0.003866,88.200929,0.010732,
1330,620,-0.261333,-15.976174,0.999995,0.000241,-0.003301,0.006887,0.001896,0.007228,-0.003642,79.792893,0.007228,
1550,1040,-2.862278,-9.940962,0.999997,0.000218,-0.003581,0.011230,0.000328,0.011237,-0.003589,88.733498,0.011479,
820,780,2.446637,-12.781292,0.999994,0.000286,-0.006154,0.011413,0.000850,0.011454,-0.006196,87.236156,0.011467,
1600,780,-2.172883,-12.901864,0.999996,0.000222,-0.006575,0.011828,-0.000624,0.011849,-0.006596,-88.060916,0.011874,
750,1900,0.743484,-1.124616,0.999997,0.000194,-0.002650,0.009164,-0.002056,0.009512,-0.002998,-80.404117,0.009726,
590,1520,2.864137,-5.413749,0.999998,0.000164,-0.005068,0.010177,0.000037,0.010177,-0.005068,89.860113,0.010177,
590,370,2.365593,-16.406608,0.999997,0.000217,-0.005291,0.009834,0.000023,0.009834,-0.005291,89.911218,0.009844,
650,1090,3.888076,-9.504053,0.999998,0.000184,-0.004366,0.009136,-0.000274,0.009142,-0.004372,-88.837334,0.009145,
640,1450,2.826387,-5.974244,0.999994,0.000268,-0.005139,0.010168,-0.000128,0.010169,-0.005140,-89.519266,0.010169,
1430,890,-1.583877,-12.439501,0.999990,0.000352,-0.006971,0.014138,0.001879,0.014304,-0.007137,84.953234,0.014304,
1650,280,-1.034219,-17.983928,0.999997,0.000203,-0.003761,0.009343,-0.000575,0.009369,-0.003786,-87.494146,0.009426,
1120,1780,0.191753,-1.687922,0.999998,0.000177,-0.001953,0.007209,0.000055,0.007210,-0.001954,89.658011,0.007458,
610,630,3.059209,-13.838107,0.999996,0.000238,-0.005018,0.010145,0.000121,0.010146,-0.005019,89.541676,0.010146,
1030,260,0.355805,-18.496676,0.999997,0.000199,-0.002198,0.007562,0.000114,0.007564,-0.002200,89.333695,0.007781,
960,2020,0.035943,-0.102320,0.999999,0.000000,-0.000424,0.006408,-0.000805,0.006502,-0.000517,-83.370858,0.007228,
1470,1590,-0.724288,-3.418836,0.999996,0.000242,-0.003996,0.008788,-0.000971,0.008861,-0.004069,-85.681531,0.008871,
1810,1030,-3.920577,-10.055714,0.999997,0.000214,-0.004322,0.009232,0.000035,0.009232,-0.004322,89.853192,0.009238,
1240,70,-0.002248,-19.855986,0.999998,0.000166,-0.000371,0.006078,-0.000019,0.006078,-0.000371,-89.832386,0.006815,
690,1390,2.763956,-6.451673,0.999995,0.000263,-0.005369,0.010431,-0.000363,0.010439,-0.005377,-88.685956,0.010441,
1030,530,0.630276,-16.292041,0.999997,0.000235,-0.004203,0.008699,-0.001512,0.008874,-0.004377,-83.404145,0.008874,
1230,730,0.002360,-15.662503,0.999998,0.000174,-0.001959,0.003542,-0.000073,0.003543,-0.001960,-89.234904,0.003550,
990,290,0.493647,-18.212240,0.999997,0.000201,-0.002490,0.007990,0.000157,0.007992,-0.002492,89.141292,0.008179,
1880,1360,-3.412619,-7.062570,0.999993,0.000330,-0.004953,0.009983,0.000166,0.009985,-0.004955,89.363360,0.009985,
1180,1910,0.041317,-0.778253,0.999998,0.000144,-0.000727,0.006454,-0.000109,0.006456,-0.000729,-89.129817,0.007071,
900,950,2.756277,-10.950924,0.999994,0.000280,-0.004503,0.011499,0.001307,0.011605,-0.004609,85.362162,0.011687,
1280,1520,-0.121770,-3.489719,0.999998,0.000182,-0.002600,0.006726,-0.000525,0.006756,-0.002629,-86.788034,0.006811,
1380,1760,-0.282833,-1.868677,0.999997,0.000201,-0.001961,0.007412,0.000028,0.007412,-0.001961,89.829833,0.007681,
850,1840,0.703353,-1.526518,0.999996,0.000223,-0.002822,0.008649,-0.000986,0.008733,-0.002907,-85.120870,0.008894,
1230,820,0.009588,-15.435825,0.999996,0.000219,-0.004890,0.002317,-0.000052,0.002318,-0.004890,-89.583697,0.004892,
1490,200,-0.362409,-18.901979,0.999997,0.000193,-0.002006,0.007604,-0.000559,0.007636,-0.002039,-86.684797,0.007908,
1080,140,0.120703,-19.389349,0.999998,0.000131,-0.000792,0.006689,0.000403,0.006711,-0.000814,86.926393,0.007325,
1790,1300,-3.172524,-7.426808,0.999995,0.000255,-0.005150,0.010192,0.000717,0.010225,-0.005184,87.329335,0.010225,
1680,470,-1.697287,-16.028060,0.999996,0.000218,-0.005032,0.010108,0.000323,0.010115,-0.005039,88.777287,0.010115,
1900,930,-4.199248,-10.877537,0.999998,0.000000,-0.004205,0.008459,-0.000258,0.008465,-0.004211,-88.832584,0.008465,
1490,800,-1.477144,-13.145725,0.999993,0.000362,-0.007730,0.012834,0.000860,0.012870,-0.007765,87.608621,0.012961,
1330,1870,-0.104962,-1.051843,0.999998,0.000172,-0.001278,0.006704,0.000145,0.006706,-0.001281,88.962384,0.007121,
1120,770,0.352911,-14.853569,0.999994,0.000302,-0.004999,0.007248,-0.004261,0.008584,-0.006335,-72.583958,0.008903,
1840,1550,-2.609548,-5.002675,0.999996,0.000266,-0.005051,0.010153,-0.000072,0.010154,-0.005052,-89.727371,0.010154,
1850,1470,-2.900804,-5.851494,0.999997,0.000213,-0.005124,0.010168,0.000046,0.010168,-0.005124,89.825908,0.010168,
1640,1340,-2.173882,-6.627238,0.999994,0.000289,-0.006212,0.011314,0.000318,0.011320,-0.006218,88.961863,0.011338,
1440,790,-1.049384,-13.658674,0.999994,0.000291,-0.007602,0.012095,0.002440,0.012393,-0.007900,83.043105,0.012548,
860,960,2.958106,-10.804582,0.999995,0.000257,-0.004266,0.010838,0.001041,0.010909,-0.004337,86.075147,0.010985,
1680,1880,-0.743205,-1.265635,0.999997,0.000213,-0.003204,0.008909,0.001493,0.009090,-0.003385,83.078272,0.009188,
790,500,1.736854,-15.746215,0.999996,0.000216,-0.005139,0.010230,-0.000342,0.010237,-0.005147,-88.725622,0.010237,
1150,1720,0.163383,-2.093317,0.999998,0.000162,-0.002119,0.007208,0.000133,0.007209,-0.002121,89.182593,0.007410,
1600,760,-2.090184,-13.136083,0.999996,0.000217,-0.006600,0.011794,-0.000394,0.011802,-0.006608,-88.774276,0.011830,
780,80,0.302864,-19.699257,0.999997,0.000210,-0.001398,0.007820,0.002132,0.008290,-0.001868,77.589789,0.008697,
1650,300,-1.096858,-17.794069,0.999997,0.000193,-0.003938,0.009437,-0.000395,0.009448,-0.003950,-88.309266,0.009491,
1560,560,-1.276663,-15.521700,0.999995,0.000280,-0.005341,0.010185,0.000929,0.010241,-0.005396,86.588226,0.010246,
1100,550,0.373078,-16.371639,0.999996,0.000234,-0.003542,0.007657,-0.001609,0.007884,-0.003768,-81.985852,0.007886,
980,1070,2.540134,-9.488544,0.999993,0.000332,-0.004526,0.013783,-0.000528,0.013798,-0.004542,-88.348806,0.014064,
850,1200,2.594385,-8.182223,0.999995,0.000299,-0.005831,0.011541,-0.001317,0.011641,-0.005931,-85.690294,0.011641,
1660,1630,-1.485732,-3.613489,0.999995,0.000238,-0.004747,0.009916,-0.000246,0.009920,-0.004751,-89.039847,0.009923,
1770,690,-2.834641,-13.454306,0.999996,0.000248,-0.005332,0.010429,-0.000471,0.010443,-0.005346,-88.290560,0.010444,
1580,70,-0.151689,-19.811106,0.999997,0.000184,-0.000932,0.007097,-0.001403,0.007335,-0.001170,-80.369409,0.007881,
1480,1490,-0.872577,-4.368725,0.999997,0.000217,-0.004943,0.009514,-0.001524,0.009673,-0.005102,-84.047603,0.009678,
1120,1980,0.041243,-0.341180,0.999998,0.000181,-0.000415,0.006270,-0.000309,0.006284,-0.000430,-87.354879,0.007021,
1430,1210,-1.248479,-7.102358,0.999993,0.000309,-0.007749,0.013045,-0.002095,0.013254,-0.007958,-84.304333,0.013343,
1470,1570,-0.744477,-3.597952,0.999996,0.000251,-0.004074,0.008861,-0.001045,0.008945,-0.004157,-85.410213,0.008952,
1810,1010,-3.909076,-10.240806,0.999997,0.000193,-0.004311,0.009238,-0.000286,0.009244,-0.004317,-88.792015,0.009251,
1280,1480,-0.121058,-3.750998,0.999998,0.000165,-0.002621,0.006472,-0.000773,0.006537,-0.002686,-85.175531,0.006572,
690,1370,2.832972,-6.661049,0.999996,0.000238,-0.005333,0.010399,-0.000440,0.010411,-0.005345,-88.399184,0.010412,
610,610,2.995118,-14.042870,0.999997,0.000226,-0.005052,0.010163,0.000079,0.010163,-0.005052,89.703481,0.010163,
1870,1360,-3.362794,-7.031349,0.999995,0.000295,-0.004955,0.010012,0.000202,0.010015,-0.004957,89.225778,0.010015,
990,250,0.422048,-18.532618,0.999997,0.000220,-0.002136,0.007843,0.000374,0.007857,-0.002150,87.855083,0.008121,
1080,120,0.099294,-19.525425,0.999998,0.000166,-0.000627,0.006602,0.000450,0.006629,-0.000655,86.449215,0.007306,
1230,690,0.002800,-15.825295,0.999997,0.000187,-0.002053,0.004468,-0.000075,0.004469,-0.002054,-89.341719,0.004474,
1670,1400,-2.151480,-6.047233,0.999994,0.000279,-0.005885,0.010849,0.000083,0.010850,-0.005886,89.714179,0.010863,
1030,510,0.614599,-16.470469,0.999996,0.000248,-0.004061,0.008583,-0.001347,0.008725,-0.004203,-83.987895,0.008727,
1600,1810,-0.760464,-1.771260,0.999996,0.000238,-0.003255,0.008795,0.000666,0.008831,-0.003291,86.845599,0.008926,
1760,2010,-0.188081,-0.212465,0.999997,0.000227,-0.001241,0.008223,0.003113,0.009155,-0.002174,73.330772,0.009567,
1160,1910,0.055608,-0.781080,0.999998,0.000179,-0.000714,0.006478,-0.000193,0.006483,-0.000719,-88.462573,0.007107,
840,950,3.015913,-10.898150,0.999996,0.000251,-0.004384,0.010684,0.001047,0.010756,-0.004457,86.043356,0.010809,
1380,1720,-0.317402,-2.168876,0.999997,0.000216,-0.002231,0.007566,-0.000144,0.007568,-0.002233,-89.155697,0.007777,
960,30,0.027118,-20.089500,0.999998,0.000000,-0.000351,0.006393,0.000833,0.006495,-0.000452,83.060611,0.007252,
1900,920,-4.179358,-10.961892,0.999997,0.000000,-0.004265,0.008457,-0.000311,0.008464,-0.004272,-88.602191,0.008464,
1330,1850,-0.121294,-1.187634,0.999998,0.000167,-0.001400,0.006820,0.000115,0.006821,-0.001402,89.200840,0.007205,
1100,770,0.460386,-14.644029,0.999995,0.000288,-0.005697,0.008483,-0.004226,0.009647,-0.006861,-74.601366,0.009930,
970,800,1.501579,-13.124484,0.999994,0.000293,-0.007687,0.012821,-0.000793,0.012852,-0.007718,-87.787851,0.012938,
1890,540,-2.964329,-14.644767,0.999996,0.000231,-0.005061,0.010211,0.000002,0.010211,-0.005061,89.990820,0.010211,
860,940,2.901979,-11.020595,0.999996,0.000249,-0.004586,0.011035,0.001253,0.011135,-0.004686,85.441228,0.011181,
1400,430,-0.444918,-17.216123,0.999995,0.000241,-0.003260,0.007990,0.000828,0.008051,-0.003321,85.815206,0.008092,
820,1330,2.231183,-6.749276,0.999998,0.000279,-0.006212,0.011308,-0.000395,0.011317,-0.006221,-88.710632,0.011335,
1360,1590,-0.337915,-3.125017,0.999997,0.000222,-0.002916,0.007587,-0.000788,0.007646,-0.002975,-85.732736,0.007708,
1600,740,-2.013628,-13.374043,0.999996,0.000217,-0.006559,0.011722,-0.000205,0.011724,-0.006562,-89.358527,0.011752,
940,1680,0.799343,-2.764798,0.999997,0.000218,-0.003539,0.008724,0.000284,0.008731,-0.003546,88.673044,0.008782,
770,180,0.807396,-18.830958,0.999997,0.000180,-0.003173,0.009111,0.001531,0.009299,-0.003361,83.000397,0.009418,
780,60,0.197882,-19.860050,0.999998,0.000204,-0.001056,0.007514,0.002142,0.008020,-0.001562,76.719203,0.008504,
1680,1860,-0.832672,-1.447883,0.999997,0.000216,-0.003485,0.009253,0.001298,0.009384,-0.003616,84.240877,0.009465,
1840,270,-1.846915,-17.529558,0.999995,0.000263,-0.004853,0.010042,-0.000166,0.010043,-0.004855,-89.361611,0.010045,
1280,830,-0.246254,-15.204529,0.999994,0.000292,-0.004728,0.003059,0.001448,0.003319,-0.004989,79.801913,0.005079,
1560,1970,-0.176083,-0.448832,0.999998,0.000172,-0.000833,0.007077,0.001263,0.007274,-0.001030,81.142768,0.007873,
850,200,0.649282,-18.762833,0.999997,0.000198,-0.002659,0.008602,0.001120,0.008713,-0.002770,84.374036,0.008903,
1440,830,-1.240661,-13.161669,0.999993,0.000301,-0.007877,0.012880,0.001987,0.013069,-0.008066,84.581052,0.013188,
850,1260,2.321654,-7.477346,0.999994,0.000264,-0.006366,0.011765,-0.000847,0.011805,-0.006406,-87.330529,0.011819,
1520,260,-0.565440,-18.386227,0.999996,0.000240,-0.002731,0.008185,-0.000341,0.008195,-0.002742,-88.212218,0.008343,
1850,1450,-2.962186,-6.056154,0.999996,0.000239,-0.005096,0.010180,0.000089,0.010181,-0.005096,89.666645,0.010181,
1640,1320,-2.248526,-6.853719,0.999994,0.000311,-0.006263,0.011360,0.000483,0.011373,-0.006277,88.430616,0.011393,
1560,540,-1.240727,-15.724107,0.999995,0.000256,-0.005200,0.010053,0.000905,0.010106,-0.005254,86.615286,0.010109,
800,1690,1.342889,-3.027848,0.999994,0.000280,-0.004594,0.009723,0.000077,0.009723,-0.004595,89.693517,0.009728,
870,1200,2.475731,-8.141127,0.999991,0.000334,-0.006026,0.011831,-0.001279,0.011922,-0.006118,-85.923343,0.011924,
1600,1750,-0.927659,-2.305924,0.999998,0.000174,-0.003742,0.009031,0.000204,0.009035,-0.003746,89.084679,0.009078,
1250,1720,-0.038700,-2.069178,0.999998,0.000147,-0.002042,0.007015,-0.000143,0.007017,-0.002044,-89.098022,0.007218,
1680,190,-0.807269,-18.760166,0.999995,0.000268,-0.003410,0.009157,-0.001330,0.009296,-0.003549,-84.025553,0.009382,
1170,460,0.150907,-17.179208,0.999997,0.000190,-0.002570,0.007103,-0.000381,0.007118,-0.002585,-87.745358,0.007206,
1590,980,-2.959736,-10.591453,0.999998,0.000175,-0.004012,0.010886,-0.000870,0.010937,-0.004063,-86.669340,0.011057,
690,1350,2.903599,-6.870330,0.999996,0.000235,-0.005293,0.010337,-0.000566,0.010358,-0.005314,-87.927555,0.010359,
1470,1550,-0.765748,-3.776273,0.999996,0.000250,-0.004202,0.008962,-0.001136,0.009059,-0.004299,-85.104354,0.009063,
610,590,2.932061,-14.248431,0.999997,0.000199,-0.005111,0.010155,0.000060,0.010155,-0.005111,89.775628,0.010155,
1070,1310,0.591321,-5.576227,0.999996,0.000243,-0.006165,0.009648,0.003594,0.010427,-0.006943,77.776753,0.010616,
1810,250,-1.614416,-17.845523,0.999995,0.000248,-0.004694,0.010166,-0.000619,0.010192,-0.004719,-87.618487,0.010201,
1510,1480,-1.034574,-4.588669,0.999996,0.000244,-0.005242,0.009924,-0.001338,0.010041,-0.005359,-84.996794,0.010049,
990,230,0.386504,-18.689115,0.999998,0.000185,-0.001952,0.007677,0.000426,0.007696,-0.001971,87.470472,0.007996,
950,2020,0.039819,-0.103278,0.999998,0.000000,-0.000336,0.006437,-0.000866,0.006546,-0.000445,-82.830915,0.007315,
1340,1910,-0.087273,-0.789878,0.999998,0.000147,-0.000962,0.006584,0.000230,0.006591,-0.000969,88.259614,0.007118,
1230,670,0.003253,-15.916315,0.999997,0.000192,-0.002125,0.004853,-0.000064,0.004854,-0.002126,-89.476223,0.004866,
1760,2000,-0.251446,-0.293454,0.999996,0.000241,-0.001560,0.008539,0.003160,0.009447,-0.002468,73.980171,0.009799,
1280,1460,-0.117550,-3.877534,0.999997,0.000218,-0.002642,0.006282,-0.000886,0.006370,-0.002729,-84.384343,0.006391,
730,560,2.216872,-14.928679,0.999995,0.000241,-0.005352,0.010384,-0.000126,0.010385,-0.005353,-89.540570,0.010387,
710,940,3.572671,-10.929667,0.999996,0.000249,-0.004555,0.009795,0.000817,0.009842,-0.004601,86.753175,0.009849,
1380,1700,-0.330875,-2.319413,0.999997,0.000206,-0.002364,0.007591,-0.000227,0.007596,-0.002369,-88.692386,0.007773,
1560,70,-0.132238,-19.817314,0.999998,0.000162,-0.000612,0.006970,-0.001281,0.007180,-0.000823,-80.662189,0.007859,
1130,290,0.184412,-18.370295,0.999997,0.000199,-0.002046,0.007194,-0.000148,0.007196,-0.002048,-89.081854,0.007416,
1900,910,-4.157030,-11.045062,0.999997,0.000000,-0.004262,0.008411,-0.000243,0.008416,-0.004266,-88.900144,0.008416,
1030,490,0.598376,-16.641756,0.999996,0.000228,-0.003851,0.008480,-0.001167,0.008589,-0.003961,-84.642220,0.008598,
1010,260,0.400056,-18.473187,0.999997,0.000181,-0.002127,0.007723,0.000241,0.007729,-0.002132,88.596804,0.007984,
1280,770,-0.111638,-15.389082,0.999997,0.000207,-0.002825,0.003668,0.002641,0.004607,-0.003764,70.437144,0.004906,
840,1330,2.102706,-6.685683,0.999997,0.000232,-0.006383,0.011469,-0.000263,0.011473,-0.006387,-89.156745,0.011498,
1430,1450,-0.664923,-4.513947,0.999996,0.000245,-0.004734,0.009045,-0.001979,0.009323,-0.005013,-81.987696,0.009332,
1770,670,-2.766461,-13.665214,0.999996,0.000241,-0.005356,0.010453,-0.000375,0.010461,-0.005365,-88.641900,0.010463,
860,920,2.819117,-11.248576,0.999996,0.000254,-0.004909,0.011237,0.001438,0.011364,-0.005036,84.950384,0.011388,
940,1450,1.155547,-4.952325,0.999996,0.000263,-0.005599,0.010243,0.001256,0.010342,-0.005699,85.493443,0.010360,
700,1390,2.709171,-6.423707,0.999995,0.000270,-0.005433,0.010461,-0.000363,0.010469,-0.005441,-88.692542,0.010472,
890,1840,0.583714,-1.467636,0.999996,0.000244,-0.002728,0.008314,-0.000789,0.008370,-0.002784,-85.935501,0.008525,
570,120,1.235238,-18.819638,0.999943,0.000980,-0.004521,0.010984,0.001839,0.011199,-0.004737,83.327380,0.011244,
770,1990,0.230023,-0.343432,0.999997,0.000192,-0.001095,0.007683,-0.002277,0.008238,-0.001650,-76.292261,0.008718,
780,630,2.146334,-14.342049,0.999996,0.000230,-0.005737,0.010752,-0.000022,0.010752,-0.005737,-89.924020,0.010760,
1330,1830,-0.134749,-1.325351,0.999998,0.000174,-0.001562,0.006932,0.000042,0.006932,-0.001562,89.715305,0.007272,
650,1070,3.902426,-9.686450,0.999997,0.000195,-0.004312,0.009131,-0.000219,0.009134,-0.004315,-89.065639,0.009139,
960,870,1.970999,-12.140932,0.999993,0.000326,-0.007030,0.013295,0.000595,0.013312,-0.007048,88.323336,0.013320,
1850,1430,-3.029041,-6.262413,0.999997,0.000222,-0.005055,0.010168,0.000129,0.010169,-0.005056,89.513650,0.010169,
940,1660,0.833468,-2.944827,0.999996,0.000222,-0.003690,0.008814,0.000366,0.008825,-0.003701,88.324377,0.008863,
1880,1910,-1.368272,-1.547427,0.999996,0.000289,-0.004867,0.010389,0.001091,0.010467,-0.004944,85.930580,0.010472,
1100,830,0.672140,-14.120513,0.999995,0.000320,-0.006437,0.009052,-0.004410,0.010220,-0.007604,-75.170130,0.010618,
1510,1560,-0.925454,-3.818126,0.999996,0.000243,-0.004570,0.009365,-0.001024,0.009440,-0.004645,-85.818457,0.009441,
1560,520,-1.202293,-15.927505,0.999996,0.000251,-0.005058,0.009906,0.000877,0.009957,-0.005109,86.656760,0.009959,
1680,1840,-0.914598,-1.634137,0.999997,0.000196,-0.003674,0.009258,0.001074,0.009347,-0.003762,85.284614,0.009406,
1470,1530,-0.782883,-3.953018,0.999996,0.000239,-0.004393,0.009058,-0.001281,0.009179,-0.004514,-84.608461,0.009180,
690,590,2.519409,-14.491259,0.999996,0.000231,-0.005286,0.010382,0.000039,0.010382,-0.005286,89.855632,0.010382,
610,570,2.869065,-14.449166,0.999996,0.000210,-0.005107,0.010194,0.000001,0.010194,-0.005107,89.996756,0.010194,
1130,1260,0.351134,-5.369630,0.999992,0.000351,-0.004957,0.006667,0.004480,0.008194,-0.006483,71.186168,0.008645,
1880,850,-3.923816,-11.611607,0.999998,0.000171,-0.004464,0.009223,-0.000320,0.009230,-0.004472,-88.661540,0.009231,
1560,1950,-0.231182,-0.590707,0.999997,0.000231,-0.001048,0.007307,0.001265,0.007494,-0.001235,81.576061,0.008036,
1520,240,-0.521896,-18.550302,0.999996,0.000240,-0.002558,0.008176,-0.000505,0.008199,-0.002582,-87.312745,0.008385,
1330,540,-0.265427,-16.539693,0.999998,0.000153,-0.002965,0.007210,0.001105,0.007328,-0.003084,83.873640,0.007359,
1010,1520,0.720186,-3.983756,0.999997,0.000209,-0.004307,0.008871,0.001378,0.009014,-0.004449,84.093031,0.009014,
1810,990,-3.891614,-10.426246,0.999997,0.000192,-0.004304,0.009204,-0.000238,0.009209,-0.004309,-88.990097,0.009215,
1080,1910,0.125607,-0.800515,0.999998,0.000144,-0.000814,0.006719,-0.000385,0.006738,-0.000833,-87.081231,0.007347,
1900,900,-4.134410,-11.130762,0.999997,0.000000,-0.004272,0.008391,-0.000163,0.008393,-0.004274,-89.263439,0.008393,
1230,650,0.004143,-16.018213,0.999998,0.000170,-0.002215,0.005246,-0.000058,0.005247,-0.002215,-89.558367,0.005268,
1380,1680,-0.346506,-2.472055,0.999997,0.000201,-0.002527,0.007715,-0.000303,0.007724,-0.002536,-88.307287,0.007875,
580,1210,3.922187,-8.510173,0.999998,0.000167,-0.004458,0.009212,-0.000267,0.009217,-0.004463,-88.881541,0.009218,
690,940,3.662150,-10.917648,0.999996,0.000246,-0.004518,0.009679,0.000762,0.009720,-0.004559,86.936082,0.009726,
1080,100,0.076115,-19.656217,0.999998,0.000173,-0.000470,0.006442,0.000427,0.006468,-0.000497,86.475846,0.007199,
1600,720,-1.937118,-13.608564,0.999997,0.000209,-0.006500,0.011574,-0.000013,0.011574,-0.006500,-89.959906,0.011603,
1400,410,-0.430212,-17.378067,0.999997,0.000208,-0.003133,0.007951,0.000710,0.007997,-0.003178,86.348426,0.008053,
1100,70,0.040326,-19.849530,0.999998,0.000174,-0.000341,0.006272,0.000392,0.006295,-0.000364,86.622686,0.007068,
1030,470,0.582417,-16.812159,0.999997,0.000211,-0.003635,0.008405,-0.000973,0.008483,-0.003714,-85.411100,0.008505,
920,1450,1.266951,-5.034622,0.999997,0.000249,-0.005730,0.010350,0.001080,0.010422,-0.005802,86.175775,0.010444,
1570,140,-0.350702,-19.298927,0.999997,0.000195,-0.001773,0.007696,-0.001177,0.007840,-0.001917,-83.021777,0.008174,
1280,1440,-0.117120,-3.999850,0.999996,0.000237,-0.002650,0.006064,-0.001063,0.006191,-0.002778,-83.144142,0.006202,
860,900,2.741439,-11.472452,0.999997,0.000227,-0.005236,0.011374,0.001433,0.011497,-0.005359,85.105312,0.011506,
1120,1240,0.465988,-5.640386,0.999993,0.000353,-0.005543,0.007280,0.004441,0.008668,-0.006931,72.646807,0.009172,
1770,650,-2.696616,-13.874021,0.999995,0.000259,-0.005358,0.010400,-0.000309,0.010406,-0.005364,-88.877797,0.010407,
1850,100,-0.872164,-19.242064,0.999996,0.000239,-0.004694,0.010669,-0.002035,0.010934,-0.004959,-82.579964,0.010949,
990,210,0.350444,-18.839294,0.999997,0.000184,-0.001797,0.007544,0.000534,0.007574,-0.001827,86.738135,0.007905,
1430,350,-0.460773,-17.800834,0.999996,0.000240,-0.002913,0.007900,0.000358,0.007912,-0.002925,88.107980,0.008001,
870,1840,0.644803,-1.497438,0.999995,0.000246,-0.002949,0.008468,-0.000824,0.008527,-0.003008,-85.891255,0.008649,
570,110,1.158165,-18.930699,0.999974,0.000655,-0.004311,0.011235,0.001949,0.011475,-0.004552,82.961014,0.011557,
1810,1300,-3.274127,-7.469959,0.999996,0.000216,-0.005058,0.009981,0.000657,0.010009,-0.005087,87.503627,0.010010,
1330,730,-0.256995,-15.241268,0.999996,0.000242,-0.003974,0.006502,0.003533,0.007582,-0.005054,73.001986,0.007721,
720,1390,2.599578,-6.367842,0.999995,0.000262,-0.005537,0.010538,-0.000356,0.010546,-0.005544,-88.733449,0.010550,
940,1640,0.863393,-3.119874,0.999996,0.000228,-0.003829,0.008973,0.000486,0.008992,-0.003847,87.831221,0.009023,
770,1970,0.340785,-0.505705,0.999996,0.000210,-0.001452,0.007937,-0.002216,0.008434,-0.001948,-77.367413,0.008831,
1830,660,-3.042874,-13.600407,0.999996,0.000235,-0.005089,0.010172,-0.000276,0.010177,-0.005094,-88.964839,0.010177,
1850,670,-3.177704,-13.440801,0.999997,0.000203,-0.005050,0.010102,-0.000260,0.010106,-0.005054,-89.016719,0.010106,
690,1330,2.975751,-7.077224,0.999997,0.000241,-0.005286,0.010341,-0.000658,0.010369,-0.005314,-87.594993,0.010370,
1100,850,0.802576,-13.935597,0.999993,0.000371,-0.005750,0.008868,-0.004527,0.010156,-0.007039,-74.112916,0.010406,
1470,1510,-0.800530,-4.136747,0.999996,0.000228,-0.004643,0.009198,-0.001434,0.009345,-0.004790,-84.144960,0.009346,
1570,1560,-1.205181,-4.020318,0.999997,0.000218,-0.004897,0.009792,-0.000763,0.009831,-0.004936,-87.033036,0.009831,
1870,1910,-1.319821,-1.497101,0.999993,0.000329,-0.004854,0.010365,0.001067,0.010440,-0.004929,86.008243,0.010445,
1220,1910,0.010238,-0.773749,0.999998,0.000173,-0.000870,0.006434,0.000001,0.006434,-0.000870,89.995433,0.006981,
1330,600,-0.263672,-16.115951,0.999996,0.000228,-0.003186,0.007007,0.001655,0.007269,-0.003448,81.005275,0.007272,
1810,950,-3.852947,-10.795353,0.999997,0.000209,-0.004429,0.009308,-0.000542,0.009329,-0.004450,-87.744115,0.009332,
1230,630,0.001754,-16.123918,0.999998,0.000153,-0.002301,0.005573,-0.000046,0.005574,-0.002301,-89.665050,0.005602,
1080,60,0.038360,-19.910512,0.999998,0.000171,-0.000229,0.006227,0.000422,0.006254,-0.000256,86.279172,0.007079,
1030,1520,0.633514,-3.912121,0.999996,0.000230,-0.004280,0.008672,0.001512,0.008846,-0.004454,83.428082,0.008846,
1280,70,-0.015166,-19.854930,0.999998,0.000162,-0.000235,0.006135,-0.000162,0.006139,-0.000240,-88.542500,0.006955,
1120,1200,0.730216,-5.923672,0.999989,0.000415,-0.004269,0.006354,0.003696,0.007513,-0.005428,72.585226,0.007757,
1280,1420,-0.113448,-4.118675,0.999996,0.000237,-0.002630,0.005832,-0.001233,0.006008,-0.002806,-81.877423,0.006012,
680,870,3.533520,-11.589522,0.999995,0.000257,-0.004848,0.009909,0.000977,0.009973,-0.004912,86.230067,0.009973,
1470,1800,-0.427790,-1.666072,0.999997,0.000212,-0.002168,0.007819,0.000354,0.007831,-0.002180,87.974075,0.008084,
570,100,1.071388,-19.040885,0.999989,0.000415,-0.004349,0.011676,0.002246,0.011985,-0.004658,82.170556,0.012084,
800,1210,2.833861,-8.152851,0.999996,0.000259,-0.005489,0.011054,-0.001285,0.011154,-0.005588,-85.585731,0.011154,
1680,1820,-0.993621,-1.820981,0.999997,0.000185,-0.003889,0.009419,0.000876,0.009476,-0.003946,86.248558,0.009520,
1380,1660,-0.360003,-2.625034,0.999996,0.000232,-0.002691,0.007671,-0.000460,0.007691,-0.002711,-87.462283,0.007802,
730,1770,1.395981,-2.427480,0.999995,0.000249,-0.004391,0.009971,-0.000524,0.009990,-0.004410,-87.912256,0.010013,
1540,210,-0.496335,-18.769242,0.999996,0.000228,-0.002114,0.008010,-0.000802,0.008073,-0.002178,-85.500639,0.008354,
860,880,2.648112,-11.706046,0.999996,0.000249,-0.005531,0.011617,0.001446,0.011738,-0.005652,85.212833,0.011741,
910,1080,2.795741,-9.482416,0.999996,0.000261,-0.004039,0.011502,-0.001030,0.011570,-0.004107,-86.223162,0.011731,
990,190,0.311085,-18.990095,0.999997,0.000194,-0.001577,0.007407,0.000614,0.007449,-0.001619,86.107274,0.007836,
950,30,0.029740,-20.087600,0.999998,0.000000,-0.000207,0.006414,0.000903,0.006535,-0.000328,82.368918,0.007364,
1230,1720,0.002972,-2.062779,0.999998,0.000151,-0.002080,0.006996,0.000035,0.006996,-0.002080,89.780902,0.007185,
1640,510,-1.591429,-15.751954,0.999995,0.000256,-0.005220,0.010260,0.000466,0.010274,-0.005234,88.279104,0.010275,
1160,810,0.262065,-15.045870,0.999994,0.000308,-0.004212,0.004313,-0.003488,0.005558,-0.005457,-70.351698,0.006361,
1330,1420,-0.260847,-4.284392,0.999996,0.000229,-0.003403,0.006820,-0.002143,0.007251,-0.003835,-78.625134,0.007255,
760,470,1.812659,-15.956637,0.999997,0.000217,-0.005054,0.010125,-0.000282,0.010130,-0.005059,-88.934326,0.010130,
1600,700,-1.870085,-13.840200,0.999996,0.000256,-0.006415,0.011425,0.000136,0.011426,-0.006416,89.563445,0.011455,
1260,830,-0.150689,-15.341469,0.999992,0.000332,-0.005303,0.002769,0.000582,0.002811,-0.005345,85.897891,0.005348,
940,1390,1.272936,-5.590137,0.999995,0.000248,-0.006312,0.011017,0.001280,0.011111,-0.006406,85.798350,0.011154,
1230,610,0.002333,-16.240332,0.999998,0.000162,-0.002371,0.005854,-0.000064,0.005854,-0.002371,-89.555660,0.005889,
1030,670,0.736648,-15.017495,0.999995,0.000265,-0.005608,0.009732,-0.002477,0.010122,-0.005999,-81.050019,0.010180,
1400,390,-0.413363,-17.536656,0.999997,0.000214,-0.002994,0.007903,0.000597,0.007936,-0.003026,86.872311,0.008010,
1180,130,0.037960,-19.477475,0.999997,0.000179,-0.000639,0.006394,0.000135,0.006397,-0.000641,88.897535,0.007046,
1900,890,-4.112285,-11.214991,0.999998,0.000000,-0.004289,0.008379,-0.000079,0.008380,-0.004290,-89.643819,0.008381,
700,1970,0.476029,-0.568238,0.999996,0.000218,-0.002673,0.008817,-0.002741,0.009437,-0.003294,-77.244868,0.009580,
920,1650,0.924030,-3.079832,0.999995,0.000245,-0.003998,0.009098,0.000436,0.009112,-0.004013,88.094334,0.009134,
1070,1990,0.043589,-0.280654,0.999998,0.000160,-0.000305,0.006279,-0.000471,0.006312,-0.000339,-85.926942,0.007101,
820,760,2.366982,-13.011025,0.999993,0.000318,-0.006219,0.011405,0.000674,0.011431,-0.006245,87.812078,0.011448,
670,940,3.753151,-10.904917,0.999996,0.000231,-0.004525,0.009517,0.000697,0.009551,-0.004560,87.163564,0.009555,
1110,460,0.317417,-17.084350,0.999998,0.000191,-0.002809,0.007524,-0.000708,0.007572,-0.002857,-86.096583,0.007648,
1180,240,0.075747,-18.747423,0.999998,0.000181,-0.001383,0.006881,0.000073,0.006881,-0.001384,89.494678,0.007280,
1430,310,-0.414546,-18.116600,0.999997,0.000233,-0.002658,0.007769,0.000135,0.007771,-0.002659,89.260154,0.007899,
1150,1780,0.135264,-1.666991,0.999998,0.000179,-0.001728,0.007066,-0.000003,0.007066,-0.001728,-89.983705,0.007367,
1550,1710,-0.833630,-2.557462,0.999997,0.000214,-0.003383,0.009001,0.000043,0.009001,-0.003383,89.799476,0.009093,
1470,1490,-0.822774,-4.325453,0.999997,0.000223,-0.004855,0.009363,-0.001603,0.009542,-0.005033,-83.648004,0.009547,
900,60,0.107082,-19.888582,0.999998,0.000180,-0.000533,0.006877,0.001277,0.007091,-0.000747,80.488865,0.007793,
690,1290,3.121631,-7.493203,0.999997,0.000227,-0.005214,0.010248,-0.000802,0.010290,-0.005256,-87.039750,0.010291,
1680,1800,-1.070460,-2.011460,0.999997,0.000208,-0.004036,0.009441,0.000686,0.009475,-0.004071,87.095252,0.009507,
1520,220,-0.474135,-18.712904,0.999997,0.000215,-0.002330,0.007889,-0.000563,0.007920,-0.002361,-86.855328,0.008132,
1730,210,-1.068922,-18.483643,0.999996,0.000243,-0.003789,0.009785,-0.001281,0.009905,-0.003909,-84.653619,0.009978,
1020,70,0.074054,-19.838041,0.999998,0.000185,-0.000454,0.006496,0.000702,0.006566,-0.000524,84.285261,0.007298,
570,1140,4.137401,-9.143896,0.999983,0.000470,-0.003868,0.008728,-0.000196,0.008731,-0.003871,-89.107663,0.008750,
1890,530,-2.934808,-14.747360,0.999994,0.000275,-0.005049,0.010168,0.000016,0.010168,-0.005049,89.941308,0.010169,
1870,850,-3.879062,-11.637239,0.999997,0.000173,-0.004525,0.009306,-0.000406,0.009318,-0.004537,-88.319575,0.009319,
1830,100,-0.777549,-19.339272,0.999996,0.000248,-0.004238,0.010441,-0.002275,0.010785,-0.004583,-81.388046,0.010826,
1670,660,-2.167220,-14.056205,0.999997,0.000225,-0.005909,0.010886,-0.000111,0.010887,-0.005910,-89.621593,0.010900,
1840,1490,-2.786777,-5.617410,0.999995,0.000251,-0.005111,0.010219,-0.000010,0.010219,-0.005111,-89.963101,0.010219,
1530,1300,-1.587916,-6.676866,0.999994,0.000244,-0.007180,0.012186,-0.000570,0.012203,-0.007197,-88.314133,0.012269,
1120,340,0.236068,-17.994771,0.999997,0.000195,-0.002364,0.007295,-0.000307,0.007305,-0.002374,-88.180946,0.007453,
780,1210,2.942864,-8.184213,0.999997,0.000227,-0.005373,0.010873,-0.001264,0.010970,-0.005471,-85.579063,0.010970,
1380,1640,-0.371192,-2.777798,0.999996,0.000224,-0.002881,0.007690,-0.000637,0.007729,-0.002920,-86.564048,0.007805,
890,880,2.478354,-11.766268,0.999994,0.000314,-0.005860,0.012031,0.001405,0.012141,-0.005969,85.538106,0.012141,
730,1750,1.469311,-2.629496,0.999995,0.000277,-0.004516,0.009935,-0.000358,0.009944,-0.004525,-88.581228,0.009957,
830,340,1.141250,-17.452864,0.999997,0.000195,-0.003978,0.009524,0.000174,0.009526,-0.003981,89.260307,0.009569,
1810,930,-3.808956,-10.986369,0.999996,0.000227,-0.004506,0.009400,-0.000681,0.009433,-0.004539,-87.201731,0.009435,
1770,630,-2.629801,-14.081157,0.999995,0.000243,-0.005339,0.010384,-0.000211,0.010387,-0.005342,-89.232472,0.010388,
990,170,0.274280,-19.136732,0.999997,0.000203,-0.001395,0.007302,0.000669,0.007353,-0.001446,85.630151,0.007791,
1280,1400,-0.111753,-4.233307,0.999997,0.000225,-0.002592,0.005618,-0.001406,0.005852,-0.002826,-80.546407,0.005853,
890,1080,2.875717,-9.499490,0.999996,0.000241,-0.004031,0.011161,-0.000989,0.011226,-0.004095,-86.289979,0.011362,
940,2020,0.043910,-0.103956,0.999999,0.000000,-0.000163,0.006501,-0.000955,0.006636,-0.000297,-81.999722,0.007497,
1460,1670,-0.592967,-2.703183,0.999995,0.000256,-0.003141,0.008378,-0.000399,0.008392,-0.003155,-88.020387,0.008478,
1230,590,0.004784,-16.358643,0.999997,0.000187,-0.002436,0.006097,-0.000048,0.006097,-0.002436,-89.680699,0.006138,
1620,510,-1.485501,-15.821003,0.999994,0.000310,-0.005168,0.010163,0.000541,0.010182,-0.005187,87.981218,0.010182,
1130,1240,0.418342,-5.502600,0.999994,0.000324,-0.005154,0.006481,0.004329,0.007915,-0.006588,71.674442,0.008478,
820,740,2.285495,-13.239807,0.999993,0.000324,-0.006252,0.011369,0.000527,0.011384,-0.006268,88.287138,0.011404,
850,540,1.517810,-15.535039,0.999993,0.000300,-0.005391,0.010321,-0.000584,0.010343,-0.005413,-87.873278,0.010347,
1330,1440,-0.262486,-4.148519,0.999997,0.000216,-0.003277,0.006936,-0.001860,0.007264,-0.003605,-79.990507,0.007264,
960,670,1.157814,-14.615704,0.999995,0.000264,-0.006317,0.010941,-0.001562,0.011081,-0.006457,-84.868351,0.011132,
1600,680,-1.806048,-14.069041,0.999994,0.000293,-0.006325,0.011281,0.000258,0.011285,-0.006329,89.161705,0.011313,
1030,910,1.771560,-12.120351,0.999991,0.000353,-0.006702,0.014601,-0.001712,0.014738,-0.006838,-85.433947,0.014751,
1140,130,0.062519,-19.473812,0.999998,0.000166,-0.000783,0.006458,0.000191,0.006463,-0.000788,88.492665,0.007052,
1420,1700,-0.438450,-2.380364,0.999997,0.000234,-0.003000,0.007938,-0.000405,0.007953,-0.003015,-87.880801,0.008030,
1470,1470,-0.846548,-4.518687,0.999997,0.000232,-0.005041,0.009544,-0.001672,0.009733,-0.005230,-83.544556,0.009742,
1070,1970,0.065002,-0.409386,0.999998,0.000162,-0.000476,0.006411,-0.000472,0.006443,-0.000509,-86.094263,0.007164,
1380,390,-0.355890,-17.574828,0.999997,0.000188,-0.002632,0.007726,0.000402,0.007741,-0.002647,87.783183,0.007869,
860,860,2.559779,-11.939529,0.999994,0.000276,-0.005855,0.011649,0.001310,0.011746,-0.005952,85.741981,0.011747,
1900,510,-2.925249,-14.919410,0.999996,0.000000,-0.004975,0.010020,0.000000,0.010020,-0.004975,-89.999489,0.010020,
1650,1340,-2.234928,-6.656389,0.999995,0.000270,-0.006160,0.011252,0.000382,0.011260,-0.006168,88.743363,0.011278,
1650,380,-1.323554,-17.021996,0.999995,0.000245,-0.004588,0.009753,0.000091,0.009754,-0.004589,89.638175,0.009759,
610,550,2.808624,-14.655786,0.999995,0.000235,-0.005070,0.010215,-0.000029,0.010215,-0.005070,-89.892099,0.010215,
1670,600,-1.985527,-14.709981,0.999998,0.000166,-0.005631,0.010642,0.000177,0.010644,-0.005632,89.375323,0.010650,
1640,560,-1.709898,-15.232720,0.999996,0.000244,-0.005482,0.010455,0.000440,0.010467,-0.005494,88.421217,0.010471,
1080,1650,0.373702,-2.706104,0.999995,0.000242,-0.002849,0.007711,0.000562,0.007741,-0.002879,86.962867,0.007825,
680,1970,0.532169,-0.593226,0.999995,0.000272,-0.002237,0.009396,-0.003346,0.010290,-0.003131,-75.044329,0.010549,
1680,1780,-1.141050,-2.199663,0.999997,0.000212,-0.004215,0.009585,0.000522,0.009605,-0.004235,87.837346,0.009627,
1890,1560,-2.830964,-5.057107,0.999997,0.000217,-0.005003,0.010075,-0.000034,0.010075,-0.005003,-89.872267,0.010075,
1180,220,0.069858,-18.884616,0.999998,0.000176,-0.001227,0.006750,0.000063,0.006750,-0.001228,89.544021,0.007192,
1050,1100,1.966535,-8.468451,0.999984,0.000571,-0.007241,0.017675,0.005357,0.018778,-0.008344,78.366575,0.018816,
570,1480,3.085980,-5.884686,0.999991,0.000321,-0.004877,0.010202,0.000012,0.010202,-0.004877,89.954707,0.010205,
570,1130,4.155030,-9.231679,0.999982,0.000525,-0.003935,0.008587,-0.000267,0.008593,-0.003940,-88.778514,0.008603,
890,1990,0.128451,-0.309352,0.999997,0.000177,-0.000781,0.006999,-0.001329,0.007219,-0.001001,-80.568854,0.007822,
1500,70,-0.101594,-19.828912,0.999997,0.000171,-0.000678,0.006677,-0.000904,0.006786,-0.000788,-83.094193,0.007423,
690,1270,3.194253,-7.697512,0.999997,0.000217,-0.005139,0.010187,-0.000866,0.010236,-0.005188,-86.776855,0.010236,
1720,1380,-2.506959,-6.411416,0.999996,0.000290,-0.005651,0.010689,0.000388,0.010698,-0.005660,88.641935,0.010704,
1860,850,-3.833061,-11.658963,0.999996,0.000212,-0.004590,0.009383,-0.000496,0.009401,-0.004607,-87.968432,0.009402,
1520,200,-0.431165,-18.866247,0.999997,0.000196,-0.002121,0.007834,-0.000721,0.007886,-0.002173,-85.879133,0.008147,
1190,460,0.102303,-17.192241,0.999997,0.000221,-0.002446,0.006983,-0.000279,0.006991,-0.002454,-88.308920,0.007094,
1380,1620,-0.381829,-2.932805,0.999996,0.000247,-0.003077,0.007769,-0.000784,0.007825,-0.003133,-85.887448,0.007877,
1850,260,-1.851381,-17.590817,0.999997,0.000244,-0.004845,0.010013,-0.000174,0.010015,-0.004847,-89.328797,0.010017,
1120,320,0.222290,-18.141807,0.999998,0.000179,-0.002255,0.007333,-0.000207,0.007337,-0.002260,-88.764235,0.007515,
830,320,1.090423,-17.643863,0.999997,0.000206,-0.003786,0.009386,0.000246,0.009390,-0.003790,88.930893,0.009448,
660,810,3.435775,-12.150863,0.999995,0.000266,-0.004907,0.009911,0.000824,0.009957,-0.004953,86.825292,0.009957,
730,990,3.560634,-10.447426,0.999996,0.000242,-0.004296,0.009692,0.000330,0.009699,-0.004304,88.647672,0.009720,
940,30,0.030415,-20.086408,0.999998,0.000000,-0.000033,0.006438,0.001010,0.006592,-0.000187,81.330725,0.007506,
780,1330,2.471673,-6.858515,0.999996,0.000258,-0.005903,0.011034,-0.000588,0.011055,-0.005923,-88.013803,0.011064,
620,1710,2.135615,-3.392715,0.999997,0.000224,-0.004816,0.009984,0.000078,0.009984,-0.004816,89.697804,0.009986,
1850,360,-2.219933,-16.590753,0.999996,0.000229,-0.004890,0.009976,0.000105,0.009976,-0.004891,89.596713,0.009977,
1800,1430,-2.771065,-6.112268,0.999997,0.000229,-0.005214,0.010263,0.000186,0.010266,-0.005216,89.310145,0.010266,
1280,1380,-0.107851,-4.346088,0.999997,0.000204,-0.002574,0.005298,-0.001616,0.005617,-0.002893,-78.836858,0.005617,
850,560,1.564944,-15.325676,0.999995,0.000258,-0.005485,0.010432,-0.000572,0.010452,-0.005505,-87.943538,0.010457,
820,720,2.211064,-13.467012,0.999994,0.000309,-0.006206,0.011310,0.000351,0.011317,-0.006213,88.852402,0.011335,
1650,600,-1.871947,-14.773865,0.999995,0.000264,-0.005668,0.010684,0.000260,0.010688,-0.005672,89.087918,0.010695,
990,150,0.232833,-19.282650,0.999997,0.000187,-0.001177,0.007185,0.000722,0.007247,-0.001239,85.098013,0.007753,
1070,1950,0.087210,-0.538567,0.999998,0.000163,-0.000623,0.006527,-0.000472,0.006558,-0.000654,-86.241564,0.007225,
1420,1680,-0.461956,-2.547324,0.999997,0.000235,-0.003066,0.008116,-0.000457,0.008134,-0.003085,-87.661219,0.008213,
1810,910,-3.764740,-11.172877,0.999996,0.000216,-0.004529,0.009326,-0.000598,0.009352,-0.004555,-87.531870,0.009353,
950,1080,2.632439,-9.426423,0.999996,0.000255,-0.004239,0.012517,-0.000949,0.012571,-0.004293,-86.769596,0.012779,
1680,410,-1.541621,-16.635699,0.999995,0.000263,-0.004736,0.009951,0.000157,0.009952,-0.004738,89.386784,0.009956,
1230,570,0.003385,-16.483534,0.999997,0.000194,-0.002483,0.006305,-0.000033,0.006305,-0.002483,-89.783670,0.006352,
860,840,2.464682,-12.175013,0.999993,0.000300,-0.006101,0.011822,0.001207,0.011903,-0.006182,86.163577,0.011906,
1900,880,-4.091126,-11.298200,0.999998,0.000000,-0.004317,0.008402,-0.000051,0.008402,-0.004317,-89.769395,0.008403,
1760,1370,-2.763265,-6.625867,0.999997,0.000228,-0.005382,0.010503,0.000453,0.010516,-0.005395,88.367830,0.010517,
1770,610,-2.564358,-14.291123,0.999996,0.000223,-0.005311,0.010425,-0.000092,0.010426,-0.005311,-89.664048,0.010426,
1470,1450,-0.868870,-4.709576,0.999997,0.000236,-0.005218,0.009715,-0.001737,0.009914,-0.005417,-83.450962,0.009928,
1110,1260,0.461810,-5.610128,0.999993,0.000325,-0.005775,0.008126,0.004579,0.009499,-0.007148,73.311707,0.009894,
890,1970,0.185688,-0.452136,0.999998,0.000176,-0.001060,0.007133,-0.001307,0.007336,-0.001263,-81.153799,0.007844,
1220,390,0.025570,-17.706581,0.999998,0.000180,-0.002276,0.007072,-0.000157,0.007074,-0.002278,-89.035841,0.007222,
690,1250,3.265284,-7.902085,0.999996,0.000249,-0.005118,0.010226,-0.000942,0.010283,-0.005176,-86.500833,0.010283,
1730,980,-3.538593,-10.545562,0.999996,0.000208,-0.004335,0.009749,-0.000377,0.009759,-0.004346,-88.466925,0.009778,
1520,180,-0.378407,-19.025237,0.999997,0.000205,-0.001882,0.007627,-0.000776,0.007690,-0.001945,-85.365367,0.007996,
1480,70,-0.087277,-19.835161,0.999998,0.000155,-0.000488,0.006615,-0.000820,0.006708,-0.000581,-83.496625,0.007433,
770,1140,3.240105,-8.942742,0.999996,0.000272,-0.004714,0.010314,-0.001085,0.010392,-0.004792,-85.891070,0.010402,
1130,260,0.163316,-18.585700,0.999997,0.000200,-0.001828,0.007083,-0.000052,0.007083,-0.001828,-89.664352,0.007355,
1850,1410,-3.094041,-6.466094,0.999997,0.000214,-0.005072,0.010123,0.000176,0.010125,-0.005074,89.338143,0.010125,
1600,850,-2.493499,-12.062657,0.999993,0.000301,-0.006024,0.011812,-0.001251,0.011900,-0.006111,-86.005901,0.011901,
1730,190,-0.972176,-18.682867,0.999996,0.000233,-0.003557,0.009664,-0.001516,0.009835,-0.003729,-83.543400,0.009931,
580,1640,2.556009,-4.228339,0.999996,0.000260,-0.007227,0.009842,0.000771,0.009877,-0.007261,87.419054,0.010235,
1040,1650,0.499378,-2.793410,0.999996,0.000219,-0.003150,0.008082,0.000611,0.008115,-0.003183,86.892880,0.008177,
1600,880,-2.631515,-11.710791,0.999994,0.000320,-0.005580,0.011652,-0.001449,0.011773,-0.005701,-85.226504,0.011775,
720,2010,0.163926,-0.205689,0.999997,0.000230,-0.001060,0.008073,-0.002919,0.008927,-0.001913,-73.707012,0.009400,
1120,130,0.080065,-19.467028,0.999998,0.000151,-0.000836,0.006514,0.000246,0.006522,-0.000844,88.083450,0.007094,
1020,1860,0.274145,-1.185326,0.999998,0.000214,-0.001624,0.007321,-0.000468,0.007346,-0.001648,-87.011842,0.007709,
1460,550,-0.761177,-16.015341,0.999996,0.000241,-0.004540,0.009114,0.001468,0.009270,-0.004696,83.931960,0.009270,
1680,1760,-1.209177,-2.396920,0.999997,0.000212,-0.004335,0.009626,0.000366,0.009636,-0.004345,88.501150,0.009651,
1380,1600,-0.393776,-3.091271,0.999996,0.000244,-0.003221,0.007823,-0.000926,0.007900,-0.003298,-85.240235,0.007936,
1850,240,-1.761740,-17.792023,0.999997,0.000187,-0.004861,0.009958,-0.000217,0.009961,-0.004865,-89.160049,0.009962,
1050,1090,2.025554,-8.648019,0.999977,0.000653,-0.007697,0.019165,0.005359,0.020194,-0.008726,79.124356,0.020256,
1120,300,0.210321,-18.289509,0.999997,0.000195,-0.002089,0.007253,-0.000164,0.007256,-0.002092,-88.993642,0.007469,
930,2020,0.043859,-0.104222,0.999998,0.000000,-0.000036,0.006569,-0.001048,0.006731,-0.000198,-81.200368,0.007661,
1330,1340,-0.257536,-4.824356,0.999997,0.000192,-0.003810,0.006542,-0.003300,0.007505,-0.004773,-73.738297,0.007597,
580,350,2.347645,-16.571526,0.999997,0.000184,-0.005366,0.009964,0.000313,0.009970,-0.005373,88.831446,0.009980,
1680,390,-1.489089,-16.835084,0.999994,0.000284,-0.004658,0.009862,0.000110,0.009863,-0.004659,89.565764,0.009868,
690,640,2.678568,-13.970730,0.999996,0.000262,-0.005346,0.010333,0.000276,0.010338,-0.005351,88.993545,0.010340,
1660,690,-2.208133,-13.757048,0.999996,0.000221,-0.006046,0.011065,-0.000219,0.011068,-0.006049,-89.268167,0.011084,
1590,1300,-2.002832,-6.928203,0.999996,0.000216,-0.006657,0.011842,0.000254,0.011846,-0.006661,89.213475,0.011876,
990,130,0.197341,-19.425838,0.999997,0.000193,-0.001008,0.007011,0.000754,0.007081,-0.001078,84.678019,0.007631,
1820,1490,-2.685726,-5.554906,0.999996,0.000234,-0.005105,0.010244,-0.000011,0.010244,-0.005105,-89.960119,0.010244,
1180,200,0.061214,-19.018411,0.999998,0.000172,-0.001116,0.006692,0.000103,0.006694,-0.001117,89.243280,0.007172,
600,1720,2.197336,-3.366354,0.999998,0.000203,-0.004867,0.009898,0.000139,0.009899,-0.004869,89.461508,0.009900,
1640,1300,-2.327312,-7.082677,0.999993,0.000307,-0.006275,0.011417,0.000636,0.011440,-0.006298,87.943138,0.011459,
820,700,2.140772,-13.695779,0.999996,0.000264,-0.006183,0.011259,0.000197,0.011261,-0.006185,89.351508,0.011280,
1880,540,-2.913758,-14.676551,0.999998,0.000162,-0.005058,0.010192,0.000003,0.010192,-0.005058,89.987206,0.010192,
1420,1660,-0.481321,-2.706343,0.999996,0.000268,-0.003150,0.008037,-0.000598,0.008069,-0.003181,-86.950246,0.008129,
620,1690,2.203049,-3.593853,0.999996,0.000226,-0.004897,0.010029,0.000055,0.010029,-0.004897,89.789149,0.010030,
1810,890,-3.720499,-11.360434,0.999996,0.000232,-0.004610,0.009447,-0.000653,0.009478,-0.004641,-87.344213,0.009478,
1230,550,0.003148,-16.608987,0.999998,0.000174,-0.002520,0.006480,-0.000033,0.006480,-0.002520,-89.791719,0.006533,
1520,160,-0.332820,-19.175433,0.999997,0.000189,-0.001702,0.007555,-0.000882,0.007638,-0.001785,-84.602644,0.007991,
1880,1560,-2.781408,-5.026544,0.999997,0.000219,-0.005019,0.010077,-0.000047,0.010077,-0.005019,-89.820439,0.010077,
1680,1740,-1.271546,-2.586991,0.999996,0.000249,-0.004417,0.009688,0.000209,0.009691,-0.004420,89.152407,0.009704,
1460,70,-0.078945,-19.838318,0.999998,0.000135,-0.000368,0.006550,-0.000771,0.006634,-0.000453,-83.716664,0.007413,
1750,980,-3.624177,-10.540653,0.999996,0.000216,-0.004388,0.009591,-0.000325,0.009599,-0.004396,-88.667238,0.009610,
1070,1930,0.112300,-0.670847,0.999998,0.000149,-0.000786,0.006621,-0.000439,0.006646,-0.000812,-86.623437,0.007251,
1900,860,-4.042708,-11.469486,0.999997,0.000000,-0.004378,0.008849,-0.000169,0.008851,-0.004381,-89.269694,0.008851,
1760,1780,-1.485693,-2.411165,0.999997,0.000252,-0.004741,0.010058,0.000405,0.010069,-0.004752,88.435058,0.010075,
940,1620,0.890962,-3.299515,0.999996,0.000228,-0.004048,0.009111,0.000625,0.009140,-0.004077,87.287816,0.009158,
1030,1840,0.290056,-1.325150,0.999998,0.000212,-0.001832,0.007326,-0.000329,0.007338,-0.001844,-87.944276,0.007635,
930,1080,2.714402,-9.460156,0.999996,0.000237,-0.004129,0.011940,-0.000995,0.012002,-0.004190,-86.469524,0.012182,
570,1640,2.643785,-4.280853,0.999919,0.001378,-0.008292,0.009696,0.001331,0.009794,-0.008390,85.789558,0.010592,
890,320,0.863138,-17.778068,0.999997,0.000201,-0.003711,0.008991,0.000053,0.008991,-0.003712,89.761179,0.009036,
1730,150,-0.761348,-19.064514,0.999996,0.000245,-0.002978,0.009312,-0.002015,0.009634,-0.003300,-80.923111,0.009792,
1850,1370,-3.229834,-6.870675,0.999996,0.000218,-0.005051,0.010073,0.000303,0.010079,-0.005057,88.853411,0.010079,
890,1950,0.246002,-0.597327,0.999998,0.000189,-0.001330,0.007392,-0.001289,0.007579,-0.001517,-81.764542,0.008020,
750,1140,3.332900,-8.956691,0.999996,0.000245,-0.004708,0.010095,-0.000997,0.010162,-0.004774,-86.163097,0.010168,
1380,1580,-0.405345,-3.249742,0.999997,0.000228,-0.003358,0.007897,-0.001090,0.008002,-0.003463,-84.519977,0.008026,
1200,390,0.072625,-17.695195,0.999998,0.000182,-0.002284,0.007103,-0.000205,0.007107,-0.002288,-88.747046,0.007256,
1740,1370,-2.655142,-6.573207,0.999996,0.000258,-0.005542,0.010617,0.000440,0.010629,-0.005554,88.440998,0.010632,
730,1730,1.536182,-2.828894,0.999995,0.000246,-0.004647,0.009935,-0.000181,0.009938,-0.004649,-89.290802,0.009944,
830,300,1.036622,-17.828477,0.999998,0.000197,-0.003605,0.009273,0.000432,0.009287,-0.003620,88.079126,0.009362,
860,820,2.370274,-12.413040,0.999994,0.000300,-0.006324,0.011874,0.001070,0.011937,-0.006387,86.645808,0.011946,
690,1230,3.339643,-8.109465,0.999995,0.000273,-0.005038,0.010082,-0.000961,0.010143,-0.005099,-86.377090,0.010143,
1470,1430,-0.887836,-4.902942,0.999995,0.000252,-0.005452,0.009819,-0.001828,0.010035,-0.005668,-83.267529,0.010063,
1280,1360,-0.105000,-4.450225,0.999998,0.000175,-0.002537,0.004974,-0.001833,0.005397,-0.002960,-76.991720,0.005406,
700,810,3.232656,-12.223559,0.999995,0.000252,-0.005201,0.010265,0.000996,0.010329,-0.005265,86.328800,0.010330,
690,620,2.612785,-14.178273,0.999994,0.000297,-0.005328,0.010363,0.000145,0.010365,-0.005330,89.470252,0.010366,
630,160,1.236789,-18.690642,0.999995,0.000277,-0.004756,0.010405,0.001050,0.010477,-0.004829,86.055355,0.010488,
930,30,0.030083,-20.087087,0.999998,0.000000,0.000065,0.006478,0.001119,0.006668,-0.000125,80.378616,0.007628,
1570,1300,-1.869762,-6.853391,0.999994,0.000257,-0.006847,0.012005,0.000027,0.012005,-0.006847,89.919017,0.012044,
1370,800,-0.579094,-14.298880,0.999992,0.000331,-0.006426,0.009365,0.004344,0.010482,-0.007542,75.589401,0.010813,
1120,280,0.198319,-18.434314,0.999997,0.000203,-0.001956,0.007220,-0.000070,0.007221,-0.001957,-89.564670,0.007469,
820,390,1.319239,-16.943498,0.999994,0.000301,-0.004554,0.009723,-0.000145,0.009725,-0.004556,-89.417262,0.009731,
1180,180,0.055745,-19.152119,0.999998,0.000163,-0.000944,0.006605,0.000080,0.006606,-0.000945,89.392034,0.007145,
1070,1150,1.471002,-7.335539,0.999989,0.000362,-0.005258,0.011957,0.005493,0.013560,-0.006862,73.726469,0.013561,
820,680,2.070875,-13.920977,0.999996,0.000251,-0.006118,0.011081,0.000073,0.011081,-0.006118,89.757325,0.011101,
1420,1640,-0.497959,-2.868488,0.999996,0.000253,-0.003209,0.008069,-0.000672,0.008108,-0.003249,-86.601402,0.008162,
990,110,0.157256,-19.565277,0.999998,0.000207,-0.000779,0.006898,0.000802,0.006981,-0.000862,84.095796,0.007612,
1810,870,-3.661658,-11.554478,0.999996,0.000249,-0.004709,0.009698,-0.000835,0.009746,-0.004757,-86.695658,0.009747,
1900,850,-4.011931,-11.560664,0.999997,0.000000,-0.004419,0.009067,-0.000225,0.009070,-0.004422,-89.046289,0.009071,
1230,530,0.004072,-16.740969,0.999998,0.000181,-0.002534,0.006643,-0.000042,0.006643,-0.002535,-89.738323,0.006705,
1520,140,-0.277191,-19.329123,0.999997,0.000209,-0.001471,0.007339,-0.000910,0.007432,-0.001564,-84.162255,0.007837,
1440,70,-0.071312,-19.839195,0.999998,0.000151,-0.000433,0.006482,-0.000671,0.006547,-0.000498,-84.506010,0.007289,
1810,940,-3.830799,-10.891445,0.999996,0.000226,-0.004476,0.009392,-0.000659,0.009423,-0.004507,-87.284439,0.009426,
970,1460,0.975683,-4.714286,0.999996,0.000242,-0.005294,0.009901,0.001533,0.010054,-0.005447,84.294872,0.010066,
580,340,2.314637,-16.669144,0.999996,0.000211,-0.004889,0.009907,0.000041,0.009907,-0.004889,89.841656,0.009907,
1070,1910,0.133212,-0.803713,0.999998,0.000174,-0.000923,0.006757,-0.000403,0.006778,-0.000944,-87.004446,0.007343,
1050,1520,0.550179,-3.833968,0.999994,0.000284,-0.003942,0.008350,0.001487,0.008527,-0.004120,83.198461,0.008529,
1870,540,-2.863577,-14.706905,0.999997,0.000182,-0.005056,0.010183,0.000009,0.010183,-0.005056,89.966642,0.010183,
1680,980,-3.326834,-10.557999,0.999996,0.000239,-0.004282,0.010102,-0.000520,0.010121,-0.004301,-87.933601,0.010159,
1730,130,-0.648138,-19.245034,0.999996,0.000253,-0.002657,0.009057,-0.002290,0.009489,-0.003089,-79.321837,0.009679,
1010,1000,2.442290,-10.537588,0.999985,0.000460,-0.005658,0.016712,-0.000347,0.016717,-0.005664,-89.111845,0.017005,
890,1930,0.309892,-0.748129,0.999997,0.000195,-0.001585,0.007583,-0.001248,0.007750,-0.001752,-82.387313,0.008129,
730,1690,1.665381,-3.231602,0.999996,0.000253,-0.004872,0.010030,-0.000018,0.010030,-0.004872,-89.929095,0.010031,
1770,590,-2.503529,-14.500792,0.999995,0.000240,-0.005288,0.010371,-0.000041,0.010371,-0.005288,-89.849340,0.010371,
1380,1560,-0.415280,-3.410950,0.999996,0.000225,-0.003463,0.007911,-0.001246,0.008046,-0.003598,-83.823175,0.008061,
1530,200,-0.448986,-18.859544,0.999997,0.000183,-0.002049,0.007911,-0.000812,0.007977,-0.002114,-85.371712,0.008265,
1060,1710,0.380287,-2.271887,0.999996,0.000218,-0.002683,0.007725,0.000319,0.007735,-0.002693,88.247756,0.007853,
1470,1410,-0.914753,-5.102652,0.999995,0.000260,-0.005741,0.010046,-0.001949,0.010283,-0.005978,-83.063665,0.010329,
920,2020,0.041848,-0.103537,0.999998,0.000000,0.000034,0.006622,-0.001129,0.006810,-0.000154,-80.542417,0.007776,
690,1210,3.403738,-8.308272,0.999995,0.000259,-0.004925,0.009914,-0.000945,0.009974,-0.004985,-86.370603,0.009974,
1800,1050,-3.862694,-9.869544,0.999997,0.000220,-0.004350,0.009278,0.000302,0.009285,-0.004356,88.732793,0.009290,
1040,390,0.485134,-17.486680,0.999997,0.000243,-0.003097,0.008090,-0.000552,0.008117,-0.003124,-87.183650,0.008189,
1210,1400,0.047801,-4.190882,0.999998,0.000160,-0.002282,0.005235,0.000639,0.005288,-0.002336,85.173981,0.005300,
1120,260,0.182119,-18.577617,0.999998,0.000190,-0.001800,0.007122,-0.000022,0.007122,-0.001800,-89.860787,0.007407,
860,800,2.279109,-12.651712,0.999995,0.000289,-0.006461,0.011887,0.000859,0.011927,-0.006501,87.325215,0.011943,
670,620,2.717445,-14.119115,0.999996,0.000271,-0.005251,0.010283,0.000181,0.010285,-0.005253,89.333256,0.010286,
1830,500,-2.543762,-15.237936,0.999995,0.000271,-0.005098,0.010186,0.000107,0.010187,-0.005099,89.597711,0.010187,
1900,840,-3.982092,-11.653872,0.999996,0.000000,-0.004447,0.009147,-0.000240,0.009151,-0.004452,-88.988965,0.009152,
1810,850,-3.598365,-11.749385,0.999995,0.000257,-0.004764,0.009662,-0.000804,0.009707,-0.004809,-86.818225,0.009707,
1200,1230,0.148252,-4.820808,0.999997,0.000215,-0.004728,0.002667,0.000973,0.002793,-0.004854,82.632383,0.004873,
1350,800,-0.457993,-14.544825,0.999993,0.000359,-0.005698,0.007953,0.004542,0.009326,-0.007071,73.180441,0.009731,
680,810,3.336213,-12.187635,0.999995,0.000280,-0.005047,0.010099,0.000902,0.010153,-0.005101,86.603803,0.010153,
1420,1620,-0.515267,-3.031094,0.999997,0.000219,-0.003282,0.008109,-0.000746,0.008157,-0.003331,-86.268387,0.008203,
820,660,2.006074,-14.141701,0.999996,0.000236,-0.006038,0.011036,-0.000065,0.011037,-0.006038,-89.782818,0.011053,
1750,280,-1.457813,-17.730029,0.999996,0.000219,-0.004709,0.010010,-0.000399,0.010021,-0.004720,-88.448323,0.010026,
580,260,2.009569,-17.454659,0.999997,0.000185,-0.004722,0.009742,0.000064,0.009742,-0.004722,89.744576,0.009744,
1280,1340,-0.102543,-4.548859,0.999997,0.000205,-0.002530,0.004627,-0.002028,0.005161,-0.003064,-75.231480,0.005192,
670,1000,3.827050,-10.339274,0.999997,0.000210,-0.004334,0.009357,0.000305,0.009363,-0.004340,88.725404,0.009372,
1180,160,0.048341,-19.284070,0.999998,0.000157,-0.000835,0.006545,0.000136,0.006547,-0.000837,88.945294,0.007126,
1420,1430,-0.631633,-4.646935,0.999996,0.000226,-0.004815,0.008895,-0.002199,0.009239,-0.005159,-81.107508,0.009260,
1230,510,0.004116,-16.875502,0.999998,0.000180,-0.002539,0.006723,-0.000043,0.006723,-0.002540,-89.731574,0.006790,
1540,70,-0.122925,-19.821539,0.999998,0.000161,-0.000475,0.006867,-0.001180,0.007052,-0.000660,-81.092570,0.007790,
1680,1720,-1.332650,-2.786595,0.999997,0.000228,-0.004450,0.009836,0.000149,0.009838,-0.004451,89.404448,0.009852,
1520,120,-0.236910,-19.470731,0.999997,0.000193,-0.001230,0.007254,-0.001018,0.007375,-0.001351,-83.252717,0.007853,
990,90,0.121330,-19.701177,0.999998,0.000191,-0.000580,0.006724,0.000804,0.006811,-0.000667,83.788020,0.007510,
1070,1890,0.158443,-0.942026,0.999998,0.000198,-0.001077,0.006856,-0.000401,0.006876,-0.001098,-87.112221,0.007388,
1070,1140,1.563755,-7.455535,0.999989,0.000370,-0.004981,0.012661,0.006264,0.014659,-0.006979,72.309884,0.014664,
930,1460,1.194481,-4.891224,0.999996,0.000242,-0.005573,0.010250,0.001164,0.010336,-0.005658,85.816038,0.010351,
890,1910,0.371558,-0.901833,0.999997,0.000213,-0.001870,0.007766,-0.001161,0.007904,-0.002008,-83.223814,0.008216,
1730,110,-0.524019,-19.428571,0.999996,0.000249,-0.002235,0.008807,-0.002436,0.009321,-0.002749,-78.094716,0.009579,
900,730,1.727070,-13.633909,0.999994,0.000289,-0.006852,0.011841,-0.000331,0.011847,-0.006857,-88.985859,0.011896,
1070,910,1.516644,-12.767168,0.999987,0.000404,-0.004917,0.012191,-0.005868,0.014010,-0.006736,-72.776215,0.014014,
1770,550,-2.382398,-14.915873,0.999995,0.000253,-0.005246,0.010298,0.000076,0.010298,-0.005246,89.720688,0.010299,
1380,1540,-0.424119,-3.570937,0.999997,0.000213,-0.003556,0.007891,-0.001375,0.008053,-0.003718,-83.244902,0.008061,
1270,1340,-0.079262,-4.507542,0.999996,0.000257,-0.002329,0.004370,-0.001648,0.004753,-0.002712,-76.901103,0.004769,
1020,410,0.566794,-17.282189,0.999997,0.000253,-0.003182,0.008219,-0.000555,0.008246,-0.003209,-87.221142,0.008313,
820,1650,1.356700,-3.366192,0.999996,0.000245,-0.004630,0.009839,0.000229,0.009843,-0.004634,89.093083,0.009848,
1470,1610,-0.700695,-3.244976,0.999996,0.000234,-0.003889,0.008726,-0.000864,0.008785,-0.003948,-86.101374,0.008800,
1780,1050,-3.775837,-9.865873,0.999996,0.000223,-0.004336,0.009453,0.000315,0.009461,-0.004343,88.693510,0.009471,
630,520,2.618184,-15.024239,0.999996,0.000289,-0.005074,0.010168,-0.000069,0.010168,-0.005074,-89.739253,0.010168,
690,1190,3.468030,-8.507125,0.999996,0.000259,-0.004873,0.009952,-0.000990,0.010017,-0.004938,-86.197613,0.010018,
1900,830,-3.952172,-11.745558,0.999996,0.000000,-0.004466,0.009139,-0.000226,0.009143,-0.004470,-89.047347,0.009143,
1120,240,0.166423,-18.721065,0.999998,0.000179,-0.001674,0.007063,0.000056,0.007063,-0.001674,89.629716,0.007382,
730,1670,1.725009,-3.435194,0.999997,0.000241,-0.004867,0.010123,0.000068,0.010123,-0.004867,89.739334,0.010126,
1510,200,-0.407651,-18.878788,0.999997,0.000201,-0.002194,0.007754,-0.000620,0.007792,-0.002232,-86.444716,0.008025,
860,780,2.193918,-12.889357,0.999994,0.000285,-0.006536,0.011831,0.000653,0.011854,-0.006559,87.965429,0.011877,
920,30,0.027869,-20.086897,0.999999,0.000000,0.000082,0.006534,0.001217,0.006756,-0.000140,79.663679,0.007722,
1810,500,-2.441059,-15.302607,0.999995,0.000258,-0.005110,0.010219,0.000143,0.010220,-0.005111,89.465334,0.010220,
1410,820,-0.951957,-13.598722,0.999995,0.000286,-0.007702,0.011918,0.003095,0.012395,-0.008179,81.243793,0.012604,
820,640,1.946414,-14.363924,0.999996,0.000232,-0.005913,0.010941,-0.000165,0.010942,-0.005914,-89.439227,0.010954,
1660,850,-2.836354,-11.956174,0.999994,0.000311,-0.005506,0.011043,-0.001290,0.011143,-0.005606,-85.571216,0.011143,
1810,830,-3.535905,-11.943409,0.999995,0.000251,-0.004820,0.009632,-0.000765,0.009672,-0.004860,-86.978619,0.009672,
1040,1330,0.750182,-5.627389,0.999996,0.000254,-0.006386,0.010354,0.002964,0.010864,-0.006895,80.250168,0.010994,
1420,1600,-0.528955,-3.194311,0.999997,0.000219,-0.003352,0.008150,-0.000850,0.008212,-0.003414,-85.797755,0.008251,
1680,1680,-1.450408,-3.177672,0.999995,0.000254,-0.004582,0.009766,-0.000053,0.009766,-0.004582,-89.787709,0.009773,
1280,1320,-0.102832,-4.636791,0.999998,0.000188,-0.002551,0.004220,-0.002279,0.004916,-0.003246,-73.028145,0.004999,
1730,280,-1.365275,-17.789232,0.999996,0.000214,-0.004322,0.009912,-0.000595,0.009936,-0.004346,-87.610810,0.009962,
690,500,2.251561,-15.422392,0.999997,0.000238,-0.005147,0.010270,-0.000152,0.010271,-0.005149,-89.434732,0.010271,
1870,660,-3.245534,-13.482754,0.999996,0.000253,-0.005034,0.010087,-0.000167,0.010089,-0.005036,-89.367343,0.010089,
1180,140,0.039262,-19.413556,0.999998,0.000155,-0.000678,0.006410,0.000128,0.006413,-0.000680,88.966667,0.007045,
1400,1430,-0.539327,-4.547244,0.999995,0.000265,-0.004583,0.008487,-0.002342,0.008894,-0.004990,-80.144007,0.008916,
1870,1560,-2.730468,-4.995341,0.999996,0.000254,-0.005041,0.010077,-0.000054,0.010078,-0.005041,-89.793779,0.010078,
610,530,2.749022,-14.861215,0.999995,0.000253,-0.005045,0.010170,-0.000032,0.010170,-0.005045,-89.880285,0.010170,
1640,1260,-2.492031,-7.544377,0.999994,0.000299,-0.006124,0.011459,0.000961,0.011512,-0.006176,86.881982,0.011522,
1630,140,-0.467635,-19.253004,0.999997,0.000237,-0.001760,0.008123,-0.001609,0.008379,-0.002016,-80.982632,0.008747,
1070,1870,0.182638,-1.077815,0.999998,0.000191,-0.001240,0.006940,-0.000346,0.006955,-0.001255,-87.579701,0.007414,
1230,710,0.003208,-15.740869,0.999997,0.000187,-0.001989,0.004055,-0.000082,0.004057,-0.001990,-89.225420,0.004057,
1510,1310,-1.405704,-6.445545,0.999994,0.000275,-0.007203,0.011991,-0.001041,0.012047,-0.007259,-86.904302,0.012131,
1470,1850,-0.335491,-1.280314,0.999998,0.000183,-0.001709,0.007520,0.000590,0.007558,-0.001747,86.354604,0.007914,
1450,940,-2.113888,-11.499544,0.999987,0.000406,-0.006085,0.014994,0.000619,0.015012,-0.006103,88.318487,0.015099,
1380,1740,-0.296906,-2.015569,0.999997,0.000211,-0.002080,0.007470,-0.000062,0.007471,-0.002080,-89.625919,0.007711,
990,70,0.082245,-19.835795,0.999998,0.000170,-0.000361,0.006589,0.000838,0.006689,-0.000461,83.218130,0.007472,
1150,700,0.196060,-15.535460,0.999996,0.000229,-0.003249,0.005921,-0.002754,0.006684,-0.004013,-74.506746,0.006729,
1030,1820,0.318904,-1.473485,0.999996,0.000255,-0.002036,0.007536,-0.000255,0.007543,-0.002043,-88.472354,0.007803,
940,1600,0.924256,-3.484272,0.999997,0.000232,-0.004272,0.009237,0.000784,0.009282,-0.004318,86.688709,0.009290,
650,1050,3.919211,-9.873148,0.999997,0.000217,-0.004335,0.009192,-0.000302,0.009199,-0.004342,-88.721936,0.009204,
890,1890,0.432263,-1.058221,0.999997,0.000235,-0.002120,0.007883,-0.001074,0.007997,-0.002234,-83.940772,0.008252,
1020,390,0.546832,-17.445932,0.999996,0.000256,-0.003072,0.008219,-0.000433,0.008236,-0.003089,-87.808154,0.008321,
1200,1910,0.026016,-0.774955,0.999998,0.000164,-0.000807,0.006433,-0.000060,0.006434,-0.000807,-89.523761,0.007009,
1850,1350,-3.299042,-7.071866,0.999995,0.000256,-0.005010,0.010013,0.000334,0.010020,-0.005018,88.726313,0.010020,
690,1170,3.533373,-8.707401,0.999996,0.000234,-0.004771,0.009898,-0.000929,0.009956,-0.004830,-86.390499,0.009958,
1070,1130,1.649111,-7.584009,0.999985,0.000428,-0.004911,0.013804,0.006954,0.016105,-0.007212,71.690665,0.016134,
610,100,0.886587,-19.226456,0.999997,0.000203,-0.004684,0.010701,0.002054,0.010970,-0.004953,82.525659,0.010987,
1700,470,-1.797875,-15.966821,0.999996,0.000205,-0.005065,0.010133,0.000269,0.010138,-0.005069,88.986327,0.010138,
910,1460,1.305251,-4.971444,0.999993,0.000320,-0.005683,0.010368,0.001032,0.010435,-0.005749,86.334772,0.010453,
1390,820,-0.798658,-13.839981,0.999995,0.000269,-0.007167,0.010997,0.003756,0.011743,-0.007913,78.766689,0.011978,
1770,530,-2.322789,-15.122172,0.999995,0.000265,-0.005209,0.010252,0.000094,0.010252,-0.005210,89.652866,0.010253,
1120,220,0.151151,-18.861390,0.999998,0.000183,-0.001516,0.006890,0.000079,0.006891,-0.001517,89.463116,0.007242,
1540,1970,-0.165348,-0.444074,0.999997,0.000193,-0.000670,0.006991,0.001163,0.007163,-0.000843,81.553041,0.007831,
1900,820,-3.920793,-11.835924,0.999996,0.000000,-0.004502,0.009101,-0.000203,0.009104,-0.004505,-89.143614,0.009104,
1800,510,-2.419810,-15.232365,0.999996,0.000236,-0.005144,0.010218,0.000126,0.010219,-0.005146,89.530746,0.010219,
1280,1300,-0.105436,-4.717880,0.999998,0.000186,-0.002642,0.003915,-0.002493,0.004755,-0.003482,-71.378128,0.004923,
730,1650,1.784923,-3.640412,0.999996,0.000248,-0.004896,0.010136,0.000135,0.010137,-0.004897,89.483656,0.010139,
1590,360,-1.023586,-17.366495,0.999996,0.000219,-0.004099,0.009248,0.000157,0.009249,-0.004101,89.327012,0.009269,
1420,1580,-0.542706,-3.355960,0.999996,0.000249,-0.003474,0.008256,-0.000977,0.008336,-0.003555,-85.272060,0.008366,
820,620,1.885627,-14.581596,0.999997,0.000213,-0.005794,0.010764,-0.000254,0.010768,-0.005798,-89.123054,0.010779,
690,1080,3.721018,-9.579485,0.999997,0.000215,-0.004372,0.009440,-0.000309,0.009447,-0.004379,-88.718628,0.009455,
1680,1660,-1.501686,-3.374992,0.999996,0.000230,-0.004651,0.009876,-0.000100,0.009877,-0.004651,-89.606838,0.009883,
1230,1350,0.002324,-4.400772,0.999997,0.000197,-0.001985,0.004162,0.000088,0.004164,-0.001987,89.178792,0.004165,
1330,1810,-0.148290,-1.465259,0.999998,0.000174,-0.001701,0.007027,-0.000018,0.007027,-0.001701,-89.881420,0.007332,
1750,60,-0.269885,-19.829267,0.999994,0.000289,-0.001718,0.008441,-0.002968,0.009244,-0.002521,-74.851971,0.009557,
1600,1120,-2.869898,-9.078750,0.999997,0.000239,-0.004652,0.011120,0.001356,0.011236,-0.004767,85.121203,0.011279,
770,1950,0.430480,-0.664380,0.999996,0.000216,-0.001856,0.008409,-0.002239,0.008876,-0.002323,-78.216671,0.009206,
1520,70,-0.113720,-19.824249,0.999998,0.000150,-0.000630,0.006768,-0.001044,0.006912,-0.000774,-82.121309,0.007574,
1810,810,-3.470297,-12.137144,0.999995,0.000259,-0.004891,0.009841,-0.000774,0.009882,-0.004932,-86.999669,0.009882,
1400,1410,-0.547803,-4.716515,0.999995,0.000259,-0.004766,0.008673,-0.002504,0.009124,-0.005217,-79.782049,0.009155,
1770,880,-3.500896,-11.506510,0.999995,0.000264,-0.004829,0.009971,-0.001000,0.010039,-0.004896,-86.153991,0.010040,
1070,1850,0.204963,-1.220012,0.999998,0.000186,-0.001420,0.007089,-0.000302,0.007100,-0.001431,-87.968469,0.007510,
1580,1230,-2.247168,-7.743748,0.999991,0.000363,-0.006530,0.012135,0.000937,0.012182,-0.006577,87.131922,0.012195,
1750,1660,-1.838859,-3.592056,0.999997,0.000253,-0.004926,0.010138,-0.000119,0.010139,-0.004927,-89.547839,0.010141,
1460,530,-0.745593,-16.195501,0.999996,0.000211,-0.004300,0.008959,0.001318,0.009089,-0.004430,84.376427,0.009089,
1150,460,0.205239,-17.153781,0.999997,0.000236,-0.002762,0.007265,-0.000677,0.007310,-0.002807,-86.153407,0.007375,
1860,1790,-1.920907,-2.661207,0.999997,0.000199,-0.004867,0.009953,0.000126,0.009954,-0.004868,89.511726,0.009955,
860,980,3.012074,-10.583920,0.999996,0.000261,-0.004024,0.010747,0.000810,0.010791,-0.004068,86.871656,0.010899,
1560,500,-1.166172,-16.125217,0.999997,0.000239,-0.004828,0.009732,0.000785,0.009774,-0.004870,86.920821,0.009774,
900,510,1.198210,-16.015790,0.999997,0.000217,-0.004997,0.009854,-0.000824,0.009900,-0.005042,-86.834410,0.009900,
940,1800,0.565140,-1.739128,0.999996,0.000233,-0.002691,0.008189,-0.000408,0.008204,-0.002706,-87.854377,0.008361,
990,270,0.457722,-18.373402,0.999996,0.000222,-0.002288,0.007943,0.000270,0.007950,-0.002295,88.491140,0.008183,
1020,1820,0.336727,-1.482168,0.999996,0.000244,-0.001987,0.007595,-0.000313,0.007606,-0.001998,-88.129774,0.007886,
970,30,0.021820,-20.092062,0.999998,0.000000,-0.000347,0.006384,0.000806,0.006480,-0.000443,83.265155,0.007240,
1810,1840,-1.449593,-1.956548,0.999996,0.000263,-0.004540,0.010228,0.000973,0.010292,-0.004604,86.248143,0.010311,
1170,1780,0.102340,-1.659496,0.999998,0.000162,-0.001599,0.007043,-0.000045,0.007043,-0.001600,-89.699982,0.007385,
610,490,2.630092,-15.266281,0.999995,0.000258,-0.005034,0.010117,-0.000064,0.010117,-0.005035,-89.756471,0.010117,
1020,1650,0.562147,-2.836584,0.999995,0.000266,-0.003142,0.008197,0.000523,0.008221,-0.003166,87.366675,0.008293,
1400,450,-0.459186,-17.055609,0.999997,0.000219,-0.003358,0.008009,0.000917,0.008083,-0.003431,85.419839,0.008113,
1280,1590,-0.119380,-3.005710,0.999997,0.000191,-0.002457,0.006988,-0.000298,0.006998,-0.002466,-88.196153,0.007098,
1100,1910,0.108874,-0.795530,0.999998,0.000149,-0.000848,0.006644,-0.000323,0.006657,-0.000862,-87.538875,0.007241,
1070,1120,1.722484,-7.719115,0.999982,0.000498,-0.005034,0.015293,0.007489,0.017754,-0.007495,71.807885,0.017826,
690,1150,3.586674,-8.905612,0.999996,0.000236,-0.004654,0.009678,-0.000758,0.009718,-0.004694,-86.982900,0.009720,
1850,1330,-3.367908,-7.272815,0.999995,0.000242,-0.004982,0.009884,0.000399,0.009895,-0.004993,88.464929,0.009895,
910,1440,1.346447,-5.181238,0.999996,0.000277,-0.005880,0.010547,0.001013,0.010609,-0.005942,86.485146,0.010634,
1870,200,-1.657699,-18.104207,0.999996,0.000242,-0.004895,0.009921,-0.000432,0.009933,-0.004907,-88.331387,0.009934,
1900,810,-3.889644,-11.928063,0.999996,0.000000,-0.004532,0.009102,-0.000175,0.009105,-0.004534,-89.262858,0.009105,
820,430,1.418016,-16.548984,0.999996,0.000238,-0.004727,0.009872,-0.000303,0.009878,-0.004733,-88.811028,0.009881,
1640,850,-2.726784,-11.986875,0.999994,0.000293,-0.005665,0.011242,-0.001290,0.011340,-0.005763,-85.662508,0.011340,
1230,1380,0.003366,-4.270401,0.999996,0.000238,-0.002112,0.004763,0.000071,0.004764,-0.002112,89.405654,0.004774,
900,1970,0.177993,-0.448769,0.999998,0.000168,-0.000862,0.007078,-0.001273,0.007277,-0.001061,-81.113002,0.007863,
890,1870,0.495168,-1.216889,0.999995,0.000262,-0.002392,0.008097,-0.000955,0.008183,-0.002478,-84.839611,0.008393,
1870,650,-3.210759,-13.583558,0.999995,0.000277,-0.005046,0.010099,-0.000157,0.010101,-0.005047,-89.405430,0.010101,
650,1030,3.933649,-10.057546,0.999997,0.000206,-0.004338,0.009223,-0.000030,0.009223,-0.004338,-89.874399,0.009228,
1280,1500,-0.122119,-3.620327,0.999998,0.000171,-0.002619,0.006630,-0.000644,0.006675,-0.002663,-86.038739,0.006720,
1120,200,0.137337,-18.999205,0.999998,0.000180,-0.001394,0.006861,0.000163,0.006864,-0.001398,88.870473,0.007255,
1390,800,-0.712189,-14.060467,0.999994,0.000311,-0.007072,0.010523,0.003880,0.011341,-0.007890,78.101130,0.011627,
1680,1640,-1.555398,-3.573457,0.999996,0.000248,-0.004754,0.009963,-0.000182,0.009965,-0.004756,-89.292557,0.009969,
1770,510,-2.264844,-15.328750,0.999995,0.000250,-0.005161,0.010278,0.000136,0.010280,-0.005162,89.494722,0.010280,
1220,1900,0.012814,-0.838500,0.999998,0.000167,-0.000928,0.006486,0.000007,0.006486,-0.000928,89.944290,0.007015,
580,100,1.026940,-19.085270,0.999994,0.000283,-0.004434,0.011363,0.002268,0.011682,-0.004753,81.990263,0.011750,
1660,1470,-1.888159,-5.257865,0.999996,0.000199,-0.005559,0.010551,-0.000277,0.010556,-0.005564,-89.016659,0.010561,
1040,70,0.065145,-19.840685,0.999998,0.000161,-0.000528,0.006418,0.000579,0.006466,-0.000576,85.266519,0.007157,
1070,1830,0.230415,-1.362188,0.999997,0.000193,-0.001605,0.007180,-0.000230,0.007186,-0.001611,-88.504380,0.007542,
1560,460,-1.096742,-16.510453,0.999996,0.000242,-0.004440,0.009533,0.000623,0.009561,-0.004468,87.450273,0.009567,
1420,1560,-0.553484,-3.522084,0.999995,0.000255,-0.003641,0.008335,-0.001117,0.008439,-0.003744,-84.714734,0.008456,
1190,1840,0.054982,-1.240497,0.999998,0.000167,-0.001251,0.006752,-0.000024,0.006752,-0.001251,-89.827009,0.007184,
990,510,0.781439,-16.330322,0.999996,0.000234,-0.004233,0.009015,-0.001145,0.009113,-0.004331,-85.097500,0.009117,
730,1630,1.841021,-3.841977,0.999995,0.000265,-0.004943,0.010076,0.000181,0.010078,-0.004945,89.309996,0.010079,
1400,510,-0.492091,-16.570739,0.999997,0.000182,-0.003550,0.008103,0.001205,0.008227,-0.003673,84.156134,0.008242,
1730,90,-0.411599,-19.598118,0.999996,0.000229,-0.001919,0.008276,-0.002409,0.008816,-0.002460,-77.350977,0.009099,
890,300,0.812544,-17.958876,0.999998,0.000174,-0.003532,0.008842,0.000216,0.008846,-0.003536,89.000235,0.008905,
1330,1770,-0.174779,-1.751539,0.999998,0.000187,-0.002012,0.007155,-0.000121,0.007156,-0.002014,-89.242960,0.007381,
770,1930,0.547568,-0.843982,0.999996,0.000228,-0.002247,0.008619,-0.002131,0.009022,-0.002650,-79.289927,0.009275,
1580,490,-1.245023,-16.155293,0.999995,0.000275,-0.004920,0.009832,0.000692,0.009864,-0.004952,87.320814,0.009864,
1750,50,-0.203828,-19.912331,0.999997,0.000211,-0.001378,0.008155,-0.002950,0.008994,-0.002217,-74.121264,0.009371,
1310,1780,-0.130063,-1.664753,0.999998,0.000189,-0.001696,0.007059,0.000005,0.007059,-0.001696,89.968310,0.007370,
1240,1910,-0.006090,-0.773197,0.999998,0.000179,-0.000867,0.006435,0.000006,0.006435,-0.000867,89.949820,0.006984,
1020,1280,1.013503,-6.346820,0.999996,0.000255,-0.007458,0.011893,0.002437,0.012195,-0.007760,82.931353,0.012345,
950,110,0.202081,-19.550340,0.999998,0.000192,-0.001155,0.007142,0.000977,0.007255,-0.001269,83.372884,0.007750,
1130,460,0.262158,-17.117694,0.999997,0.000205,-0.002805,0.007405,-0.000738,0.007458,-0.002858,-85.884693,0.007525,
1630,1580,-1.457707,-4.020244,0.999997,0.000178,-0.004921,0.009943,-0.000441,0.009956,-0.004934,-88.300932,0.009956,
610,470,2.569993,-15.470410,0.999995,0.000285,-0.005019,0.010144,-0.000098,0.010145,-0.005019,-89.630853,0.010145,
890,1850,0.553397,-1.384358,0.999996,0.000239,-0.002599,0.008290,-0.000865,0.008358,-0.002667,-85.486008,0.008539,
1460,510,-0.728129,-16.372362,0.999995,0.000237,-0.004170,0.008853,0.001183,0.008959,-0.004277,84.853230,0.008962,
860,1220,2.439951,-7.924853,0.999993,0.000306,-0.006174,0.011843,-0.001185,0.011920,-0.006251,-86.253872,0.011925,
1850,1310,-3.437328,-7.468861,0.999996,0.000225,-0.004919,0.009804,0.000442,0.009817,-0.004933,88.281988,0.009817,
1300,1590,-0.168939,-3.022405,0.999996,0.000246,-0.002649,0.007129,-0.000539,0.007159,-0.002679,-86.852873,0.007234,
1520,100,-0.179270,-19.620019,0.999998,0.000193,-0.000968,0.007048,-0.001022,0.007176,-0.001097,-82.848205,0.007732,
880,1970,0.200562,-0.457335,0.999998,0.000175,-0.001187,0.007199,-0.001346,0.007410,-0.001398,-81.101626,0.007874,
1180,120,0.034028,-19.542893,0.999998,0.000184,-0.000590,0.006379,0.000156,0.006383,-0.000593,88.721731,0.007053,
1620,850,-2.610893,-12.022981,0.999994,0.000321,-0.005841,0.011494,-0.001290,0.011590,-0.005937,-85.767163,0.011591,
1280,1740,-0.090257,-1.938256,0.999998,0.000167,-0.001844,0.007088,-0.000048,0.007089,-0.001844,-89.690017,0.007355,
1060,130,0.125015,-19.453530,0.999997,0.000171,-0.000949,0.006711,0.000461,0.006739,-0.000977,86.570567,0.007283,
1900,800,-3.861021,-12.019674,0.999997,0.000000,-0.004583,0.009132,-0.000130,0.009133,-0.004584,-89.455326,0.009133,
1750,880,-3.402735,-11.527579,0.999997,0.000247,-0.004878,0.010135,-0.001064,0.010210,-0.004953,-85.966202,0.010212,
1640,1240,-2.575731,-7.773381,0.999994,0.000292,-0.005977,0.011478,0.001125,0.011550,-0.006049,86.328752,0.011554,
720,2000,0.226321,-0.286957,0.999995,0.000262,-0.001427,0.008219,-0.002871,0.009009,-0.002217,-74.617546,0.009388,
1120,180,0.119106,-19.135124,0.999998,0.000180,-0.001251,0.006717,0.000159,0.006720,-0.001254,88.854154,0.007147,
650,1010,3.922035,-10.241519,0.999997,0.000206,-0.004342,0.009225,0.000277,0.009230,-0.004348,88.830898,0.009235,
1680,1620,-1.605684,-3.774012,0.999996,0.000244,-0.004882,0.010035,-0.000254,0.010039,-0.004886,-89.024021,0.010040,
800,430,1.511672,-16.488127,0.999995,0.000254,-0.004764,0.009902,-0.000273,0.009907,-0.004769,-88.935813,0.009909,
1130,1460,0.272727,-4.018232,0.999996,0.000256,-0.003260,0.007044,0.001630,0.007296,-0.003512,81.224619,0.007297,
1660,470,-1.596325,-16.095060,0.999995,0.000275,-0.005028,0.010065,0.000386,0.010075,-0.005038,88.534446,0.010075,
1100,900,1.307850,-13.547871,0.999990,0.000362,-0.002825,0.008438,-0.005773,0.010871,-0.005258,-67.146284,0.010873,
1470,870,-1.730309,-12.342170,0.999991,0.000355,-0.007533,0.013818,0.000269,0.013822,-0.007537,89.277242,0.013840,
1770,490,-2.208422,-15.535402,0.999996,0.000256,-0.005127,0.010265,0.000182,0.010267,-0.005129,89.322841,0.010267,
1220,1860,0.014534,-1.100499,0.999998,0.000165,-0.001230,0.006624,0.000004,0.006624,-0.001230,89.970262,0.007047,
1640,1470,-1.776679,-5.191184,0.999996,0.000214,-0.005647,0.010613,-0.000368,0.010621,-0.005656,-88.702917,0.010628,
1080,80,0.058075,-19.783026,0.999998,0.000167,-0.000367,0.006354,0.000444,0.006383,-0.000397,86.234294,0.007152,
1420,1540,-0.565638,-3.687364,0.999996,0.000240,-0.003831,0.008406,-0.001303,0.008543,-0.003968,-83.990898,0.008550,
740,750,2.794807,-12.934788,0.999996,0.000256,-0.005582,0.010651,0.000808,0.010691,-0.005622,87.157708,0.010696,
750,1800,1.201750,-2.085345,0.999996,0.000257,-0.003932,0.009775,-0.000908,0.009835,-0.003992,-86.225074,0.009893,
1810,790,-3.399585,-12.337784,0.999997,0.000238,-0.004969,0.009994,-0.000733,0.010030,-0.005005,-87.202591,0.010030,
730,1610,1.896576,-4.045448,0.999996,0.000224,-0.004997,0.010109,0.000200,0.010112,-0.005000,89.241205,0.010112,
1750,40,-0.144265,-19.991463,0.999997,0.000217,-0.001118,0.007950,-0.002904,0.008801,-0.001968,-73.679227,0.009238,
1390,720,-0.544973,-14.841315,0.999995,0.000260,-0.005639,0.009088,0.003406,0.009838,-0.006388,77.587200,0.009983,
1870,640,-3.176687,-13.683966,0.999996,0.000259,-0.005048,0.010114,-0.000134,0.010115,-0.005049,-89.492695,0.010115,
1740,530,-2.166641,-15.218284,0.999997,0.000218,-0.005249,0.010307,0.000154,0.010308,-0.005250,89.434374,0.010309,
610,450,2.513847,-15.674752,0.999995,0.000287,-0.005003,0.010079,-0.000135,0.010081,-0.005004,-89.486252,0.010081,
1630,1560,-1.503971,-4.220288,0.999995,0.000249,-0.005064,0.010093,-0.000458,0.010107,-0.005078,-88.269288,0.010107,
1020,1330,0.879798,-5.776662,0.999995,0.000285,-0.006670,0.010898,0.002560,0.011264,-0.007036,81.875328,0.011380,
1730,70,-0.296370,-19.759837,0.999996,0.000222,-0.001366,0.008111,-0.002623,0.008789,-0.002043,-75.516590,0.009198,
1340,70,-0.034030,-19.851563,0.999998,0.000156,-0.000393,0.006201,-0.000311,0.006216,-0.000408,-87.304773,0.006954,
1850,1290,-3.507562,-7.667621,0.999995,0.000243,-0.004874,0.009819,0.000457,0.009833,-0.004888,88.218554,0.009833,
940,1060,2.740741,-9.692677,0.999996,0.000247,-0.003788,0.012238,-0.000675,0.012267,-0.003816,-87.593099,0.012555,
890,1830,0.611791,-1.549315,0.999997,0.000217,-0.002835,0.008380,-0.000725,0.008427,-0.002881,-86.319005,0.008566,
1590,340,-0.977233,-17.551402,0.999996,0.000237,-0.003954,0.009273,0.000018,0.009273,-0.003954,89.921958,0.009307,
1330,580,-0.265131,-16.255699,0.999998,0.000192,-0.003098,0.007081,0.001434,0.007279,-0.003296,82.133530,0.007290,
1320,1910,-0.069327,-0.783598,0.999998,0.000145,-0.000880,0.006522,0.000173,0.006526,-0.000884,88.663889,0.007080,
1020,1260,1.089359,-6.591909,0.999995,0.000282,-0.007666,0.012229,0.002301,0.012491,-0.007929,83.487829,0.012642,
1520,1970,-0.150770,-0.438843,0.999998,0.000158,-0.000777,0.006897,0.001031,0.007033,-0.000913,82.481129,0.007648,
1120,160,0.106638,-19.267511,0.999998,0.000169,-0.001081,0.006684,0.000224,0.006690,-0.001087,88.351691,0.007180,
1600,140,-0.409687,-19.277261,0.999996,0.000233,-0.001934,0.007914,-0.001342,0.008094,-0.002114,-82.375482,0.008396,
1280,380,-0.108815,-17.760036,0.999998,0.000169,-0.002188,0.007126,0.000141,0.007128,-0.002190,89.132759,0.007302,
1460,490,-0.708478,-16.549493,0.999997,0.000179,-0.004097,0.008820,0.001112,0.008915,-0.004192,85.116351,0.008920,
1560,440,-1.062007,-16.702064,0.999997,0.000207,-0.004371,0.009450,0.000568,0.009473,-0.004394,87.649658,0.009482,
1670,380,-1.415793,-16.962775,0.999995,0.000272,-0.004633,0.009786,0.000110,0.009787,-0.004634,89.564017,0.009792,
1270,1380,-0.084814,-4.318702,0.999997,0.000181,-0.002423,0.005140,-0.001265,0.005346,-0.002629,-80.749990,0.005346,
650,990,3.905857,-10.427445,0.999997,0.000219,-0.004338,0.009136,0.000223,0.009140,-0.004341,89.053564,0.009144,
1680,1600,-1.657647,-3.978868,0.999997,0.000214,-0.004980,0.010107,-0.000279,0.010112,-0.004985,-88.939166,0.010112,
1330,1380,-0.258063,-4.561462,0.999997,0.000218,-0.003590,0.006644,-0.002678,0.007303,-0.004248,-76.189230,0.007335,
750,620,2.286418,-14.356754,0.999995,0.000265,-0.005584,0.010597,0.000054,0.010597,-0.005585,89.807238,0.010603,
1100,890,1.197949,-13.625684,0.999990,0.000370,-0.003200,0.007744,-0.005175,0.009803,-0.005260,-68.300350,0.009812,
1770,470,-2.149855,-15.741939,0.999996,0.000251,-0.005078,0.010185,0.000189,0.010187,-0.005080,89.291888,0.010187,
780,180,0.773904,-18.846414,0.999997,0.000192,-0.003253,0.009014,0.001441,0.009181,-0.003420,83.389844,0.009280,
820,1630,1.405751,-3.563593,0.999995,0.000250,-0.004699,0.009857,0.000294,0.009863,-0.004705,88.844406,0.009866,
860,240,0.751807,-18.429690,0.999996,0.000251,-0.003187,0.008844,0.000739,0.008890,-0.003233,86.499289,0.008999,
810,1810,0.925451,-1.856534,0.999996,0.000231,-0.003549,0.009251,-0.000837,0.009306,-0.003603,-86.276508,0.009384,
1420,1520,-0.578633,-3.859411,0.999996,0.000222,-0.004068,0.008471,-0.001513,0.008651,-0.004248,-83.217188,0.008652,
1080,320,0.308578,-18.103715,0.999997,0.000220,-0.002163,0.007531,-0.000067,0.007532,-0.002164,-89.603183,0.007756,
720,750,2.906419,-12.889215,0.999996,0.000244,-0.005471,0.010543,0.000788,0.010582,-0.005509,87.190660,0.010585,
1900,790,-3.829461,-12.110884,0.999996,0.000000,-0.004648,0.009222,-0.000125,0.009223,-0.004650,-89.483940,0.009223,
1160,1590,0.176796,-3.027236,0.999998,0.000158,-0.002698,0.007168,0.000571,0.007201,-0.002731,86.697189,0.007271,
940,950,2.569054,-11.021679,0.999995,0.000267,-0.004771,0.012386,0.001280,0.012481,-0.004866,85.756832,0.012581,
740,1410,2.421463,-6.098666,0.999995,0.000281,-0.005563,0.010618,-0.000191,0.010620,-0.005566,-89.325124,0.010624,
1810,770,-3.328805,-12.538669,0.999996,0.000243,-0.005006,0.009983,-0.000678,0.010014,-0.005037,-87.416353,0.010014,
1810,160,-1.133585,-18.776595,0.999996,0.000272,-0.004106,0.010376,-0.001782,0.010592,-0.004322,-83.086512,0.010652,
1220,1320,0.022045,-4.525511,0.999997,0.000182,-0.001998,0.003483,0.000560,0.003539,-0.002055,84.226766,0.003555,
1860,1750,-2.080508,-3.056972,0.999997,0.000226,-0.004858,0.009948,-0.000002,0.009948,-0.004858,-89.992613,0.009949,
1180,70,0.016042,-19.854534,0.999998,0.000156,-0.000224,0.006120,0.000171,0.006124,-0.000229,88.453536,0.006944,
1850,1300,-3.472206,-7.568530,0.999996,0.000219,-0.004892,0.009795,0.000451,0.009808,-0.004906,88.244360,0.009808,
730,1590,1.951162,-4.247301,0.999997,0.000215,-0.005064,0.010195,0.000234,0.010199,-0.005068,89.121376,0.010199,
1390,740,-0.568083,-14.657035,0.999996,0.000241,-0.005978,0.009428,0.003599,0.010228,-0.006777,77.477608,0.010407,
1300,1910,-0.053294,-0.778928,0.999998,0.000152,-0.000710,0.006475,0.000183,0.006480,-0.000715,88.538287,0.007106,
1670,1700,-1.346491,-2.953714,0.999996,0.000228,-0.004575,0.009702,0.000001,0.009702,-0.004575,89.994973,0.009707,
1850,1270,-3.578669,-7.865157,0.999996,0.000246,-0.004798,0.009738,0.000500,0.009755,-0.004816,88.031504,0.009755,
1440,1630,-0.571466,-2.994317,0.999997,0.000250,-0.003270,0.008245,-0.000643,0.008281,-0.003306,-86.815308,0.008336,
1590,440,-1.191441,-16.614141,0.999997,0.000234,-0.004524,0.009627,0.000468,0.009642,-0.004540,88.109761,0.009648,
610,430,2.453410,-15.876502,0.999996,0.000261,-0.004982,0.010019,-0.000121,0.010020,-0.004983,-89.538138,0.010020,
1020,1240,1.182704,-6.837889,0.999991,0.000340,-0.007804,0.012562,0.002026,0.012761,-0.008004,84.374881,0.012898,
1720,1980,-0.314306,-0.437225,0.999997,0.000208,-0.001178,0.008003,0.002496,0.008638,-0.001813,75.733682,0.009109,
970,860,1.834212,-12.333232,0.999994,0.000337,-0.007356,0.013462,0.000247,0.013465,-0.007359,89.321559,0.013484,
600,810,3.722829,-12.024957,0.999995,0.000269,-0.004627,0.009314,0.000374,0.009324,-0.004637,88.465208,0.009324,
1560,420,-1.023558,-16.889255,0.999997,0.000199,-0.004299,0.009365,0.000487,0.009382,-0.004316,87.963015,0.009392,
890,1810,0.668658,-1.720621,0.999997,0.000197,-0.002988,0.008567,-0.000608,0.008599,-0.003020,-86.996707,0.008725,
1330,560,-0.265386,-16.394026,0.999997,0.000193,-0.003027,0.007138,0.001238,0.007286,-0.003175,83.152557,0.007306,
1330,1750,-0.183372,-1.892409,0.999998,0.000158,-0.002136,0.007177,-0.000172,0.007180,-0.002139,-88.943266,0.007373,
860,200,0.624154,-18.774331,0.999997,0.000236,-0.002701,0.008514,0.001031,0.008608,-0.002795,84.791007,0.008783,
940,1020,2.776441,-10.164998,0.999997,0.000223,-0.003601,0.011785,0.000177,0.011787,-0.003603,89.341212,0.012080,
960,710,1.249098,-14.167066,0.999994,0.000296,-0.006821,0.011460,-0.001419,0.011570,-0.006931,-85.588929,0.011645,
1830,580,-2.782682,-14.418539,0.999997,0.000219,-0.005117,0.010219,-0.000042,0.010220,-0.005117,-89.844547,0.010220,
820,600,1.832645,-14.797923,0.999996,0.000231,-0.005693,0.010694,-0.000332,0.010701,-0.005700,-88.838208,0.010709,
660,590,2.674135,-14.399425,0.999996,0.000230,-0.005191,0.010295,0.000066,0.010295,-0.005191,89.756475,0.010295,
1280,340,-0.101890,-18.042878,0.999998,0.000179,-0.001999,0.007089,0.000086,0.007090,-0.002000,89.460441,0.007311,
1120,140,0.085516,-19.404105,0.999998,0.000145,-0.000926,0.006554,0.000236,0.006561,-0.000934,88.196485,0.007099,
920,950,2.663140,-10.982321,0.999996,0.000265,-0.004596,0.011895,0.001336,0.012003,-0.004703,85.398112,0.012096,
1070,1290,0.632343,-5.774017,0.999994,0.000290,-0.006528,0.009977,0.003765,0.010795,-0.007347,77.738343,0.011027,
840,1930,0.398414,-0.783978,0.999998,0.000197,-0.001573,0.007954,-0.001640,0.008228,-0.001847,-80.499153,0.008634,
1270,1360,-0.079153,-4.416637,0.999998,0.000191,-0.002365,0.004782,-0.001470,0.005073,-0.002656,-78.818052,0.005075,
1770,450,-2.095245,-15.944097,0.999996,0.000229,-0.005033,0.010131,0.000175,0.010133,-0.005035,89.338639,0.010133,
1680,1580,-1.711358,-4.181321,0.999997,0.000219,-0.005042,0.010145,-0.000315,0.010151,-0.005048,-88.810584,0.010151,
1900,780,-3.799638,-12.203391,0.999995,0.000000,-0.004732,0.009336,-0.000124,0.009337,-0.004734,-89.495601,0.009337,
1100,880,1.086800,-13.695504,0.999990,0.000373,-0.003739,0.007538,-0.004684,0.009230,-0.005431,-70.141332,0.009278,
1600,100,-0.269435,-19.588476,0.999997,0.000205,-0.001386,0.007481,-0.001456,0.007714,-0.001619,-80.912585,0.008135,
650,970,3.890361,-10.609844,0.999997,0.000218,-0.004386,0.009124,0.000232,0.009128,-0.004390,89.017621,0.009130,
1710,1600,-1.809387,-4.074385,0.999997,0.000223,-0.005037,0.010134,-0.000258,0.010138,-0.005041,-89.027050,0.010138,
1090,260,0.236069,-18.555532,0.999997,0.000217,-0.001729,0.007260,0.000108,0.007262,-0.001730,89.312438,0.007586,
1220,1590,0.029394,-2.982549,0.999997,0.000202,-0.002516,0.006890,0.000203,0.006894,-0.002520,88.763228,0.006977,
1810,970,-3.879014,-10.612857,0.999997,0.000200,-0.004336,0.009137,-0.000230,0.009141,-0.004340,-89.023122,0.009145,
740,1390,2.488467,-6.312357,0.999995,0.000272,-0.005609,0.010653,-0.000315,0.010659,-0.005615,-88.890806,0.010664,
1810,140,-1.003294,-18.984136,0.999996,0.000299,-0.003853,0.010238,-0.002159,0.010562,-0.004176,-81.481996,0.010639,
630,1460,2.845657,-5.902328,0.999995,0.000252,-0.005105,0.010162,-0.000088,0.010162,-0.005106,-89.671457,0.010162,
730,1570,2.004637,-4.454734,0.999996,0.000224,-0.005130,0.010243,0.000232,0.010246,-0.005134,89.133838,0.010246,
1370,400,-0.337830,-17.509543,0.999996,0.000221,-0.002608,0.007601,0.000424,0.007618,-0.002625,87.627004,0.007740,
1000,1330,1.015210,-5.917859,0.999995,0.000269,-0.006895,0.011234,0.002162,0.011488,-0.007150,83.291870,0.011602,
1020,1220,1.292184,-7.090488,0.999991,0.000356,-0.007856,0.013111,0.001817,0.013267,-0.008012,85.083496,0.013362,
1720,1830,-1.102120,-1.806307,0.999998,0.000175,-0.003692,0.009714,0.001226,0.009825,-0.003804,84.817410,0.009908,
1000,70,0.080428,-19.836196,0.999999,0.000146,-0.000314,0.006558,0.000814,0.006653,-0.000409,83.334481,0.007458,
1580,1810,-0.692584,-1.733873,0.999997,0.000216,-0.003189,0.008602,0.000580,0.008630,-0.003217,87.189249,0.008723,
1850,1250,-3.645656,-8.056859,0.999996,0.000248,-0.004726,0.009466,0.000487,0.009483,-0.004743,88.036662,0.009483,
1440,1610,-0.588813,-3.158831,0.999996,0.000230,-0.003478,0.008341,-0.000795,0.008394,-0.003531,-86.168710,0.008429,
1220,1300,0.025011,-4.590017,0.999998,0.000187,-0.002104,0.002947,0.000646,0.003029,-0.002186,82.822496,0.003126,
1720,1960,-0.424533,-0.598093,0.999996,0.000228,-0.001549,0.008289,0.002424,0.008854,-0.002114,76.885358,0.009248,
610,410,2.391750,-16.076066,0.999996,0.000254,-0.004969,0.010007,-0.000122,0.010008,-0.004970,-89.533802,0.010008,
1420,1500,-0.591920,-4.032012,0.999996,0.000238,-0.004282,0.008567,-0.001696,0.008787,-0.004502,-82.607148,0.008788,
780,420,1.582236,-16.527753,0.999996,0.000252,-0.004816,0.009979,-0.000202,0.009982,-0.004819,-89.219203,0.009984,
890,1790,0.722956,-1.893257,0.999997,0.000203,-0.003183,0.008631,-0.000448,0.008648,-0.003200,-87.831054,0.008744,
930,200,0.455307,-18.856952,0.999997,0.000210,-0.002073,0.007973,0.000805,0.008037,-0.002137,85.446025,0.008326,
1870,580,-2.985845,-14.295835,0.999996,0.000233,-0.005070,0.010177,-0.000022,0.010177,-0.005070,-89.916376,0.010177,
960,430,0.808798,-16.956018,0.999997,0.000203,-0.003836,0.008831,-0.000629,0.008862,-0.003867,-87.162590,0.008886,
830,440,1.395171,-16.480341,0.999994,0.000288,-0.004776,0.009905,-0.000351,0.009913,-0.004785,-88.631181,0.009915,
1710,1580,-1.860124,-4.276359,0.999996,0.000251,-0.005094,0.010168,-0.000273,0.010173,-0.005098,-88.975955,0.010173,
820,560,1.727738,-15.224897,0.999996,0.000213,-0.005491,0.010481,-0.000450,0.010494,-0.005504,-88.386202,0.010498,
1770,430,-2.039452,-16.150145,0.999997,0.000203,-0.004981,0.010127,0.000167,0.010128,-0.004983,89.366474,0.010129,
1070,1250,0.753882,-6.187923,0.999994,0.000315,-0.007225,0.010835,0.003790,0.011598,-0.007988,78.615947,0.011870,
1680,1560,-1.759472,-4.384688,0.999996,0.000220,-0.005116,0.010226,-0.000327,0.010233,-0.005123,-88.778796,0.010233,
1270,1750,-0.073225,-1.863944,0.999998,0.000161,-0.001807,0.007034,-0.000082,0.007035,-0.001808,-89.469880,0.007307,
1670,1680,-1.402856,-3.148960,0.999996,0.000243,-0.004610,0.009763,-0.000081,0.009764,-0.004611,-89.676182,0.009769,
590,810,3.768284,-12.000379,0.999995,0.000261,-0.004632,0.009232,0.000273,0.009237,-0.004637,88.873990,0.009237,
940,480,0.963238,-16.438814,0.999997,0.000205,-0.004552,0.009431,-0.000885,0.009486,-0.004608,-86.393894,0.009488,
1210,260,0.035338,-18.616285,0.999998,0.000174,-0.001639,0.006911,-0.000075,0.006912,-0.001640,-89.499812,0.007223,
1810,1210,-3.583916,-8.362143,0.999996,0.000243,-0.004770,0.009669,0.000800,0.009713,-0.004814,86.836459,0.009714,
1330,500,-0.260678,-16.830732,0.999996,0.000203,-0.002888,0.007307,0.000881,0.007382,-0.002964,85.096833,0.007430,
1440,930,-1.977024,-11.744185,0.999991,0.000353,-0.006393,0.014898,0.001238,0.014970,-0.006465,86.684272,0.015016,
770,880,3.122114,-11.588376,0.999995,0.000253,-0.005081,0.010503,0.001192,0.010594,-0.005172,85.649586,0.010595,
960,1970,0.134227,-0.434251,0.999998,0.000171,-0.000862,0.006850,-0.000899,0.006953,-0.000965,-83.438759,0.007534,
1120,120,0.074122,-19.531185,0.999998,0.000162,-0.000766,0.006479,0.000286,0.006490,-0.000777,87.744201,0.007088,
1330,1730,-0.198846,-2.041226,0.999998,0.000171,-0.002249,0.007252,-0.000243,0.007258,-0.002255,-88.534606,0.007430,
1380,1980,-0.050845,-0.343774,0.999998,0.000167,-0.000308,0.006320,0.000445,0.006350,-0.000338,86.176716,0.007145,
650,950,3.865379,-10.794484,0.999996,0.000252,-0.004459,0.009304,0.000521,0.009324,-0.004478,87.836302,0.009326,
1590,1510,-1.403685,-4.593244,0.999995,0.000279,-0.005316,0.010240,-0.000715,0.010273,-0.005349,-87.374155,0.010276,
1250,1380,-0.039195,-4.287531,0.999997,0.000180,-0.002153,0.004834,-0.000673,0.004898,-0.002217,-84.549050,0.004905,
1490,980,-2.555606,-10.718845,0.999994,0.000328,-0.004478,0.013387,-0.000702,0.013415,-0.004505,-87.753982,0.013654,
1070,400,0.400054,-17.473127,0.999996,0.000255,-0.002993,0.007842,-0.000614,0.007877,-0.003027,-86.768518,0.007947,
690,480,2.195119,-15.628625,0.999997,0.000179,-0.005096,0.010210,-0.000180,0.010212,-0.005098,-89.326002,0.010212,
980,1330,1.154934,-6.049836,0.999995,0.000260,-0.006959,0.011496,0.001732,0.011658,-0.007120,84.684024,0.011752,
1420,1480,-0.604056,-4.208600,0.999996,0.000245,-0.004431,0.008681,-0.001821,0.008929,-0.004679,-82.239082,0.008932,
1520,60,-0.087802,-19.895376,0.999998,0.000163,-0.000508,0.006662,-0.001017,0.006803,-0.000650,-82.081779,0.007508,
1180,100,0.026159,-19.670418,0.999998,0.000171,-0.000422,0.006255,0.000125,0.006257,-0.000424,88.931195,0.006993,
1460,1490,-0.774155,-4.280279,0.999996,0.000248,-0.004696,0.009211,-0.001620,0.009397,-0.004883,-83.441136,0.009399,
1000,1650,0.625027,-2.877299,0.999996,0.000243,-0.003432,0.008412,0.000579,0.008440,-0.003460,87.208790,0.008485,
1340,130,-0.077647,-19.468152,0.999999,0.000125,-0.000840,0.006510,-0.000212,0.006516,-0.000847,-88.351030,0.007086,
770,1390,2.318347,-6.225888,0.999995,0.000265,-0.005769,0.010834,-0.000226,0.010837,-0.005772,-89.221055,0.010845,
980,70,0.087368,-19.834342,0.999998,0.000172,-0.000503,0.006636,0.000846,0.006734,-0.000602,83.335824,0.007453,
1720,1940,-0.538260,-0.771793,0.999996,0.000227,-0.001899,0.008839,0.002526,0.009403,-0.002463,77.402127,0.009752,
890,1770,0.774157,-2.067106,0.999997,0.000203,-0.003350,0.008784,-0.000336,0.008794,-0.003359,-88.415192,0.008875,
730,1550,2.059850,-4.661648,0.999996,0.000237,-0.005175,0.010282,0.000207,0.010285,-0.005178,89.231162,0.010285,
1020,1200,1.414185,-7.366764,0.999991,0.000363,-0.007805,0.013578,0.001491,0.013682,-0.007908,86.030809,0.013737,
1270,1730,-0.077275,-2.005735,0.999998,0.000175,-0.001933,0.007076,-0.000085,0.007077,-0.001934,-89.456458,0.007315,
610,390,2.333552,-16.279387,0.999996,0.000254,-0.004964,0.010019,-0.000122,0.010020,-0.004965,-89.532209,0.010020,
1640,1220,-2.664025,-8.005080,0.999995,0.000268,-0.005809,0.011313,0.001223,0.011400,-0.005896,85.934569,0.011402,
870,1140,2.749518,-8.844144,0.999996,0.000244,-0.005063,0.011361,-0.001432,0.011485,-0.005187,-85.055351,0.011503,
1470,830,-1.477040,-12.891936,0.999991,0.000360,-0.007851,0.013200,0.000918,0.013240,-0.007891,87.507375,0.013321,
1560,1750,-0.783518,-2.221103,0.999998,0.000199,-0.003222,0.008762,0.000218,0.008766,-0.003226,88.958441,0.008868,
690,1130,3.629891,-9.098170,0.999996,0.000213,-0.004555,0.009610,-0.000727,0.009647,-0.004592,-87.069202,0.009651,
1730,1660,-1.741203,-3.527531,0.999995,0.000299,-0.004901,0.010097,-0.000105,0.010098,-0.004902,-89.600766,0.010100,
1850,1230,-3.708938,-8.242903,0.999996,0.000230,-0.004657,0.009375,0.000521,0.009394,-0.004676,87.877397,0.009394,
630,1920,1.065555,-1.208177,0.999997,0.000202,-0.004729,0.010502,-0.001423,0.010634,-0.004861,-84.707488,0.010647,
1560,400,-0.986132,-17.078680,0.999996,0.000222,-0.004152,0.009254,0.000389,0.009265,-0.004163,88.339912,0.009281,
1770,410,-1.981714,-16.350382,0.999996,0.000230,-0.004943,0.010127,0.000134,0.010128,-0.004944,89.491980,0.010129,
660,570,2.613032,-14.606376,0.999996,0.000246,-0.005167,0.010271,-0.000012,0.010271,-0.005167,-89.956593,0.010271,
1900,770,-3.766438,-12.299391,0.999995,0.000000,-0.004780,0.009527,-0.000149,0.009529,-0.004782,-89.405260,0.009529,
1470,200,-0.324338,-18.917857,0.999998,0.000207,-0.001640,0.007488,-0.000583,0.007526,-0.001677,-86.359385,0.007901,
1120,100,0.054521,-19.664079,0.999998,0.000171,-0.000612,0.006379,0.000275,0.006389,-0.000623,87.748032,0.007046,
1070,450,0.436120,-17.072585,0.999996,0.000229,-0.003360,0.007928,-0.000949,0.008008,-0.003439,-85.226715,0.008034,
1810,230,-1.525913,-18.050935,0.999995,0.000266,-0.004609,0.010165,-0.000805,0.010209,-0.004653,-86.891819,0.010222,
610,1460,2.947205,-5.964977,0.999996,0.000251,-0.005097,0.010135,-0.000071,0.010135,-0.005097,-89.734323,0.010135,
1590,1490,-1.451733,-4.801642,0.999994,0.000286,-0.005537,0.010363,-0.000733,0.010396,-0.005570,-87.367717,0.010405,
670,140,0.942124,-19.018163,0.999995,0.000250,-0.003640,0.009985,0.002279,0.010356,-0.004011,80.752827,0.010444,
1130,700,0.267742,-15.415213,0.999997,0.000217,-0.003730,0.006738,-0.003079,0.007577,-0.004568,-74.768996,0.007630,
1860,790,-3.643595,-12.220355,0.999996,0.000248,-0.004743,0.009603,-0.000422,0.009616,-0.004756,-88.318355,0.009616,
1330,1710,-0.206742,-2.183456,0.999998,0.000193,-0.002372,0.007250,-0.000339,0.007262,-0.002384,-87.986609,0.007403,
1850,1900,-1.288603,-1.500651,0.999995,0.000262,-0.004916,0.010356,0.000902,0.010409,-0.004969,86.631110,0.010413,
1680,1540,-1.810150,-4.592093,0.999996,0.000222,-0.005219,0.010291,-0.000326,0.010298,-0.005226,-88.796262,0.010299,
820,540,1.679228,-15.430951,0.999996,0.000224,-0.005353,0.010360,-0.000456,0.010373,-0.005367,-88.339127,0.010376,
1560,1810,-0.630289,-1.701893,0.999997,0.000223,-0.002666,0.008454,0.000642,0.008491,-0.002703,86.706439,0.008676,
1640,1050,-3.189322,-9.846353,0.999996,0.000238,-0.003964,0.010283,0.000367,0.010292,-0.003974,88.524427,0.010381,
850,1610,1.309668,-3.668883,0.999995,0.000266,-0.004758,0.009834,0.000444,0.009848,-0.004771,88.259112,0.009849,
960,690,1.199850,-14.394008,0.999995,0.000267,-0.006581,0.011194,-0.001507,0.011321,-0.006708,-85.187827,0.011386,
1220,1280,0.025003,-4.640265,0.999997,0.000216,-0.002349,0.002463,0.000693,0.002561,-0.002447,81.962561,0.002893,
1060,1120,1.779014,-7.947787,0.999982,0.000476,-0.005883,0.015341,0.006173,0.017006,-0.007547,74.906371,0.017041,
1190,1400,0.094060,-4.219902,0.999997,0.000226,-0.002470,0.005497,0.001184,0.005669,-0.002642,81.719916,0.005674,
1680,810,-2.789466,-12.363232,0.999996,0.000257,-0.005639,0.011024,-0.001113,0.011098,-0.005713,-86.196787,0.011099,
650,190,1.329064,-18.455871,0.999995,0.000261,-0.004419,0.010267,0.001239,0.010371,-0.004523,85.212276,0.010399,
1080,70,0.047395,-19.846695,0.999998,0.000175,-0.000301,0.006308,0.000449,0.006338,-0.000331,86.131127,0.007135,
1790,1840,-1.360190,-1.898512,0.999996,0.000262,-0.004515,0.010135,0.001068,0.010213,-0.004592,85.851898,0.010230,
1050,400,0.463031,-17.428683,0.999996,0.000248,-0.003158,0.008021,-0.000648,0.008058,-0.003195,-86.692820,0.008116,
1740,1230,-3.169223,-8.055272,0.999995,0.000296,-0.005204,0.010408,0.001078,0.010482,-0.005278,86.067477,0.010482,
1870,570,-2.954623,-14.397581,0.999997,0.000231,-0.005080,0.010191,-0.000009,0.010191,-0.005080,-89.967192,0.010191,
1030,30,0.019814,-20.092093,0.999998,0.000000,0.000001,0.006224,0.000571,0.006276,-0.000051,84.798807,0.007218,
580,810,3.813384,-11.974610,0.999996,0.000219,-0.004744,0.009154,0.000131,0.009155,-0.004745,89.461824,0.009157,
1330,260,-0.156863,-18.590105,0.999998,0.000172,-0.001802,0.007056,0.000062,0.007057,-0.001803,89.600210,0.007332,
770,1350,2.458026,-6.664108,0.999996,0.000268,-0.005840,0.010915,-0.000487,0.010929,-0.005854,-88.337779,0.010939,
1270,1710,-0.080301,-2.147930,0.999998,0.000183,-0.002038,0.007063,-0.000129,0.007065,-0.002040,-89.185936,0.007272,
1280,1910,-0.038429,-0.777807,0.999999,0.000132,-0.000746,0.006457,0.000127,0.006459,-0.000748,88.989244,0.007066,
980,1460,0.922680,-4.671084,0.999996,0.000228,-0.005205,0.009777,0.001603,0.009947,-0.005374,83.959548,0.009958,
1720,530,-2.061352,-15.281795,0.999995,0.000285,-0.005282,0.010346,0.000198,0.010349,-0.005284,89.272452,0.010350,
1320,130,-0.059518,-19.475153,0.999998,0.000136,-0.000776,0.006483,-0.000191,0.006488,-0.000781,-88.496305,0.007084,
1850,1210,-3.771305,-8.434201,0.999996,0.000211,-0.004624,0.009441,0.000580,0.009465,-0.004648,87.643363,0.009466,
940,460,0.929316,-16.628978,0.999998,0.000184,-0.004360,0.009273,-0.000802,0.009320,-0.004407,-86.646942,0.009325,
1770,390,-1.923257,-16.554941,0.999996,0.000227,-0.004904,0.010126,0.000101,0.010126,-0.004905,89.613380,0.010128,
1510,1440,-1.099883,-4.997539,0.999996,0.000259,-0.005662,0.010270,-0.001428,0.010397,-0.005789,-84.917660,0.010420,
610,370,2.268415,-16.482177,0.999996,0.000257,-0.004917,0.010009,-0.000101,0.010009,-0.004918,-89.612879,0.010010,
1560,380,-0.941386,-17.265036,0.999996,0.000225,-0.003960,0.009112,0.000247,0.009116,-0.003964,88.917231,0.009142,
1180,300,0.096406,-18.328268,0.999998,0.000152,-0.001744,0.007024,-0.000011,0.007024,-0.001744,-89.927609,0.007314,
1490,960,-2.463327,-10.983927,0.999993,0.000325,-0.004904,0.013368,-0.000955,0.013418,-0.004954,-87.017566,0.013570,
610,1920,1.164326,-1.306368,0.999996,0.000242,-0.004890,0.010516,-0.001253,0.010617,-0.004992,-85.380537,0.010623,
1640,1200,-2.746345,-8.229143,0.999996,0.000258,-0.005628,0.011263,0.001320,0.011365,-0.005731,85.559039,0.011366,
590,360,2.331897,-16.506619,0.999997,0.000208,-0.005121,0.009911,-0.000020,0.009911,-0.005121,-89.923727,0.009913,
1070,430,0.422834,-17.233642,0.999997,0.000222,-0.003234,0.007919,-0.000833,0.007981,-0.003296,-85.749778,0.008021,
1740,1450,-2.386559,-5.727288,0.999997,0.000226,-0.005437,0.010483,0.000068,0.010484,-0.005437,89.757077,0.010486,
890,1140,2.650667,-8.813495,0.999997,0.000220,-0.005186,0.011693,-0.001442,0.011815,-0.005308,-85.150992,0.011836,
1470,290,-0.486222,-18.216670,0.999996,0.000225,-0.002453,0.008016,-0.000194,0.008020,-0.002456,-88.938427,0.008218,
1720,1920,-0.659668,-0.950420,0.999996,0.000206,-0.002346,0.008953,0.002276,0.009394,-0.002787,79.027837,0.009650,
1120,80,0.044123,-19.787895,0.999998,0.000165,-0.000421,0.006233,0.000297,0.006246,-0.000434,87.452036,0.006975,
1590,1470,-1.494256,-5.013395,0.999994,0.000276,-0.005669,0.010493,-0.000709,0.010524,-0.005700,-87.491604,0.010536,
1010,200,0.299212,-18.929605,0.999997,0.000192,-0.001591,0.007386,0.000495,0.007413,-0.001618,86.854187,0.007795,
1900,870,-4.068771,-11.381891,0.999997,0.000000,-0.004338,0.008577,-0.000087,0.008577,-0.004338,-89.613790,0.008577,
820,520,1.630787,-15.639360,0.999995,0.000230,-0.005256,0.010273,-0.000456,0.010286,-0.005269,-88.320345,0.010287,
1840,1810,-1.735943,-2.375529,0.999997,0.000219,-0.004835,0.010083,0.000232,0.010087,-0.004839,89.110163,0.010090,
1170,1400,0.147412,-4.280717,0.999998,0.000194,-0.002764,0.005833,0.001725,0.006166,-0.003097,79.066547,0.006166,
850,1590,1.356263,-3.865870,0.999996,0.000257,-0.004826,0.009877,0.000497,0.009894,-0.004842,88.066482,0.009895,
1460,390,-0.599222,-17.414674,0.999996,0.000231,-0.003188,0.008379,0.000427,0.008395,-0.003204,87.888170,0.008473,
1680,50,-0.150919,-19.931518,0.999998,0.000180,-0.000883,0.007302,-0.002052,0.007787,-0.001369,-76.688192,0.008315,
1330,1690,-0.216876,-2.331021,0.999997,0.000202,-0.002461,0.007406,-0.000372,0.007420,-0.002475,-87.842797,0.007556,
780,2020,0.091060,-0.121445,0.999997,0.000000,-0.000664,0.007190,-0.002016,0.007677,-0.001152,-76.413893,0.008281,
1800,290,-1.733747,-17.468036,0.999995,0.000248,-0.004746,0.010151,-0.000340,0.010158,-0.004754,-88.694175,0.010165,
1810,190,-1.317798,-18.465055,0.999995,0.000276,-0.004358,0.010294,-0.001284,0.010406,-0.004469,-85.028987,0.010441,
1060,70,0.053338,-19.845088,0.999998,0.000186,-0.000411,0.006350,0.000492,0.006386,-0.000447,85.858795,0.007130,
1110,1460,0.344044,-4.093818,0.999996,0.000230,-0.003640,0.007440,0.001909,0.007759,-0.003960,80.495812,0.007760,
1870,560,-2.924924,-14.500041,0.999996,0.000265,-0.005077,0.010223,0.000002,0.010223,-0.005077,89.992892,0.010224,
1710,1240,-2.972482,-7.901996,0.999996,0.000220,-0.005399,0.010612,0.001092,0.010686,-0.005473,86.116042,0.010687,
1500,830,-1.709215,-12.690263,0.999994,0.000325,-0.007578,0.013147,0.000119,0.013148,-0.007578,89.670301,0.013199,
600,1630,2.489384,-4.267936,0.999995,0.000251,-0.004954,0.010011,0.000092,0.010012,-0.004955,89.649236,0.010012,
1090,540,0.406016,-16.414676,0.999997,0.000222,-0.003589,0.007850,-0.001541,0.008054,-0.003793,-82.461610,0.008058,
730,1200,3.238644,-8.357785,0.999997,0.000210,-0.005058,0.010264,-0.001079,0.010339,-0.005134,-85.992559,0.010339,
1130,400,0.240925,-17.564766,0.999998,0.000183,-0.002641,0.007344,-0.000558,0.007375,-0.002672,-86.812185,0.007468,
1270,1690,-0.084406,-2.290749,0.999998,0.000196,-0.002138,0.007110,-0.000166,0.007112,-0.002141,-88.974612,0.007298,
770,810,2.860756,-12.340389,0.999997,0.000214,-0.005582,0.010828,0.001080,0.010899,-0.005653,86.251926,0.010901,
1890,720,-3.547172,-12.819575,0.999997,0.000233,-0.004870,0.009701,-0.000170,0.009703,-0.004872,-89.332588,0.009703,
650,930,3.823815,-10.982645,0.999996,0.000255,-0.004519,0.009325,0.000652,0.009356,-0.004549,87.311496,0.009357,
980,1420,0.976389,-5.068868,0.999996,0.000236,-0.005766,0.010088,0.001797,0.010289,-0.005967,83.614981,0.010333,
1770,520,-2.293951,-15.225352,0.999995,0.000243,-0.005190,0.010258,0.000107,0.010259,-0.005191,89.603286,0.010259,
1680,1520,-1.864062,-4.799109,0.999995,0.000257,-0.005316,0.010367,-0.000316,0.010374,-0.005323,-88.845597,0.010375,
940,1970,0.153245,-0.441599,0.999997,0.000207,-0.000767,0.006917,-0.001032,0.007053,-0.000903,-82.481704,0.007676,
1620,1050,-3.110848,-9.844583,0.999996,0.000238,-0.003896,0.010414,0.000376,0.010424,-0.003906,88.495059,0.010533,
1140,1910,0.073043,-0.782415,0.999998,0.000138,-0.000920,0.006533,-0.000210,0.006539,-0.000926,-88.389396,0.007076,
1850,1190,-3.835192,-8.625713,0.999996,0.000225,-0.004539,0.009315,0.000560,0.009337,-0.004562,87.687584,0.009338,
1790,660,-2.836211,-13.714224,0.999995,0.000270,-0.005246,0.010360,-0.000336,0.010367,-0.005253,-88.766859,0.010367,
1560,360,-0.899600,-17.447203,0.999997,0.000216,-0.003803,0.009047,0.000116,0.009048,-0.003804,89.480840,0.009086,
690,1520,2.353149,-5.098226,0.999994,0.000275,-0.005208,0.010255,0.000084,0.010255,-0.005208,89.688156,0.010255,
1120,60,0.024849,-19.913625,0.999998,0.000163,-0.000297,0.006148,0.000308,0.006163,-0.000312,87.273307,0.006943,
1720,1900,-0.760640,-1.132693,0.999997,0.000203,-0.002701,0.009284,0.002037,0.009621,-0.003038,80.614766,0.009836,
1690,980,-3.368114,-10.557420,0.999995,0.000293,-0.004306,0.010043,-0.000492,0.010060,-0.004323,-88.038834,0.010093,
690,460,2.137994,-15.832936,0.999996,0.000244,-0.005014,0.010148,-0.000174,0.010150,-0.005016,-89.341548,0.010150,
1470,270,-0.452159,-18.378327,0.999997,0.000206,-0.002256,0.007905,-0.000264,0.007912,-0.002263,-88.510804,0.008150,
610,350,2.201985,-16.681941,0.999995,0.000249,-0.004862,0.009950,-0.000115,0.009951,-0.004863,-89.554141,0.009952,
1100,130,0.097666,-19.463707,0.999999,0.000125,-0.000738,0.006583,0.000343,0.006599,-0.000754,87.326506,0.007223,
670,1920,0.908462,-1.092816,0.999998,0.000217,-0.003549,0.010006,-0.002425,0.010426,-0.003970,-80.155510,0.010525,
1310,260,-0.123228,-18.602178,0.999998,0.000171,-0.001620,0.006987,-0.000034,0.006987,-0.001621,-89.772466,0.007314,
1590,1450,-1.539885,-5.222395,0.999994,0.000263,-0.005787,0.010624,-0.000676,0.010652,-0.005814,-87.643629,0.010667,
1900,990,-4.268146,-10.386888,0.999996,0.000000,-0.004003,0.008024,-0.000134,0.008026,-0.004004,-89.361142,0.008026,
960,390,0.751307,-17.308923,0.999997,0.000212,-0.003696,0.008758,-0.000479,0.008776,-0.003715,-87.798641,0.008811,
1770,370,-1.860763,-16.757508,0.999997,0.000224,-0.004836,0.010074,0.000016,0.010074,-0.004836,89.939169,0.010077,
910,200,0.494448,-18.838979,0.999997,0.000203,-0.002076,0.008112,0.000896,0.008190,-0.002154,85.014483,0.008491,
1380,720,-0.488232,-14.922815,0.999995,0.000245,-0.005368,0.008709,0.003507,0.009534,-0.006194,76.756746,0.009675,
1070,410,0.407250,-17.393667,0.999997,0.000224,-0.003076,0.007867,-0.000685,0.007910,-0.003119,-86.430033,0.007968,
1800,1580,-2.318797,-4.569865,0.999996,0.000234,-0.005080,0.010198,-0.000142,0.010200,-0.005081,-89.467929,0.010200,
590,1390,3.277254,-6.737920,0.999997,0.000228,-0.004948,0.010081,-0.000183,0.010083,-0.004950,-89.302115,0.010083,
850,1570,1.398284,-4.065264,0.999995,0.000275,-0.004889,0.009938,0.000532,0.009957,-0.004908,87.946366,0.009958,
1510,1990,-0.094023,-0.298303,0.999998,0.000200,-0.000635,0.006701,0.000980,0.006830,-0.000764,82.518947,0.007485,
1330,1670,-0.228111,-2.481951,0.999997,0.000199,-0.002574,0.007370,-0.000497,0.007394,-0.002598,-87.147257,0.007502,
1200,1310,0.064184,-4.603260,0.999996,0.000222,-0.002227,0.003567,0.001611,0.003985,-0.002644,75.458374,0.004056,
1420,1460,-0.616234,-4.385274,0.999996,0.000232,-0.004522,0.008772,-0.001943,0.009050,-0.004800,-81.852314,0.009055,
1780,290,-1.639615,-17.533319,0.999996,0.000253,-0.004791,0.010092,-0.000302,0.010098,-0.004797,-88.837854,0.010102,
1090,1460,0.416510,-4.172836,0.999997,0.000184,-0.003788,0.007840,0.001917,0.008148,-0.004096,80.876490,0.008148,
1840,790,-3.547034,-12.270496,0.999995,0.000275,-0.004880,0.009793,-0.000576,0.009815,-0.004902,-87.755292,0.009815,
1220,70,0.004927,-19.856480,0.999998,0.000185,-0.000347,0.006074,0.000044,0.006074,-0.000347,89.607764,0.006822,
1270,1670,-0.086647,-2.432045,0.999997,0.000196,-0.002215,0.007127,-0.000188,0.007130,-0.002218,-88.849420,0.007298,
1180,540,0.129214,-16.633575,0.999998,0.000183,-0.002629,0.006742,-0.000630,0.006784,-0.002671,-86.173469,0.006835,
1680,1110,-3.252763,-9.241629,0.999997,0.000202,-0.004465,0.010246,0.000953,0.010307,-0.004527,86.309075,0.010332,
770,790,2.782488,-12.560326,0.999997,0.000223,-0.005668,0.010960,0.001022,0.011023,-0.005731,86.497699,0.011026,
1680,1500,-1.915919,-5.009164,0.999995,0.000259,-0.005407,0.010452,-0.000271,0.010457,-0.005412,-89.020201,0.010459,
1120,1910,0.091493,-0.788154,0.999998,0.000148,-0.000960,0.006574,-0.000230,0.006581,-0.000967,-88.249536,0.007107,
1110,400,0.294040,-17.533238,0.999997,0.000235,-0.002606,0.007451,-0.000483,0.007474,-0.002629,-87.258315,0.007583,
1560,340,-0.855469,-17.629104,0.999997,0.000213,-0.003652,0.008994,0.000015,0.008994,-0.003652,89.933337,0.009046,
1850,1390,-3.161561,-6.667193,0.999997,0.000202,-0.005066,0.010081,0.000255,0.010085,-0.005071,89.036274,0.010085,
630,1520,2.662483,-5.287981,0.999995,0.000243,-0.005076,0.010206,0.000059,0.010206,-0.005076,89.779835,0.010206,
1900,500,-2.893948,-15.019535,0.999996,0.000000,-0.004949,0.010046,0.000030,0.010046,-0.004949,89.885951,0.010047,
1110,1990,0.031648,-0.278046,0.999997,0.000182,-0.000306,0.006209,-0.000348,0.006228,-0.000325,-86.948955,0.007011,
650,890,3.736549,-11.356679,0.999995,0.000262,-0.004598,0.009458,0.000648,0.009488,-0.004628,87.368081,0.009489,
650,1920,0.975826,-1.130464,0.999997,0.000267,-0.003870,0.010340,-0.002178,0.010666,-0.004197,-81.477291,0.010747,
1590,1430,-1.586580,-5.440735,0.999995,0.000247,-0.005948,0.010840,-0.000659,0.010865,-0.005974,-87.755243,0.010883,
1150,260,0.126883,-18.601803,0.999998,0.000144,-0.001658,0.006996,0.000015,0.006997,-0.001658,89.901556,0.007312,
610,330,2.134403,-16.879617,0.999996,0.000217,-0.004863,0.009882,-0.000121,0.009883,-0.004864,-89.529540,0.009883,
1640,1180,-2.830870,-8.457979,0.999995,0.000267,-0.005391,0.011170,0.001362,0.011281,-0.005503,85.328732,0.011282,
980,880,1.898376,-12.113047,0.999994,0.000314,-0.007126,0.013643,0.000318,0.013648,-0.007131,89.124049,0.013652,
590,570,2.970235,-14.388142,0.999996,0.000259,-0.005007,0.010217,0.000023,0.010217,-0.005007,89.912773,0.010218,
1070,390,0.390750,-17.553667,0.999996,0.000237,-0.002904,0.007825,-0.000535,0.007851,-0.002930,-87.153548,0.007935,
1320,1970,-0.033739,-0.400032,0.999998,0.000181,-0.000433,0.006219,0.000214,0.006226,-0.000440,88.160917,0.006949,
1080,130,0.110818,-19.456777,0.999998,0.000155,-0.000716,0.006642,0.000421,0.006666,-0.000740,86.732402,0.007308,
1100,510,0.361010,-16.683861,0.999996,0.000227,-0.003312,0.007663,-0.001236,0.007801,-0.003450,-83.653469,0.007818,
1330,1650,-0.232985,-2.628519,0.999997,0.000202,-0.002644,0.007355,-0.000595,0.007390,-0.002680,-86.607464,0.007483,
1860,1050,-4.116900,-9.882088,0.999997,0.000218,-0.004191,0.008673,0.000261,0.008678,-0.004196,88.836674,0.008680,
1150,1400,0.203674,-4.348529,0.999996,0.000233,-0.003074,0.006336,0.002031,0.006756,-0.003493,78.322928,0.006757,
1400,1170,-1.331891,-7.228084,0.999991,0.000382,-0.006587,0.012141,-0.003734,0.012858,-0.007304,-79.129563,0.012898,
1740,230,-1.202345,-18.260851,0.999995,0.000245,-0.004228,0.009859,-0.000916,0.009918,-0.004287,-86.294335,0.009948,
770,2020,0.096253,-0.122347,0.999996,0.000000,-0.000375,0.007304,-0.002202,0.007890,-0.000962,-75.083367,0.008610,
1270,1650,-0.089373,-2.576512,0.999997,0.000208,-0.002294,0.007107,-0.000196,0.007111,-0.002298,-88.804506,0.007258,
1820,70,-0.460009,-19.689951,0.999992,0.000335,-0.002877,0.010122,-0.003335,0.010927,-0.003683,-76.419881,0.011119,
920,1430,1.308491,-5.245858,0.999994,0.000266,-0.005930,0.010629,0.001066,0.010697,-0.005998,86.332510,0.010724,
1770,570,-2.441009,-14.707781,0.999995,0.000250,-0.005268,0.010315,0.000005,0.010315,-0.005268,89.980248,0.010316,
1200,70,0.010976,-19.854994,0.999998,0.000184,-0.000329,0.006100,0.000113,0.006102,-0.000331,88.992887,0.006864,
1590,920,-2.755723,-11.262735,0.999996,0.000228,-0.004978,0.011384,-0.001413,0.011505,-0.005099,-85.099027,0.011530,
1770,1240,-3.287585,-7.998700,0.999997,0.000217,-0.005106,0.010179,0.000978,0.010242,-0.005169,86.353567,0.010242,
1850,580,-2.883790,-14.357820,0.999996,0.000228,-0.005080,0.010173,-0.000052,0.010173,-0.005080,-89.803550,0.010173,
570,1780,2.121268,-2.891835,0.999985,0.000445,-0.004604,0.009534,-0.000034,0.009534,-0.004604,-89.860551,0.009536,
770,770,2.702682,-12.782118,0.999996,0.000240,-0.005750,0.010971,0.000924,0.011022,-0.005801,86.846287,0.011027,
1100,810,0.569313,-14.294104,0.999992,0.000340,-0.006297,0.008971,-0.004478,0.010188,-0.007513,-74.801813,0.010564,
1030,440,0.561357,-17.058066,0.999996,0.000230,-0.003346,0.008208,-0.000745,0.008256,-0.003394,-86.328290,0.008299,
1680,1700,-1.392522,-2.983500,0.999995,0.000250,-0.004516,0.009741,0.000064,0.009741,-0.004516,89.742076,0.009750,
1840,1850,-1.536891,-1.969376,0.999995,0.000297,-0.004876,0.010181,0.000493,0.010197,-0.004892,88.127525,0.010200,
1170,1510,0.157108,-3.572152,0.999997,0.000185,-0.002764,0.006810,0.000849,0.006885,-0.002839,84.969298,0.006920,
850,1550,1.439254,-4.264485,0.999995,0.000284,-0.005052,0.010064,0.000553,0.010085,-0.005072,87.906925,0.010085,
1700,1110,-3.341921,-9.250280,0.999996,0.000225,-0.004531,0.010146,0.000927,0.010205,-0.004589,86.398575,0.010222,
960,510,0.914108,-16.223913,0.999998,0.000207,-0.004652,0.009391,-0.001122,0.009480,-0.004741,-85.460650,0.009480,
1560,320,-0.815619,-17.807002,0.999997,0.000229,-0.003436,0.008853,-0.000094,0.008853,-0.003437,-89.560903,0.008927,
1850,1630,-2.423990,-4.222130,0.999995,0.000271,-0.005000,0.010024,-0.000125,0.010025,-0.005001,-89.522281,0.010025,
1110,1970,0.053612,-0.405506,0.999998,0.000179,-0.000441,0.006327,-0.000316,0.006342,-0.000456,-87.331487,0.007074,
610,310,2.067010,-17.078329,0.999997,0.000225,-0.004869,0.009994,-0.000042,0.009994,-0.004869,-89.837235,0.009995,
670,1940,0.764553,-0.886712,0.999996,0.000248,-0.003158,0.010000,-0.002820,0.010579,-0.003737,-78.399895,0.010730,
1900,480,-2.835833,-15.222556,0.999995,0.000000,-0.004882,0.010127,0.000019,0.010127,-0.004882,89.928570,0.010129,
1070,370,0.374622,-17.708880,0.999996,0.000233,-0.002715,0.007780,-0.000375,0.007794,-0.002728,-87.956181,0.007910,
980,860,1.757171,-12.393130,0.999994,0.000315,-0.007488,0.013546,0.000000,0.013546,-0.007488,89.999089,0.013571,
1800,1560,-2.376790,-4.773818,0.999996,0.000254,-0.005122,0.010181,-0.000146,0.010182,-0.005123,-89.453807,0.010182,
1460,710,-0.961502,-14.429022,0.999996,0.000268,-0.006597,0.010935,0.002239,0.011217,-0.006879,82.834894,0.011312,
830,400,1.298318,-16.875002,0.999995,0.000265,-0.004550,0.009674,-0.000235,0.009678,-0.004554,-89.053813,0.009684,
1640,1160,-2.910506,-8.679061,0.999996,0.000247,-0.005103,0.010952,0.001325,0.011061,-0.005212,85.312586,0.011067,
1290,260,-0.093888,-18.606613,0.999997,0.000180,-0.001516,0.006926,-0.000050,0.006926,-0.001517,-89.663135,0.007282,
650,870,3.676745,-11.549493,0.999996,0.000236,-0.004682,0.009676,0.000807,0.009722,-0.004727,86.792915,0.009723,
1330,1630,-0.242231,-2.777908,0.999997,0.000206,-0.002708,0.007399,-0.000620,0.007437,-0.002745,-86.504286,0.007521,
1090,1520,0.404901,-3.705445,0.999995,0.000238,-0.003554,0.007843,0.001509,0.008039,-0.003751,82.582571,0.008045,
1770,810,-3.269800,-12.211724,0.999995,0.000264,-0.005076,0.010238,-0.000974,0.010300,-0.005138,-86.376775,0.010300,
770,160,0.715872,-19.010597,0.999996,0.000226,-0.002914,0.009024,0.001807,0.009292,-0.003182,81.578894,0.009444,
1030,420,0.545535,-17.221239,0.999996,0.000270,-0.003221,0.008158,-0.000637,0.008193,-0.003256,-86.807800,0.008251,
1730,1040,-3.567616,-9.956953,0.999996,0.000225,-0.004264,0.009771,0.000262,0.009776,-0.004269,88.929584,0.009802,
1120,690,0.304859,-15.423674,0.999996,0.000248,-0.003940,0.007102,-0.003010,0.007870,-0.004707,-75.700850,0.007920,
1740,190,-1.011523,-18.655210,0.999996,0.000199,-0.003941,0.009773,-0.001348,0.009904,-0.004072,-84.438387,0.009956,
1400,1970,-0.068380,-0.410356,0.999998,0.000190,-0.000539,0.006413,0.000482,0.006446,-0.000572,86.052164,0.007136,
1470,1360,-0.996479,-5.630540,0.999997,0.000234,-0.006441,0.010872,-0.002062,0.011114,-0.006684,-83.301978,0.011190,
1260,70,-0.011051,-19.854876,0.999998,0.000168,-0.000329,0.006104,-0.000091,0.006105,-0.000330,-89.190424,0.006867,
570,1820,1.949018,-2.506559,0.999997,0.000233,-0.004854,0.009764,-0.000151,0.009765,-0.004856,-89.409697,0.009765,
730,1530,2.114269,-4.866529,0.999997,0.000242,-0.005246,0.010323,0.000188,0.010325,-0.005248,89.306622,0.010325,
1070,1160,1.376521,-7.228289,0.999984,0.000434,-0.005674,0.011506,0.004731,0.012723,-0.006890,75.578299,0.012738,
1040,1690,0.457695,-2.469846,0.999996,0.000232,-0.002994,0.008094,0.000424,0.008111,-0.003011,87.811681,0.008200,
1710,460,-1.822512,-16.035641,0.999995,0.000244,-0.005016,0.010118,0.000246,0.010122,-0.005020,89.068043,0.010122,
1820,1850,-1.440938,-1.884892,0.999995,0.000269,-0.004612,0.010273,0.000850,0.010322,-0.004660,86.741576,0.010338,
1590,1410,-1.640328,-5.660632,0.999996,0.000244,-0.006135,0.011015,-0.000560,0.011033,-0.006153,-88.132681,0.011058,
890,1750,0.825710,-2.243781,0.999996,0.000233,-0.003559,0.008862,-0.000170,0.008865,-0.003562,-89.213991,0.008921,
690,1110,3.675312,-9.291316,0.999997,0.000217,-0.004496,0.009675,-0.000750,0.009715,-0.004536,-86.977163,0.009722,
1020,1180,1.558001,-7.651466,0.999990,0.000368,-0.007513,0.013929,0.001153,0.013991,-0.007575,86.930275,0.014007,
770,750,2.624876,-13.000783,0.999993,0.000301,-0.005791,0.010910,0.000778,0.010946,-0.005827,87.338246,0.010954,
1540,1750,-0.722990,-2.186537,0.999998,0.000198,-0.003054,0.008533,0.000162,0.008535,-0.003056,89.200583,0.008649,
1110,1950,0.064083,-0.530748,0.999998,0.000184,-0.000601,0.006411,-0.000321,0.006426,-0.000616,-87.384902,0.007091,
1270,1630,-0.093388,-2.717958,0.999998,0.000181,-0.002354,0.007079,-0.000200,0.007083,-0.002359,-88.788938,0.007213,
1080,810,0.704804,-14.035955,0.999993,0.000311,-0.006937,0.010379,-0.004118,0.011309,-0.007867,-77.280486,0.011594,
1610,1580,-1.361626,-3.954968,0.999995,0.000258,-0.004894,0.009907,-0.000514,0.009925,-0.004912,-88.013890,0.009925,
1570,920,-2.657308,-11.294344,0.999996,0.000242,-0.005072,0.011684,-0.001444,0.011808,-0.005195,-85.111144,0.011836,
1220,1260,0.030624,-4.682750,0.999995,0.000266,-0.002986,0.002154,0.000632,0.002230,-0.003062,83.097073,0.003167,
1850,650,-3.109879,-13.643534,0.999996,0.000222,-0.005062,0.010125,-0.000217,0.010128,-0.005066,-89.182609,0.010128,
1380,680,-0.465754,-15.263218,0.999995,0.000250,-0.004794,0.008382,0.002995,0.009031,-0.005443,77.775019,0.009095,
960,610,1.053369,-15.245879,0.999994,0.000283,-0.005603,0.010176,-0.001486,0.010315,-0.005742,-84.667028,0.010337,
850,1530,1.484518,-4.468603,0.999994,0.000274,-0.005263,0.010244,0.000590,0.010267,-0.005286,87.824049,0.010268,
1070,350,0.358079,-17.863001,0.999997,0.000235,-0.002545,0.007656,-0.000259,0.007662,-0.002551,-88.546088,0.007804,
1510,1970,-0.141908,-0.436399,0.999998,0.000186,-0.000836,0.006851,0.000957,0.006968,-0.000953,83.005266,0.007556,
1900,210,-1.857154,-17.864506,0.999996,0.000000,-0.004892,0.009680,-0.000297,0.009686,-0.004898,-88.831944,0.009686,
1560,300,-0.770075,-17.982214,0.999997,0.000201,-0.003228,0.008758,-0.000266,0.008764,-0.003234,-88.727443,0.008864,
760,1330,2.588700,-6.910082,0.999994,0.000291,-0.005739,0.010861,-0.000624,0.010884,-0.005763,-87.851303,0.010891,
1600,1430,-1.649621,-5.475299,0.999996,0.000231,-0.005976,0.010856,-0.000569,0.010875,-0.005995,-88.066649,0.010894,
1460,690,-0.925780,-14.646807,0.999995,0.000307,-0.006298,0.010608,0.002238,0.010900,-0.006589,82.585269,0.010979,
1680,1940,-0.468989,-0.743005,0.999995,0.000274,-0.002165,0.008459,0.002059,0.008844,-0.002550,79.405437,0.009104,
1330,1610,-0.249237,-2.925492,0.999998,0.000190,-0.002770,0.007365,-0.000673,0.007409,-0.002815,-86.218466,0.007480,
1420,1440,-0.624695,-4.557945,0.999996,0.000241,-0.004709,0.008869,-0.002099,0.009187,-0.005026,-81.409525,0.009200,
610,510,2.688082,-15.065431,0.999995,0.000256,-0.005050,0.010116,-0.000052,0.010116,-0.005050,-89.803429,0.010116,
650,850,3.613436,-11.743654,0.999996,0.000240,-0.004740,0.009639,0.000794,0.009683,-0.004784,86.850717,0.009683,
580,1910,1.384082,-1.561865,0.999995,0.000265,-0.005303,0.010269,-0.001413,0.010397,-0.005430,-84.857234,0.010400,
1030,200,0.269280,-18.945417,0.999997,0.000205,-0.001675,0.007266,0.000392,0.007283,-0.001692,87.493422,0.007623,
1170,1470,0.155350,-3.841214,0.999997,0.000225,-0.002800,0.006519,0.001144,0.006658,-0.002938,83.104925,0.006673,
1800,1540,-2.433237,-4.977847,0.999996,0.000285,-0.005146,0.010191,-0.000140,0.010192,-0.005148,-89.477588,0.010192,
1540,1110,-2.627124,-9.110493,0.999995,0.000289,-0.004733,0.012040,0.001385,0.012153,-0.004847,85.311910,0.012236,
1270,260,-0.062536,-18.612630,0.999998,0.000160,-0.001556,0.006902,0.000018,0.006902,-0.001556,89.875235,0.007241,
1640,1140,-2.984071,-8.896905,0.999996,0.000252,-0.004822,0.010855,0.001336,0.010968,-0.004935,85.164902,0.010986,
1720,190,-0.940419,-18.697193,0.999996,0.000218,-0.003276,0.009562,-0.001620,0.009763,-0.003477,-82.918658,0.009897,
980,840,1.636962,-12.665845,0.999993,0.000331,-0.007714,0.013355,-0.000370,0.013361,-0.007721,-88.993937,0.013415,
1200,470,0.078062,-17.129184,0.999998,0.000184,-0.002443,0.006918,-0.000298,0.006928,-0.002452,-88.177623,0.007026,
1890,1490,-3.041154,-5.772752,0.999995,0.000260,-0.005016,0.010209,0.000014,0.010209,-0.005016,89.945853,0.010209,
960,70,0.102089,-19.828391,0.999999,0.000216,-0.000713,0.006727,0.000913,0.006837,-0.000823,83.107632,0.007466,
630,1820,1.657315,-2.246193,0.999995,0.000288,-0.004843,0.010098,-0.000363,0.010107,-0.004852,-88.607145,0.010109,
1270,1610,-0.094822,-2.859739,0.999998,0.000168,-0.002393,0.007024,-0.000262,0.007031,-0.002400,-88.410124,0.007148,
1640,370,-1.250233,-17.148189,0.999995,0.000250,-0.004374,0.009573,-0.000001,0.009573,-0.004374,-89.996114,0.009585,
1550,1360,-1.526403,-6.056566,0.999994,0.000283,-0.006649,0.011421,-0.000746,0.011452,-0.006680,-87.639793,0.011504,
770,730,2.548997,-13.220584,0.999995,0.000287,-0.005822,0.010960,0.000646,0.010985,-0.005847,87.799984,0.010992,
1070,1200,1.043362,-6.752315,0.999995,0.000269,-0.007201,0.011360,0.003455,0.011983,-0.007824,79.789750,0.012168,
880,950,2.843563,-10.930076,0.999994,0.000298,-0.004447,0.011176,0.001217,0.011270,-0.004541,85.573114,0.011341,
1170,400,0.141384,-17.608792,0.999998,0.000167,-0.002280,0.007182,-0.000181,0.007186,-0.002284,-88.905079,0.007343,
1110,1930,0.086664,-0.663802,0.999998,0.000192,-0.000744,0.006483,-0.000319,0.006497,-0.000758,-87.474864,0.007105,
1590,1390,-1.697416,-5.883441,0.999996,0.000226,-0.006290,0.011174,-0.000476,0.011187,-0.006303,-88.438656,0.011217,
1860,1030,-4.132333,-10.057832,0.999997,0.000226,-0.004174,0.008738,0.000055,0.008739,-0.004175,89.756159,0.008742,
1760,1760,-1.561927,-2.613372,0.999997,0.000235,-0.004824,0.010056,0.000276,0.010061,-0.004829,88.939288,0.010064,
1360,790,-0.486363,-14.510026,0.999994,0.000276,-0.005965,0.008602,0.004425,0.009841,-0.007204,74.359039,0.010188,
1540,650,-1.346046,-14.655752,0.999996,0.000252,-0.006161,0.010935,0.001091,0.011004,-0.006231,86.364777,0.011036,
1120,1590,0.291231,-3.096110,0.999997,0.000177,-0.002815,0.007422,0.000734,0.007474,-0.002867,85.920740,0.007541,
940,440,0.898322,-16.815994,0.999998,0.000192,-0.004134,0.009098,-0.000687,0.009134,-0.004170,-87.034175,0.009146,
860,1850,0.642971,-1.427751,0.999994,0.000277,-0.002785,0.008558,-0.001021,0.008649,-0.002876,-84.897661,0.008810,
1420,330,-0.413875,-17.972906,0.999995,0.000258,-0.002810,0.007777,0.000264,0.007784,-0.002816,88.575015,0.007882,
1850,610,-2.979379,-14.052166,0.999996,0.000253,-0.005051,0.010146,-0.000083,0.010146,-0.005052,-89.686458,0.010146,
1000,1970,0.108602,-0.424103,0.999998,0.000158,-0.000507,0.006660,-0.000783,0.006744,-0.000592,-83.837122,0.007469,
1560,280,-0.722332,-18.160702,0.999997,0.000195,-0.003008,0.008658,-0.000419,0.008673,-0.003023,-87.944176,0.008805,
610,750,3.469251,-12.633037,0.999996,0.000238,-0.004924,0.009788,0.000422,0.009800,-0.004936,88.358229,0.009800,
1070,330,0.339245,-18.017221,0.999997,0.000209,-0.002386,0.007620,-0.000144,0.007622,-0.002388,-89.176613,0.007797,
1330,1590,-0.256067,-3.071449,0.999998,0.000184,-0.002852,0.007311,-0.000755,0.007366,-0.002908,-85.774885,0.007421,
850,1510,1.531131,-4.677094,0.999995,0.000266,-0.005410,0.010364,0.000591,0.010386,-0.005432,87.855865,0.010390,
750,1460,2.208750,-5.537541,0.999996,0.000228,-0.005474,0.010573,0.000042,0.010573,-0.005474,89.849716,0.010575,
650,830,3.550063,-11.938262,0.999996,0.000245,-0.004792,0.009626,0.000747,0.009665,-0.004831,87.041450,0.009665,
1680,960,-3.290469,-10.765196,0.999996,0.000246,-0.004394,0.010232,-0.000882,0.010285,-0.004447,-86.561926,0.010316,
1530,1380,-1.339472,-5.735163,0.999995,0.000281,-0.006440,0.011185,-0.001146,0.011259,-0.006514,-86.296340,0.011305,
1900,200,-1.805786,-17.962444,0.999996,0.000000,-0.004907,0.009755,-0.000338,0.009763,-0.004915,-88.679714,0.009763,
630,180,1.363699,-18.478742,0.999995,0.000260,-0.004800,0.010357,0.000879,0.010408,-0.004850,86.691476,0.010416,
1800,1520,-2.492038,-5.184272,0.999995,0.000291,-0.005155,0.010249,-0.000065,0.010250,-0.005155,-89.757840,0.010250,
1250,260,-0.029145,-18.617210,0.999998,0.000189,-0.001618,0.006875,0.000075,0.006876,-0.001618,89.495799,0.007190,
930,1140,2.437319,-8.726995,0.999995,0.000275,-0.005525,0.012515,-0.001435,0.012629,-0.005639,-85.480681,0.012653,
1640,1120,-3.052155,-9.114527,0.999996,0.000259,-0.004566,0.010622,0.001114,0.010704,-0.004648,85.827117,0.010734,
1070,1180,1.194801,-6.994157,0.999992,0.000324,-0.006667,0.011427,0.003797,0.012191,-0.007432,78.615313,0.012288,
1260,690,-0.059036,-15.788941,0.999999,0.000120,-0.002209,0.004695,0.001006,0.004838,-0.002352,81.876626,0.004839,
1270,1590,-0.095300,-2.998980,0.999998,0.000171,-0.002437,0.006938,-0.000277,0.006946,-0.002446,-88.310783,0.007046,
890,200,0.539297,-18.816238,0.999996,0.000230,-0.002520,0.008252,0.000890,0.008325,-0.002593,85.306083,0.008520,
980,820,1.523360,-12.933584,0.999992,0.000347,-0.007808,0.013140,-0.000697,0.013163,-0.007831,-88.095541,0.013242,
1170,550,0.156613,-16.553797,0.999997,0.000182,-0.002769,0.006723,-0.000879,0.006803,-0.002849,-84.753774,0.006833,
1550,1340,-1.587807,-6.288340,0.999994,0.000285,-0.006808,0.011697,-0.000623,0.011718,-0.006829,-88.073541,0.011771,
1640,430,-1.403513,-16.557063,0.999994,0.000266,-0.004732,0.009858,0.000315,0.009865,-0.004738,88.763530,0.009867,
1420,70,-0.063400,-19.842746,0.999998,0.000168,-0.000507,0.006409,-0.000563,0.006455,-0.000553,-85.374526,0.007156,
630,1800,1.746772,-2.449062,0.999995,0.000262,-0.004848,0.010176,-0.000280,0.010182,-0.004854,-88.931556,0.010185,
860,950,2.930881,-10.911918,0.999996,0.000250,-0.004424,0.010898,0.001115,0.010979,-0.004505,85.858111,0.011038,
790,200,0.828518,-18.677424,0.999996,0.000243,-0.003563,0.009177,0.001203,0.009290,-0.003676,84.651314,0.009357,
1820,1050,-3.950060,-9.872877,0.999997,0.000229,-0.004283,0.009087,0.000287,0.009093,-0.004289,88.771147,0.009098,
770,710,2.476952,-13.441053,0.999995,0.000298,-0.005825,0.010967,0.000528,0.010983,-0.005842,88.199823,0.010991,
820,500,1.583295,-15.846056,0.999996,0.000224,-0.005152,0.010163,-0.000429,0.010175,-0.005164,-88.395339,0.010175,
1590,1370,-1.757177,-6.108945,0.999995,0.000247,-0.006423,0.011335,-0.000378,0.011343,-0.006431,-88.780102,0.011377,
1390,660,-0.506415,-15.370102,0.999997,0.000198,-0.004717,0.008506,0.002720,0.009043,-0.005255,78.820210,0.009083,
1540,630,-1.301282,-14.873452,0.999995,0.000235,-0.005947,0.010668,0.001104,0.010742,-0.006020,86.214119,0.010768,
1020,1160,1.713034,-7.939979,0.999991,0.000333,-0.007065,0.014207,0.001001,0.014254,-0.007112,87.311310,0.014254,
1900,190,-1.751208,-18.059193,0.999996,0.000000,-0.004912,0.009831,-0.000490,0.009847,-0.004928,-88.100383,0.009847,
1330,1790,-0.159187,-1.606897,0.999998,0.000174,-0.001870,0.007107,-0.000064,0.007108,-0.001871,-89.592407,0.007369,
1760,1720,-1.698625,-3.017296,0.999996,0.000235,-0.004826,0.010009,0.000045,0.010009,-0.004826,89.826016,0.010011,
730,1460,2.318082,-5.599455,0.999996,0.000232,-0.005430,0.010510,-0.000014,0.010510,-0.005430,-89.949663,0.010512,
1110,1910,0.099812,-0.791501,0.999998,0.000157,-0.000899,0.006612,-0.000278,0.006622,-0.000909,-87.884709,0.007179,
1620,1990,-0.164274,-0.320211,0.999997,0.000223,-0.000615,0.007298,0.001772,0.007677,-0.000994,77.935060,0.008350,
1820,1810,-1.639917,-2.296925,0.999996,0.000276,-0.004711,0.010172,0.000489,0.010188,-0.004728,88.118432,0.010197,
920,1510,1.158762,-4.420678,0.999994,0.000314,-0.005171,0.010002,0.001054,0.010075,-0.005244,86.045172,0.010078,
600,1700,2.266757,-3.564534,0.999997,0.000214,-0.004887,0.009899,0.000112,0.009900,-0.004888,89.565894,0.009900,
1070,310,0.321743,-18.168495,0.999997,0.000215,-0.002231,0.007536,-0.000084,0.007537,-0.002232,-89.508963,0.007742,
650,810,3.486544,-12.131077,0.999995,0.000252,-0.004876,0.009815,0.000765,0.009855,-0.004916,87.028871,0.009855,
1240,690,-0.017169,-15.816911,0.999999,0.000140,-0.002061,0.004473,0.000356,0.004492,-0.002081,86.887421,0.004496,
730,1510,2.173393,-5.075015,0.999996,0.000256,-0.005333,0.010326,0.000154,0.010327,-0.005335,89.435586,0.010329,
870,680,1.760609,-14.095200,0.999995,0.000246,-0.006402,0.011264,-0.000356,0.011271,-0.006410,-88.847474,0.011307,
910,800,1.943885,-12.823122,0.999995,0.000263,-0.006992,0.012381,0.000394,0.012389,-0.007000,88.835200,0.012424,
1040,1670,0.480442,-2.633670,0.999995,0.000246,-0.003078,0.008087,0.000496,0.008109,-0.003100,87.462586,0.008184,
1220,1970,0.005436,-0.396306,0.999998,0.000172,-0.000485,0.006158,-0.000023,0.006158,-0.000485,-89.799737,0.006848,
640,30,0.114560,-20.052460,0.999993,0.000000,-0.002564,0.008689,0.003409,0.009641,-0.003516,74.392851,0.009758,
850,1490,1.575883,-4.887656,0.999995,0.000260,-0.005520,0.010428,0.000578,0.010449,-0.005541,87.927925,0.010455,
890,1730,0.872908,-2.426641,0.999996,0.000240,-0.003766,0.009080,-0.000004,0.009080,-0.003766,-89.983299,0.009124,
690,1000,3.741388,-10.342491,0.999996,0.000221,-0.004319,0.009511,0.000306,0.009518,-0.004326,88.734670,0.009531,
1730,170,-0.868863,-18.873015,0.999996,0.000245,-0.003331,0.009500,-0.001783,0.009743,-0.003574,-82.233238,0.009858,
1170,530,0.155648,-16.690241,0.999997,0.000189,-0.002723,0.006924,-0.000768,0.006984,-0.002783,-85.478300,0.007032,
1410,1360,-0.635442,-5.231836,0.999993,0.000295,-0.005647,0.009480,-0.002965,0.010040,-0.006207,-79.295766,0.010133,
1380,140,-0.118675,-19.394021,0.999998,0.000170,-0.000782,0.006651,-0.000396,0.006672,-0.000803,-86.956308,0.007286,
1050,1200,1.194125,-7.021838,0.999993,0.000310,-0.007392,0.012567,0.002791,0.012950,-0.007775,82.188277,0.013037,
1800,790,-3.349751,-12.358580,0.999996,0.000256,-0.005039,0.010046,-0.000775,0.010086,-0.005078,-87.066967,0.010086,
870,200,0.597478,-18.789119,0.999996,0.000276,-0.002758,0.008427,0.000962,0.008509,-0.002840,85.119755,0.008664,
1270,1570,-0.096647,-3.139790,0.999998,0.000178,-0.002482,0.006946,-0.000301,0.006956,-0.002491,-88.175255,0.007049,
1850,70,-0.590744,-19.575573,0.999993,0.000308,-0.004506,0.011050,-0.002761,0.011526,-0.004981,-80.226596,0.011561,
1870,1610,-2.582820,-4.490104,0.999996,0.000247,-0.004951,0.010043,-0.000075,0.010044,-0.004951,-89.713023,0.010044,
1420,1420,-0.636071,-4.732237,0.999995,0.000250,-0.004946,0.008963,-0.002311,0.009337,-0.005320,-80.810110,0.009367,
1800,1500,-2.554208,-5.390343,0.999996,0.000242,-0.005177,0.010264,-0.000027,0.010264,-0.005177,-89.899584,0.010264,
1560,480,-1.129207,-16.318513,0.999997,0.000227,-0.004593,0.009639,0.000687,0.009672,-0.004626,87.243005,0.009675,
960,490,0.886301,-16.414045,0.999997,0.000225,-0.004433,0.009277,-0.001013,0.009351,-0.004508,-85.797414,0.009353,
770,690,2.403359,-13.658949,0.999995,0.000290,-0.005799,0.010890,0.000388,0.010899,-0.005808,88.667839,0.010907,
980,800,1.422123,-13.195198,0.999993,0.000315,-0.007749,0.012799,-0.001036,0.012851,-0.007801,-87.121416,0.012949,
1020,1140,1.878446,-8.232222,0.999991,0.000341,-0.006628,0.014676,0.001008,0.014724,-0.006676,87.297396,0.014745,
1690,1700,-1.437748,-3.011675,0.999995,0.000271,-0.004443,0.009782,0.000122,0.009783,-0.004444,89.507087,0.009797,
1340,80,-0.043921,-19.787489,0.999998,0.000164,-0.000456,0.006243,-0.000290,0.006255,-0.000469,-87.528421,0.006968,
690,1310,3.049255,-7.284501,0.999997,0.000241,-0.005289,0.010371,-0.000722,0.010405,-0.005322,-87.364132,0.010406,
1900,180,-1.692308,-18.158025,0.999995,0.000000,-0.004911,0.009938,-0.000627,0.009964,-0.004937,-87.585550,0.009964,
730,1440,2.381326,-5.810150,0.999996,0.000226,-0.005471,0.010513,-0.000096,0.010514,-0.005472,-89.656471,0.010517,
820,480,1.533039,-16.048030,0.999995,0.000228,-0.005020,0.010032,-0.000425,0.010044,-0.005032,-88.385311,0.010044,
1390,640,-0.499385,-15.541739,0.999997,0.000209,-0.004529,0.008348,0.002556,0.008837,-0.005018,79.172753,0.008864,
1380,890,-1.266391,-13.262897,0.999994,0.000287,-0.004755,0.009783,0.005090,0.011388,-0.006360,72.499794,0.011414,
1680,1730,-1.302167,-2.686808,0.999997,0.000256,-0.004430,0.009800,0.000180,0.009803,-0.004432,89.276523,0.009818,
1590,1350,-1.820683,-6.337597,0.999996,0.000235,-0.006538,0.011544,-0.000227,0.011547,-0.006541,-89.280436,0.011581,
1770,1940,-0.690526,-0.849722,0.999995,0.000236,-0.003440,0.009652,0.002466,0.010101,-0.003889,79.680039,0.010190,
620,1070,4.032172,-9.701092,0.999997,0.000243,-0.004245,0.008815,-0.000190,0.008818,-0.004248,-89.168093,0.008820,
1760,1180,-3.436501,-8.590535,0.999996,0.000254,-0.004861,0.010065,0.001045,0.010138,-0.004934,86.013272,0.010139,
1110,1890,0.120914,-0.927461,0.999998,0.000177,-0.001034,0.006737,-0.000250,0.006745,-0.001042,-88.162169,0.007262,
1520,650,-1.221005,-14.749825,0.999997,0.000252,-0.006152,0.010741,0.001320,0.010843,-0.006254,85.558969,0.010886,
1680,920,-3.193856,-11.174174,0.999997,0.000242,-0.004719,0.010425,-0.001092,0.010503,-0.004797,-85.895775,0.010517,
1220,1240,0.050229,-4.719024,0.999995,0.000257,-0.004241,0.002185,0.000508,0.002225,-0.004281,85.507031,0.004282,
1120,1330,0.310424,-4.985474,0.999996,0.000260,-0.004340,0.007065,0.003599,0.008105,-0.005381,73.870653,0.008249,
1860,1970,-0.781492,-0.807064,0.999996,0.000205,-0.004602,0.011337,0.002611,0.011754,-0.005019,80.928787,0.011795,
1470,250,-0.419037,-18.534072,0.999997,0.000207,-0.002095,0.007791,-0.000360,0.007804,-0.002108,-87.918843,0.008075,
1510,1950,-0.183941,-0.574236,0.999998,0.000193,-0.001111,0.007080,0.000946,0.007188,-0.001219,83.499091,0.007693,
580,270,2.054058,-17.356359,0.999997,0.000210,-0.004663,0.009717,0.000045,0.009717,-0.004663,89.821611,0.009720,
1220,690,0.023910,-15.813173,0.999998,0.000164,-0.002065,0.004503,-0.000493,0.004540,-0.002101,-85.730434,0.004544,
600,1660,2.399201,-3.966690,0.999996,0.000239,-0.004933,0.009967,0.000103,0.009967,-0.004933,89.604851,0.009967,
940,420,0.870221,-16.994565,0.999997,0.000208,-0.003883,0.008984,-0.000540,0.009007,-0.003906,-87.600463,0.009033,
1070,290,0.300402,-18.318358,0.999997,0.000230,-0.002093,0.007498,0.000009,0.007498,-0.002093,89.946828,0.007738,
850,140,0.435216,-19.265770,0.999997,0.000227,-0.001855,0.008003,0.001453,0.008213,-0.002064,81.784925,0.008545,
650,790,3.413168,-12.330669,0.999996,0.000233,-0.004966,0.009997,0.000767,0.010036,-0.005005,87.073685,0.010036,
1810,660,-2.940308,-13.656849,0.999997,0.000220,-0.005168,0.010273,-0.000300,0.010279,-0.005174,-88.887922,0.010279,
820,1390,2.023696,-6.072463,0.999996,0.000263,-0.006030,0.010990,0.000020,0.010990,-0.006030,89.931299,0.011007,
1630,920,-2.953176,-11.218220,0.999996,0.000235,-0.004774,0.010966,-0.001346,0.011081,-0.004888,-85.147987,0.011106,
850,1470,1.623098,-5.094837,0.999995,0.000265,-0.005640,0.010549,0.000563,0.010569,-0.005660,88.009273,0.010578,
1170,510,0.156205,-16.830853,0.999997,0.000191,-0.002676,0.006964,-0.000650,0.007008,-0.002719,-86.160643,0.007066,
990,200,0.329299,-18.916354,0.999997,0.000191,-0.001679,0.007490,0.000596,0.007528,-0.001718,86.293981,0.007891,
1380,120,-0.096969,-19.525091,0.999998,0.000173,-0.000656,0.006585,-0.000450,0.006613,-0.000684,-86.456892,0.007273,
1270,1550,-0.097694,-3.278155,0.999997,0.000182,-0.002512,0.006858,-0.000359,0.006872,-0.002526,-87.811836,0.006952,
1840,1980,-0.592025,-0.605155,0.999995,0.000253,-0.004499,0.010778,0.002651,0.011225,-0.004946,80.430426,0.011251,
980,780,1.338517,-13.446412,0.999993,0.000306,-0.007611,0.012466,-0.001271,0.012546,-0.007691,-86.392434,0.012653,
1620,430,-1.309686,-16.618512,0.999996,0.000224,-0.004673,0.009787,0.000378,0.009797,-0.004683,88.504950,0.009800,
920,1850,0.488831,-1.353436,0.999997,0.000217,-0.002079,0.008075,-0.000858,0.008147,-0.002151,-85.205522,0.008443,
1020,1120,2.035440,-8.524525,0.999992,0.000330,-0.006205,0.015019,0.001069,0.015073,-0.006259,87.124045,0.015145,
1800,1480,-2.613074,-5.595517,0.999996,0.000251,-0.005187,0.010295,0.000020,0.010295,-0.005187,89.926872,0.010295,
630,2020,0.195844,-0.183301,0.999996,0.000000,-0.003687,0.008785,-0.003025,0.009480,-0.004382,-77.059682,0.009489,
1830,420,-2.307684,-16.053389,0.999996,0.000250,-0.004998,0.010056,0.000129,0.010057,-0.005000,89.510119,0.010057,
1420,1400,-0.651592,-4.921593,0.999995,0.000276,-0.005250,0.009205,-0.002517,0.009631,-0.005676,-80.398815,0.009682,
1680,1710,-1.362921,-2.885548,0.999996,0.000234,-0.004482,0.009788,0.000113,0.009789,-0.004483,89.546901,0.009801,
690,1550,2.265384,-4.789051,0.999995,0.000260,-0.005163,0.010246,0.000139,0.010247,-0.005164,89.482628,0.010247,
730,1710,1.601620,-3.029919,0.999996,0.000239,-0.004798,0.009989,-0.000097,0.009990,-0.004799,-89.622908,0.009992,
1300,1970,-0.028141,-0.398437,0.999998,0.000173,-0.000342,0.006203,0.000184,0.006208,-0.000347,88.390084,0.006976,
1360,1710,-0.278305,-2.221183,0.999996,0.000251,-0.002309,0.007412,-0.000258,0.007419,-0.002316,-88.481240,0.007591,
770,670,2.334083,-13.880597,0.999996,0.000263,-0.005761,0.010822,0.000240,0.010825,-0.005764,89.172570,0.010833,
890,1710,0.920098,-2.608428,0.999997,0.000240,-0.003991,0.009091,0.000127,0.009092,-0.003992,89.445139,0.009114,
820,460,1.488916,-16.250083,0.999996,0.000217,-0.004862,0.010016,-0.000379,0.010026,-0.004871,-88.543028,0.010027,
1330,1320,-0.262588,-4.951403,0.999995,0.000274,-0.003997,0.006427,-0.003584,0.007541,-0.005111,-72.742677,0.007698,
1760,1160,-3.500484,-8.795690,0.999996,0.000241,-0.004754,0.009881,0.000934,0.009941,-0.004813,86.361496,0.009943,
1100,1330,0.406574,-5.142928,0.999996,0.000256,-0.004982,0.008022,0.003646,0.008974,-0.005934,75.358958,0.009128,
900,1650,1.007584,-3.138244,0.999997,0.000182,-0.004213,0.009287,0.000414,0.009300,-0.004226,88.244639,0.009313,
1900,170,-1.627394,-18.259856,0.999996,0.000000,-0.004911,0.010077,-0.000706,0.010110,-0.004944,-87.308028,0.010111,
1120,360,0.246399,-17.849611,0.999997,0.000228,-0.002466,0.007419,-0.000361,0.007433,-0.002479,-87.912852,0.007569,
1200,690,0.065886,-15.783032,0.999998,0.000154,-0.002271,0.004746,-0.001130,0.004923,-0.002448,-81.072090,0.004923,
1730,410,-1.784901,-16.479274,0.999996,0.000256,-0.004913,0.010154,0.000162,0.010155,-0.004915,89.385712,0.010157,
1790,980,-3.799237,-10.528461,0.999997,0.000194,-0.004332,0.009327,-0.000231,0.009331,-0.004336,-89.031045,0.009339,
1420,1170,-1.474142,-7.516269,0.999994,0.000286,-0.006993,0.013717,-0.002521,0.014020,-0.007295,-83.158804,0.014024,
730,2010,0.156372,-0.203629,0.999997,0.000218,-0.000712,0.007922,-0.002822,0.008763,-0.001552,-73.411171,0.009352,
710,1780,1.452291,-2.387523,0.999995,0.000262,-0.004755,0.010025,-0.000422,0.010037,-0.004767,-88.365947,0.010041,
650,770,3.343701,-12.534409,0.999996,0.000215,-0.004993,0.009974,0.000695,0.010006,-0.005025,87.347582,0.010006,
1330,710,-0.257791,-15.369065,0.999996,0.000222,-0.003788,0.006582,0.003196,0.007488,-0.004694,74.177880,0.007568,
1070,270,0.280484,-18.469694,0.999997,0.000221,-0.001958,0.007399,0.000087,0.007400,-0.001959,89.465839,0.007668,
1500,650,-1.101015,-14.847039,0.999995,0.000271,-0.006054,0.010533,0.001605,0.010687,-0.006208,84.525338,0.010734,
1170,490,0.154045,-16.970354,0.999997,0.000193,-0.002645,0.007004,-0.000537,0.007034,-0.002674,-86.826104,0.007101,
1380,100,-0.075594,-19.655604,0.999998,0.000172,-0.000490,0.006440,-0.000423,0.006465,-0.000515,-86.517518,0.007186,
1850,1360,-3.264307,-6.970663,0.999995,0.000241,-0.005028,0.010060,0.000311,0.010066,-0.005034,88.820314,0.010066,
1270,1530,-0.096930,-3.414776,0.999998,0.000167,-0.002529,0.006710,-0.000408,0.006728,-0.002547,-87.477985,0.006794,
600,1120,4.055795,-9.273520,0.999997,0.000206,-0.004286,0.008886,-0.000409,0.008899,-0.004299,-88.222246,0.008901,
1590,1330,-1.890738,-6.574604,0.999996,0.000225,-0.006617,0.011715,-0.000041,0.011715,-0.006618,-89.872452,0.011748,
1590,460,-1.232154,-16.419369,0.999996,0.000250,-0.004743,0.009765,0.000553,0.009786,-0.004764,87.819186,0.009787,
1020,1100,2.177491,-8.826142,0.999988,0.000426,-0.006049,0.016004,0.001233,0.016073,-0.006118,86.809270,0.016225,
900,1850,0.528396,-1.372527,0.999997,0.000223,-0.002358,0.008223,-0.000881,0.008296,-0.002430,-85.274881,0.008529,
1220,820,0.052337,-15.433462,0.999995,0.000255,-0.004795,0.002364,-0.000404,0.002387,-0.004818,-86.776551,0.004818,
1680,380,-1.463197,-16.932804,0.999995,0.000256,-0.004619,0.009783,0.000084,0.009783,-0.004620,89.665674,0.009788,
1870,1110,-4.104737,-9.373330,0.999995,0.000257,-0.004238,0.008689,0.000255,0.008695,-0.004243,88.868334,0.008695,
600,1070,4.114242,-9.710294,0.999997,0.000201,-0.004137,0.008587,-0.000165,0.008589,-0.004139,-89.256919,0.008591,
1210,400,0.048559,-17.630242,0.999998,0.000200,-0.002323,0.007094,-0.000224,0.007099,-0.002328,-88.641046,0.007238,
1800,1460,-2.675424,-5.803517,0.999996,0.000258,-0.005193,0.010271,0.000087,0.010271,-0.005193,89.676001,0.010271,
1600,150,-0.446111,-19.194191,0.999996,0.000239,-0.002089,0.008063,-0.001335,0.008236,-0.002262,-82.632325,0.008510,
1610,920,-2.855355,-11.239132,0.999996,0.000262,-0.004883,0.011176,-0.001427,0.011302,-0.005009,-84.960200,0.011327,
630,30,0.149677,-20.018789,0.999998,0.000000,-0.003478,0.008830,0.003087,0.009561,-0.004210,76.678882,0.009583,
940,400,0.840511,-17.171418,0.999997,0.000186,-0.003697,0.008877,-0.000404,0.008890,-0.003710,-88.161091,0.008930,
1420,1380,-0.669116,-5.107463,0.999994,0.000283,-0.005516,0.009483,-0.002679,0.009947,-0.005980,-80.172738,0.010015,
1900,160,-1.565275,-18.360898,0.999995,0.000000,-0.004900,0.010179,-0.000815,0.010223,-0.004944,-86.915117,0.010225,
1450,1840,-0.320791,-1.340915,0.999997,0.000210,-0.001731,0.007430,0.000425,0.007450,-0.001750,87.346510,0.007791,
1580,650,-1.593994,-14.484650,0.999995,0.000255,-0.006213,0.011072,0.000670,0.011098,-0.006239,87.782861,0.011126,
980,760,1.261674,-13.694014,0.999993,0.000314,-0.007398,0.012137,-0.001446,0.012243,-0.007505,-85.789650,0.012347,
850,1450,1.673325,-5.308999,0.999995,0.000279,-0.005813,0.010659,0.000537,0.010676,-0.005831,88.133730,0.010692,
1330,1300,-0.274986,-5.079245,0.999995,0.000294,-0.004287,0.006403,-0.003925,0.007689,-0.005573,-71.853779,0.007944,
940,1710,0.748678,-2.506525,0.999998,0.000205,-0.003300,0.008759,0.000062,0.008759,-0.003300,89.703263,0.008848,
1380,1650,-0.365951,-2.701631,0.999996,0.000224,-0.002787,0.007669,-0.000554,0.007698,-0.002816,-86.974590,0.007790,
1500,1970,-0.132063,-0.432765,0.999998,0.000207,-0.000844,0.006803,0.000906,0.006909,-0.000950,83.331197,0.007490,
730,1950,0.500841,-0.688973,0.999996,0.000255,-0.002313,0.008699,-0.002403,0.009200,-0.002815,-78.212109,0.009428,
1760,1140,-3.548591,-8.988808,0.999996,0.000242,-0.004641,0.009694,0.000772,0.009736,-0.004682,86.928160,0.009738,
770,650,2.269619,-14.095166,0.999995,0.000267,-0.005740,0.010751,0.000137,0.010752,-0.005741,89.522335,0.010760,
1110,680,0.341768,-15.435648,0.999994,0.000299,-0.004146,0.007439,-0.002928,0.008137,-0.004844,-76.591426,0.008186,
1030,1200,1.337131,-7.267103,0.999989,0.000394,-0.007610,0.013366,0.001898,0.013536,-0.007780,84.870797,0.013586,
1880,310,-2.195396,-16.977965,0.999997,0.000218,-0.004859,0.009857,0.000056,0.009858,-0.004859,89.782102,0.009858,
1720,1360,-2.576310,-6.626039,0.999995,0.000308,-0.005678,0.010746,0.000478,0.010760,-0.005692,88.335646,0.010766,
820,440,1.442098,-16.449557,0.999995,0.000252,-0.004750,0.009909,-0.000324,0.009916,-0.004757,-88.736247,0.009918,
740,1010,3.533567,-10.252487,0.999996,0.000238,-0.004279,0.009823,0.000315,0.009830,-0.004286,88.721520,0.009857,
680,1930,0.805096,-0.974644,0.999996,0.000260,-0.003488,0.009861,-0.002516,0.010320,-0.003946,-79.672041,0.010414,
1120,380,0.258098,-17.695794,0.999997,0.000224,-0.002544,0.007493,-0.000421,0.007511,-0.002561,-87.600760,0.007636,
1510,1930,-0.234389,-0.719289,0.999997,0.000196,-0.001336,0.007173,0.000890,0.007265,-0.001429,84.092567,0.007698,
1660,1650,-1.435233,-3.414559,0.999996,0.000251,-0.004682,0.009859,-0.000194,0.009861,-0.004684,-89.235441,0.009865,
890,1690,0.964299,-2.792359,0.999996,0.000235,-0.004105,0.009158,0.000208,0.009161,-0.004108,89.099785,0.009177,
1070,250,0.256463,-18.615340,0.999997,0.000207,-0.001793,0.007312,0.000164,0.007315,-0.001796,88.970045,0.007625,
1330,670,-0.258460,-15.634462,0.999997,0.000224,-0.003549,0.006673,0.002638,0.007314,-0.004190,76.348103,0.007340,
1270,1510,-0.098196,-3.547773,0.999998,0.000176,-0.002518,0.006607,-0.000458,0.006630,-0.002541,-87.133332,0.006690,
1170,470,0.152504,-17.110052,0.999997,0.000211,-0.002606,0.007080,-0.000436,0.007099,-0.002626,-87.425426,0.007179,
650,750,3.271764,-12.733723,0.999996,0.000205,-0.005023,0.009971,0.000627,0.009997,-0.005049,87.611244,0.009997,
1590,1310,-1.962644,-6.807824,0.999996,0.000232,-0.006651,0.011788,0.000152,0.011790,-0.006652,89.528859,0.011822,
760,1390,2.376420,-6.255229,0.999995,0.000291,-0.005711,0.010777,-0.000250,0.010780,-0.005715,-89.132448,0.010787,
1450,1300,-1.004044,-6.169520,0.999995,0.000241,-0.007217,0.011598,-0.002363,0.011890,-0.007509,-82.949454,0.012027,
960,330,0.652651,-17.826201,0.999996,0.000232,-0.003325,0.008591,-0.000143,0.008593,-0.003326,-89.310932,0.008665,
1560,720,-1.674512,-13.765233,0.999994,0.000330,-0.006840,0.011727,0.000467,0.011739,-0.006852,88.558957,0.011793,
1380,80,-0.055947,-19.783984,0.999998,0.000171,-0.000359,0.006362,-0.000446,0.006391,-0.000389,-86.223838,0.007166,
1020,1080,2.292446,-9.168725,0.999987,0.000468,-0.006202,0.016531,0.001195,0.016594,-0.006264,87.000346,0.016759,
860,1890,0.508839,-1.093535,0.999996,0.000231,-0.002290,0.008166,-0.001262,0.008316,-0.002440,-83.214510,0.008550,
600,1100,4.089646,-9.454497,0.999997,0.000214,-0.004226,0.008650,-0.000156,0.008652,-0.004228,-89.306328,0.008652,
830,240,0.843149,-18.382320,0.999996,0.000222,-0.003051,0.009081,0.000922,0.009151,-0.003120,85.680981,0.009304,
1790,1240,-3.388677,-8.035383,0.999996,0.000249,-0.004967,0.009971,0.000870,0.010022,-0.005018,86.678569,0.010022,
620,2020,0.240313,-0.217945,0.999995,0.000000,-0.003717,0.009095,-0.003297,0.009893,-0.004516,-76.383249,0.009906,
650,940,3.843685,-10.887888,0.999995,0.000270,-0.004492,0.009342,0.000631,0.009371,-0.004521,87.392766,0.009373,
1900,150,-1.502802,-18.463960,0.999995,0.000000,-0.004868,0.010344,-0.001010,0.010411,-0.004934,-86.217060,0.010416,
1800,1440,-2.739482,-6.009667,0.999997,0.000237,-0.005215,0.010258,0.000146,0.010259,-0.005216,89.460712,0.010260,
1450,1820,-0.351130,-1.489593,0.999997,0.000197,-0.001929,0.007618,0.000352,0.007631,-0.001942,87.892502,0.007932,
980,740,1.196058,-13.937534,0.999993,0.000300,-0.007146,0.011760,-0.001615,0.011897,-0.007283,-85.151094,0.011996,
1420,1360,-0.690470,-5.300634,0.999994,0.000287,-0.005808,0.009798,-0.002848,0.010302,-0.006312,-79.973831,0.010389,
1080,790,0.631247,-14.239586,0.999995,0.000262,-0.006714,0.009930,-0.004046,0.010862,-0.007645,-77.037308,0.011159,
670,1080,3.808002,-9.586774,0.999997,0.000193,-0.004384,0.009300,-0.000261,0.009305,-0.004389,-88.905698,0.009310,
1760,1120,-3.592679,-9.184328,0.999996,0.000255,-0.004559,0.009760,0.000798,0.009804,-0.004603,86.820746,0.009810,
1290,1440,-0.144896,-4.027007,0.999997,0.000211,-0.002784,0.006199,-0.001336,0.006394,-0.002979,-81.714999,0.006399,
1120,400,0.266531,-17.547606,0.999997,0.000216,-0.002636,0.007394,-0.000528,0.007421,-0.002664,-86.992053,0.007519,
850,1430,1.725348,-5.524603,0.999994,0.000294,-0.005954,0.010853,0.000481,0.010867,-0.005968,88.363649,0.010885,
1110,480,0.323629,-16.933913,0.999998,0.000183,-0.002925,0.007519,-0.000843,0.007587,-0.002993,-85.414781,0.007643,
580,300,2.172740,-17.065072,0.999996,0.000265,-0.004651,0.009710,0.000067,0.009710,-0.004652,89.730790,0.009713,
1470,230,-0.383026,-18.690778,0.999997,0.000216,-0.001906,0.007679,-0.000457,0.007701,-0.001928,-87.276996,0.008015,
1690,460,-1.722273,-16.098760,0.999996,0.000226,-0.005012,0.010120,0.000268,0.010125,-0.005016,88.986330,0.010125,
730,2000,0.215707,-0.282962,0.999995,0.000252,-0.001071,0.008015,-0.002750,0.008782,-0.001838,-74.406019,0.009264,
1680,360,-1.406829,-17.128450,0.999996,0.000226,-0.004537,0.009720,-0.000020,0.009720,-0.004537,-89.919773,0.009727,
1220,800,0.034941,-15.470203,0.999995,0.000258,-0.003250,0.002132,-0.000623,0.002203,-0.003321,-83.482497,0.003380,
1840,1960,-0.779578,-0.815985,0.999995,0.000256,-0.004671,0.010582,0.002191,0.010890,-0.004979,81.986955,0.010903,
1550,1690,-0.872294,-2.738234,0.999997,0.000210,-0.003566,0.008948,-0.000073,0.008948,-0.003566,-89.666342,0.009009,
730,1840,1.103730,-1.732048,0.999996,0.000253,-0.003928,0.009784,-0.001182,0.009885,-0.004030,-85.109682,0.009942,
1270,1490,-0.096478,-3.678250,0.999998,0.000160,-0.002518,0.006464,-0.000538,0.006496,-0.002550,-86.583317,0.006546,
1170,450,0.149390,-17.250545,0.999998,0.000186,-0.002527,0.007132,-0.000342,0.007144,-0.002540,-87.974216,0.007243,
1200,1390,0.068996,-4.254976,0.999997,0.000198,-0.002326,0.005182,0.000932,0.005296,-0.002440,83.027243,0.005302,
1190,400,0.096431,-17.618602,0.999997,0.000214,-0.002317,0.007132,-0.000191,0.007136,-0.002321,-88.840222,0.007280,
1780,1110,-3.706041,-9.295679,0.999996,0.000233,-0.004530,0.009603,0.000713,0.009639,-0.004566,87.117237,0.009643,
650,730,3.200255,-12.933735,0.999996,0.000205,-0.005058,0.010086,0.000554,0.010106,-0.005078,87.905945,0.010106,
770,630,2.203499,-14.311231,0.999995,0.000268,-0.005698,0.010713,0.000018,0.010713,-0.005699,89.936869,0.010720,
1720,1320,-2.723282,-7.059160,0.999995,0.000290,-0.005617,0.010681,0.000728,0.010713,-0.005650,87.445896,0.010719,
1010,1200,1.495177,-7.459209,0.999990,0.000368,-0.007873,0.013714,0.001171,0.013778,-0.007936,86.902798,0.013831,
1590,1290,-2.043603,-7.048668,0.999995,0.000244,-0.006662,0.011880,0.000367,0.011887,-0.006669,88.866713,0.011917,
1380,60,-0.036907,-19.910719,0.999998,0.000177,-0.000214,0.006207,-0.000417,0.006234,-0.000241,-86.302948,0.007064,
860,530,1.440664,-15.674868,0.999995,0.000279,-0.005251,0.010201,-0.000641,0.010227,-0.005278,-87.627510,0.010229,
1020,1060,2.374654,-9.483690,0.999988,0.000426,-0.006534,0.017740,0.000867,0.017771,-0.006565,87.956944,0.017971,
600,1080,4.106911,-9.624274,0.999997,0.000213,-0.004153,0.008540,-0.000116,0.008541,-0.004154,-89.476927,0.008542,
1480,1970,-0.115748,-0.426898,0.999998,0.000190,-0.000638,0.006711,0.000837,0.006805,-0.000732,83.580799,0.007471,
730,970,3.544101,-10.641974,0.999995,0.000257,-0.004378,0.009811,0.000541,0.009832,-0.004399,87.820112,0.009850,
920,1710,0.810040,-2.544030,0.999998,0.000219,-0.003271,0.008916,-0.000043,0.008916,-0.003271,-89.798901,0.009021,
1330,130,-0.068300,-19.472819,0.999999,0.000133,-0.000845,0.006496,-0.000188,0.006500,-0.000849,-88.531974,0.007067,
1260,1910,-0.023317,-0.775665,0.999998,0.000168,-0.000837,0.006448,0.000045,0.006449,-0.000838,89.642460,0.007013,
1800,1420,-2.803476,-6.215911,0.999996,0.000236,-0.005217,0.010280,0.000217,0.010283,-0.005220,89.196650,0.010283,
1730,900,-3.370820,-11.342926,0.999996,0.000240,-0.004781,0.010181,-0.001066,0.010257,-0.004857,-85.945343,0.010261,
1560,650,-1.466849,-14.567879,0.999997,0.000291,-0.006184,0.011031,0.000837,0.011072,-0.006225,87.224104,0.011101,
980,720,1.142030,-14.165428,0.999995,0.000266,-0.006830,0.011406,-0.001721,0.011567,-0.006991,-84.656167,0.011651,
1430,1840,-0.285268,-1.322451,0.999998,0.000183,-0.001813,0.007306,0.000284,0.007315,-0.001822,88.215091,0.007616,
1080,770,0.579302,-14.438322,0.999992,0.000344,-0.006372,0.009610,-0.003973,0.010543,-0.007305,-76.781580,0.010802,
1420,1340,-0.711818,-5.498307,0.999996,0.000241,-0.006151,0.010073,-0.002979,0.010603,-0.006680,-79.916643,0.010722,
1650,340,-1.213215,-17.410027,0.999996,0.000223,-0.004366,0.009645,-0.000087,0.009645,-0.004366,-89.643444,0.009660,
940,380,0.808134,-17.349538,0.999997,0.000185,-0.003568,0.008738,-0.000330,0.008747,-0.003577,-88.464773,0.008795,
850,1410,1.779625,-5.746578,0.999995,0.000267,-0.006105,0.011060,0.000388,0.011069,-0.006114,88.706844,0.011089,
820,420,1.391546,-16.648280,0.999996,0.000248,-0.004695,0.009846,-0.000282,0.009851,-0.004701,-88.891258,0.009855,
1510,1910,-0.276880,-0.861644,0.999997,0.000207,-0.001604,0.007315,0.000849,0.007395,-0.001684,84.611177,0.007752,
1850,860,-3.817117,-11.583144,0.999997,0.000228,-0.004587,0.009431,-0.000585,0.009455,-0.004612,-87.612729,0.009456,
1070,230,0.233746,-18.762899,0.999998,0.000191,-0.001634,0.007189,0.000221,0.007194,-0.001639,88.567023,0.007541,
890,1670,1.007957,-2.979752,0.999996,0.000257,-0.004166,0.009275,0.000274,0.009281,-0.004172,88.833874,0.009297,
620,30,0.195505,-19.989987,0.999993,0.000000,-0.003040,0.009387,0.003658,0.010384,-0.004037,74.755280,0.010470,
1860,1430,-3.078423,-6.292639,0.999996,0.000246,-0.005032,0.010167,0.000112,0.010168,-0.005033,89.579255,0.010168,
1900,140,-1.430428,-18.567434,0.999995,0.000000,-0.004844,0.010551,-0.001280,0.010657,-0.004950,-85.280690,0.010666,
650,1080,3.894592,-9.595439,0.999998,0.000162,-0.004325,0.009103,-0.000199,0.009106,-0.004328,-89.151026,0.009110,
1120,420,0.273143,-17.400187,0.999997,0.000210,-0.002691,0.007436,-0.000608,0.007472,-0.002728,-86.579296,0.007562,
1760,1100,-3.637786,-9.381715,0.999995,0.000269,-0.004477,0.009713,0.000685,0.009746,-0.004510,87.243684,0.009755,
720,1650,1.833560,-3.671277,0.999997,0.000231,-0.004916,0.010120,0.000134,0.010121,-0.004917,89.488446,0.010122,
1430,1300,-0.860317,-6.003494,0.999995,0.000242,-0.007023,0.011078,-0.002873,0.011523,-0.007468,-81.195435,0.011690,
1110,620,0.344601,-15.877542,0.999996,0.000259,-0.003686,0.007413,-0.002171,0.007822,-0.004095,-79.314492,0.007825,
640,1910,1.087528,-1.266186,0.999996,0.000311,-0.004384,0.010390,-0.001601,0.010562,-0.004556,-83.885824,0.010595,
1680,1690,-1.421683,-3.079772,0.999995,0.000267,-0.004548,0.009721,0.000000,0.009721,-0.004548,89.999043,0.009727,
650,710,3.130614,-13.137580,0.999996,0.000222,-0.005097,0.010152,0.000475,0.010167,-0.005112,88.215973,0.010167,
1270,1470,-0.095012,-3.803764,0.999998,0.000169,-0.002520,0.006282,-0.000609,0.006324,-0.002562,-86.058026,0.006362,
1760,1110,-3.614796,-9.283550,0.999995,0.000272,-0.004521,0.009756,0.000789,0.009799,-0.004564,86.845538,0.009807,
1170,430,0.146714,-17.394270,0.999998,0.000197,-0.002433,0.007163,-0.000274,0.007171,-0.002441,-88.363995,0.007292,
1250,400,-0.042965,-17.631124,0.999998,0.000165,-0.002299,0.007078,0.000209,0.007083,-0.002304,88.720873,0.007226,
1020,1040,2.415420,-9.871322,0.999988,0.000417,-0.006667,0.018028,0.000349,0.018033,-0.006672,89.190828,0.018235,
890,560,1.344947,-15.474218,0.999996,0.000251,-0.005381,0.010286,-0.000842,0.010331,-0.005426,-86.932065,0.010336,
1370,1990,-0.036927,-0.278921,0.999998,0.000168,-0.000248,0.006233,0.000396,0.006257,-0.000272,86.516909,0.007073,
1680,1350,-2.379510,-6.629254,0.999996,0.000294,-0.005949,0.011021,0.000433,0.011032,-0.005960,88.538935,0.011044,
1800,1400,-2.871461,-6.422208,0.999996,0.000231,-0.005222,0.010311,0.000288,0.010317,-0.005227,88.939616,0.010317,
600,1060,4.123070,-9.795935,0.999997,0.000200,-0.004137,0.008615,-0.000222,0.008619,-0.004141,-89.005094,0.008621,
770,610,2.144803,-14.526530,0.999995,0.000272,-0.005631,0.010671,-0.000069,0.010672,-0.005631,-89.756775,0.010677,
980,700,1.092883,-14.392788,0.999996,0.000223,-0.006556,0.011124,-0.001820,0.011309,-0.006742,-84.183517,0.011379,
1860,1770,-2.002150,-2.857722,0.999997,0.000232,-0.004855,0.009820,0.000060,0.009820,-0.004855,89.764914,0.009820,
1730,880,-3.304013,-11.551066,0.999996,0.000235,-0.004931,0.010277,-0.001132,0.010360,-0.005015,-85.766428,0.010362,
1440,1170,-1.614252,-7.763368,0.999989,0.000432,-0.007236,0.014028,-0.001239,0.014100,-0.007308,-86.675474,0.014103,
1590,1270,-2.126702,-7.284802,0.999995,0.000281,-0.006645,0.012002,0.000596,0.012021,-0.006664,88.171696,0.012044,
1720,780,-2.894024,-12.614106,0.999997,0.000232,-0.005525,0.010736,-0.000953,0.010792,-0.005581,-86.656158,0.010794,
1360,1910,-0.105301,-0.795613,0.999997,0.000167,-0.000885,0.006645,0.000322,0.006659,-0.000899,87.559206,0.007226,
1220,780,0.028051,-15.511057,0.999996,0.000224,-0.002476,0.002362,-0.000688,0.002458,-0.002572,-82.060838,0.002906,
1330,1400,-0.258808,-4.423857,0.999996,0.000249,-0.003520,0.006794,-0.002400,0.007325,-0.004051,-77.522030,0.007339,
1060,790,0.771176,-14.018991,0.999992,0.000326,-0.007188,0.010907,-0.003507,0.011563,-0.007844,-79.406362,0.011806,
1680,340,-1.348345,-17.322421,0.999995,0.000253,-0.004450,0.009821,-0.000110,0.009822,-0.004451,-89.557487,0.009836,
1120,860,0.794315,-14.212436,0.999991,0.000366,-0.003979,0.006026,-0.003603,0.007188,-0.005141,-72.117017,0.007407,
610,2020,0.281808,-0.249191,0.999992,0.000000,-0.002458,0.009779,-0.004048,0.010997,-0.003676,-73.255040,0.011197,
1900,130,-1.352279,-18.676291,0.999995,0.000000,-0.004820,0.010714,-0.001501,0.010858,-0.004964,-84.532622,0.010871,
1330,110,-0.056797,-19.602096,0.999998,0.000151,-0.000691,0.006388,-0.000225,0.006395,-0.000698,-88.182800,0.007016,
1420,1320,-0.749606,-5.711325,0.999995,0.000259,-0.006507,0.010398,-0.003045,0.010929,-0.007039,-80.094190,0.011080,
1760,1080,-3.664290,-9.574756,0.999996,0.000244,-0.004384,0.009562,0.000371,0.009571,-0.004394,88.478851,0.009582,
1710,520,-1.981100,-15.417895,0.999995,0.000251,-0.005247,0.010340,0.000248,0.010344,-0.005251,89.088621,0.010344,
940,360,0.777528,-17.521556,0.999997,0.000214,-0.003434,0.008689,-0.000200,0.008692,-0.003438,-89.055262,0.008755,
1110,660,0.342980,-15.583213,0.999995,0.000259,-0.003925,0.007434,-0.002625,0.008011,-0.004502,-77.596510,0.008032,
1750,2010,-0.173790,-0.208154,0.999997,0.000227,-0.001250,0.008103,0.002975,0.008969,-0.002117,73.766415,0.009376,
1070,210,0.211015,-18.903732,0.999998,0.000161,-0.001487,0.007082,0.000299,0.007093,-0.001497,88.002977,0.007477,
720,1010,3.619333,-10.251106,0.999996,0.000233,-0.004318,0.009744,0.000310,0.009751,-0.004324,88.739007,0.009772,
890,1650,1.050611,-3.165784,0.999997,0.000232,-0.004226,0.009341,0.000376,0.009351,-0.004237,88.415643,0.009365,
700,1650,1.932234,-3.735831,0.999996,0.000249,-0.004931,0.010115,0.000137,0.010116,-0.004932,89.479041,0.010117,
880,1330,1.842895,-6.546299,0.999995,0.000269,-0.006639,0.011731,0.000104,0.011731,-0.006639,89.676932,0.011765,
1650,320,-1.156513,-17.603590,0.999997,0.000206,-0.004137,0.009555,-0.000195,0.009558,-0.004140,-89.185849,0.009586,
1270,1450,-0.092414,-3.927731,0.999997,0.000208,-0.002514,0.006078,-0.000719,0.006138,-0.002573,-85.247345,0.006165,
1870,1640,-2.493227,-4.188521,0.999995,0.000286,-0.004929,0.009959,-0.000103,0.009960,-0.004929,-89.603013,0.009960,
1660,1350,-2.259919,-6.571766,0.999994,0.000309,-0.006072,0.011181,0.000345,0.011188,-0.006079,88.856170,0.011202,
850,1390,1.838617,-5.968361,0.999994,0.000283,-0.006202,0.011104,0.000259,0.011108,-0.006206,89.142495,0.011133,
650,910,3.778696,-11.169285,0.999995,0.000269,-0.004509,0.009267,0.000582,0.009291,-0.004533,87.583492,0.009292,
1170,410,0.144218,-17.536300,0.999997,0.000208,-0.002318,0.007180,-0.000203,0.007185,-0.002323,-88.775871,0.007333,
1370,1970,-0.059358,-0.407301,0.999998,0.000165,-0.000379,0.006340,0.000397,0.006363,-0.000402,86.626371,0.007127,
1020,1020,2.427767,-10.199994,0.999988,0.000437,-0.006638,0.017875,-0.000273,0.017878,-0.006641,-89.361184,0.018074,
1460,1970,-0.105975,-0.423626,0.999998,0.000183,-0.000532,0.006635,0.000753,0.006713,-0.000611,84.064945,0.007424,
1720,450,-1.845324,-16.105603,0.999996,0.000229,-0.004979,0.010095,0.000234,0.010099,-0.004983,89.112148,0.010099,
1710,1560,-1.914088,-4.482250,0.999997,0.000229,-0.005166,0.010275,-0.000255,0.010279,-0.005170,-89.055088,0.010279,
730,930,3.457536,-11.041534,0.999995,0.000238,-0.004569,0.009875,0.000833,0.009923,-0.004617,86.709898,0.009931,
820,400,1.345010,-16.845237,0.999995,0.000276,-0.004617,0.009755,-0.000216,0.009758,-0.004620,-89.137505,0.009763,
1440,210,-0.296678,-18.865016,0.999998,0.000211,-0.001748,0.007336,-0.000382,0.007352,-0.001764,-87.595827,0.007677,
1510,1890,-0.328655,-1.012783,0.999996,0.000221,-0.001788,0.007450,0.000769,0.007514,-0.001852,85.272629,0.007829,
1460,1170,-1.761965,-7.940669,0.999993,0.000334,-0.007397,0.014026,-0.000365,0.014033,-0.007403,-89.025317,0.014040,
1720,760,-2.818209,-12.834123,0.999996,0.000242,-0.005588,0.010717,-0.000848,0.010761,-0.005632,-87.030049,0.010765,
690,570,2.456390,-14.698947,0.999996,0.000233,-0.005274,0.010307,-0.000015,0.010307,-0.005274,-89.945701,0.010308,
1620,1810,-0.821326,-1.802948,0.999997,0.000212,-0.003114,0.008960,0.000837,0.009017,-0.003172,86.051824,0.009149,
1800,1380,-2.939241,-6.629106,0.999997,0.000203,-0.005216,0.010281,0.000385,0.010291,-0.005225,88.576916,0.010291,
770,590,2.085408,-14.740788,0.999996,0.000240,-0.005558,0.010593,-0.000126,0.010594,-0.005559,-89.551923,0.010598,
600,1040,4.140789,-9.968679,0.999997,0.000208,-0.004127,0.008682,-0.000190,0.008685,-0.004130,-89.150058,0.008688,
1820,790,-3.446492,-12.315790,0.999997,0.000217,-0.004930,0.009934,-0.000688,0.009966,-0.004962,-87.354831,0.009966,
610,30,0.231348,-19.958030,0.999986,0.000000,-0.001385,0.010346,0.004895,0.012121,-0.003160,70.076882,0.012575,
980,680,1.049471,-14.615779,0.999996,0.000215,-0.006279,0.010812,-0.001847,0.011009,-0.006476,-83.903144,0.011066,
1190,1460,0.102185,-3.871107,0.999997,0.000206,-0.002575,0.006215,0.000721,0.006274,-0.002634,85.340823,0.006301,
1740,1110,-3.523947,-9.272537,0.999995,0.000266,-0.004516,0.009918,0.000845,0.009968,-0.004566,86.662651,0.009979,
1700,1830,-1.028968,-1.767503,0.999997,0.000182,-0.003662,0.009504,0.001107,0.009596,-0.003754,85.225600,0.009672,
1470,210,-0.345437,-18.841917,0.999997,0.000215,-0.001754,0.007551,-0.000549,0.007583,-0.001786,-86.634781,0.007929,
1230,400,0.003137,-17.638279,0.999997,0.000215,-0.002282,0.007068,-0.000023,0.007068,-0.002282,-89.859705,0.007214,
1750,2000,-0.236221,-0.288779,0.999996,0.000245,-0.001577,0.008355,0.002961,0.009171,-0.002393,74.597503,0.009514,
1120,840,0.604725,-14.337554,0.999991,0.000360,-0.005005,0.007047,-0.004200,0.008366,-0.006324,-72.561868,0.008724,
1900,120,-1.272278,-18.784557,0.999996,0.000000,-0.004736,0.010996,-0.001729,0.011183,-0.004924,-83.800533,0.011210,
1420,1300,-0.790845,-5.919293,0.999994,0.000278,-0.006871,0.010802,-0.003091,0.011327,-0.007396,-80.360468,0.011503,
700,1010,3.706309,-10.249048,0.999995,0.000234,-0.004300,0.009613,0.000292,0.009619,-0.004307,88.798537,0.009637,
1590,1250,-2.216999,-7.531685,0.999996,0.000279,-0.006572,0.012068,0.000816,0.012103,-0.006607,87.498538,0.012120,
790,1780,1.110978,-2.184086,0.999998,0.000173,-0.004177,0.009537,-0.000521,0.009557,-0.004197,-87.826556,0.009580,
1630,120,-0.388338,-19.413593,0.999997,0.000221,-0.001493,0.008007,-0.001723,0.008309,-0.001796,-80.033277,0.008744,
1760,1060,-3.680590,-9.764919,0.999996,0.000225,-0.004359,0.009554,0.000327,0.009561,-0.004366,88.655357,0.009573,
1110,640,0.343834,-15.729956,0.999995,0.000254,-0.003776,0.007439,-0.002365,0.007918,-0.004254,-78.564643,0.007925,
1640,1100,-3.101032,-9.323910,0.999995,0.000272,-0.004326,0.010530,0.000999,0.010597,-0.004393,86.169093,0.010649,
1420,210,-0.259896,-18.882818,0.999998,0.000230,-0.001838,0.007196,-0.000278,0.007205,-0.001847,-88.238049,0.007484,
1670,460,-1.621901,-16.164184,0.999996,0.000254,-0.004986,0.010082,0.000330,0.010090,-0.004993,88.745693,0.010090,
1270,1430,-0.089550,-4.044059,0.999997,0.000220,-0.002505,0.005817,-0.000843,0.005901,-0.002589,-84.273090,0.005916,
1210,1380,0.045945,-4.291879,0.999998,0.000160,-0.002198,0.004868,0.000738,0.004944,-0.002274,84.101860,0.004949,
830,1200,2.707318,-8.216111,0.999994,0.000298,-0.005683,0.011329,-0.001326,0.011432,-0.005786,-85.571043,0.011432,
1720,740,-2.741989,-13.046753,0.999996,0.000235,-0.005627,0.010681,-0.000750,0.010715,-0.005661,-87.373678,0.010721,
1020,1000,2.387579,-10.580795,0.999987,0.000424,-0.006492,0.017979,-0.000749,0.018002,-0.006515,-88.249290,0.018229,
870,660,1.701372,-14.320237,0.999994,0.000268,-0.006239,0.011166,-0.000473,0.011179,-0.006251,-88.446001,0.011205,
890,1630,1.090938,-3.354878,0.999997,0.000235,-0.004314,0.009440,0.000452,0.009455,-0.004328,88.120311,0.009466,
1680,320,-1.287530,-17.523199,0.999995,0.000238,-0.004405,0.009793,-0.000201,0.009796,-0.004408,-89.188097,0.009812,
1170,1840,0.080464,-1.244078,0.999998,0.000191,-0.001207,0.006810,-0.000125,0.006812,-0.001209,-89.105892,0.007269,
1230,260,0.001945,-18.621051,0.999998,0.000148,-0.001640,0.006895,-0.000008,0.006895,-0.001640,-89.949275,0.007204,
940,340,0.736449,-17.696967,0.999997,0.000208,-0.003278,0.008815,-0.000048,0.008816,-0.003278,-89.772027,0.008912,
690,530,2.339202,-15.112124,0.999996,0.000237,-0.005192,0.010300,-0.000095,0.010301,-0.005193,-89.647876,0.010301,
600,1020,4.143807,-10.145644,0.999997,0.000212,-0.004163,0.008715,0.000146,0.008716,-0.004165,89.350597,0.008719,
770,570,2.026373,-14.951981,0.999995,0.000253,-0.005461,0.010468,-0.000164,0.010470,-0.005463,-89.411375,0.010473,
1800,1360,-3.010036,-6.835615,0.999997,0.000209,-0.005206,0.010188,0.000477,0.010203,-0.005221,88.226336,0.010203,
770,340,1.405523,-17.290011,0.999997,0.000221,-0.004375,0.009872,0.000178,0.009875,-0.004377,89.286114,0.009896,
1750,1300,-2.962610,-7.339502,0.999997,0.000194,-0.005373,0.010549,0.000805,0.010590,-0.005413,87.113868,0.010590,
600,2020,0.296477,-0.259734,0.999961,0.000000,-0.000954,0.010808,-0.005284,0.012832,-0.002979,-69.031066,0.013432,
800,1270,2.586909,-7.480249,0.999995,0.000301,-0.005967,0.011211,-0.000955,0.011263,-0.006020,-86.829180,0.011272,
1790,860,-3.534950,-11.681193,0.999994,0.000296,-0.004820,0.009829,-0.000915,0.009886,-0.004876,-86.438588,0.009887,
1040,1970,0.084923,-0.415929,0.999998,0.000162,-0.000632,0.006495,-0.000541,0.006536,-0.000673,-85.682693,0.007190,
1220,760,0.024534,-15.557839,0.999997,0.000181,-0.002122,0.002793,-0.000631,0.002873,-0.002201,-82.797934,0.003005,
980,660,1.014864,-14.833415,0.999996,0.000244,-0.006041,0.010518,-0.001827,0.010717,-0.006240,-83.777724,0.010765,
1550,1560,-1.109199,-3.952385,0.999998,0.000199,-0.004674,0.009613,-0.000804,0.009658,-0.004719,-86.787982,0.009659,
1350,400,-0.285824,-17.537225,0.999997,0.000227,-0.002627,0.007435,0.000508,0.007461,-0.002653,87.118593,0.007564,
1510,980,-2.637715,-10.677989,0.999995,0.000298,-0.004173,0.012656,-0.000864,0.012700,-0.004218,-87.067177,0.012937,
970,1900,0.272680,-0.925251,0.999998,0.000199,-0.001617,0.007331,-0.000747,0.007393,-0.001679,-85.259213,0.007751,
1330,1360,-0.258219,-4.694904,0.999997,0.000217,-0.003678,0.006616,-0.002970,0.007411,-0.004473,-75.007878,0.007464,
1120,820,0.490561,-14.483906,0.999992,0.000327,-0.005566,0.007276,-0.004395,0.008636,-0.006926,-72.803366,0.009146,
970,1140,2.203119,-8.579173,0.999994,0.000323,-0.006147,0.013499,-0.000946,0.013545,-0.006192,-87.250415,0.013561,
650,1150,3.767878,-8.941685,0.999995,0.000256,-0.004542,0.009298,-0.000586,0.009323,-0.004567,-87.579326,0.009323,
790,1760,1.178333,-2.377719,0.999997,0.000208,-0.004301,0.009552,-0.000356,0.009561,-0.004310,-88.528216,0.009577,
680,1910,0.934862,-1.166920,0.999997,0.000238,-0.003827,0.009902,-0.002093,0.010214,-0.004139,-81.522086,0.010275,
1900,110,-1.193104,-18.893419,0.999996,0.000000,-0.004645,0.011351,-0.002061,0.011612,-0.004907,-82.776097,0.011658,
1610,80,-0.218070,-19.726754,0.999996,0.000229,-0.000974,0.007384,-0.001639,0.007694,-0.001284,-79.292993,0.008244,
1220,210,0.015260,-18.959084,0.999998,0.000173,-0.001301,0.006664,-0.000023,0.006664,-0.001301,-89.834476,0.007064,
1590,1230,-2.311255,-7.770713,0.999994,0.000319,-0.006416,0.011997,0.001023,0.012053,-0.006472,86.829479,0.012064,
1370,1950,-0.074508,-0.533774,0.999998,0.000163,-0.000510,0.006480,0.000400,0.006503,-0.000532,86.732037,0.007221,
1640,1080,-3.153309,-9.537065,0.999995,0.000259,-0.004143,0.010441,0.000795,0.010484,-0.004186,86.888622,0.010555,
1420,1720,-0.420446,-2.226593,0.999997,0.000232,-0.002851,0.007816,-0.000302,0.007824,-0.002859,-88.379447,0.007918,
1470,190,-0.306730,-18.994356,0.999998,0.000206,-0.001535,0.007394,-0.000609,0.007435,-0.001576,-86.115669,0.007835,
1600,730,-1.975162,-13.492180,0.999997,0.000181,-0.006533,0.011648,-0.000107,0.011648,-0.006534,-89.662076,0.011677,
1810,280,-1.742058,-17.538982,0.999995,0.000245,-0.004751,0.010160,-0.000363,0.010169,-0.004760,-88.606540,0.010176,
1020,980,2.314765,-10.915279,0.999987,0.000437,-0.006278,0.016696,-0.001159,0.016755,-0.006337,-87.118794,0.016920,
570,1400,3.332310,-6.700042,0.999925,0.001089,-0.004304,0.010066,-0.000012,0.010067,-0.004304,-89.951644,0.010102,
1400,1150,-1.507406,-7.481852,0.999981,0.000525,-0.005669,0.012552,-0.004806,0.013742,-0.006859,-76.093023,0.013742,
990,1840,0.359989,-1.357706,0.999997,0.000199,-0.001828,0.007599,-0.000503,0.007626,-0.001855,-86.954606,0.007954,
1270,1410,-0.087208,-4.155805,0.999997,0.000214,-0.002470,0.005588,-0.000970,0.005703,-0.002585,-83.229234,0.005711,
1680,300,-1.225565,-17.716864,0.999997,0.000206,-0.004330,0.009602,-0.000317,0.009609,-0.004337,-88.696615,0.009625,
1190,260,0.067536,-18.611119,0.999996,0.000216,-0.001539,0.006934,-0.000020,0.006935,-0.001539,-89.867372,0.007283,
890,1610,1.125945,-3.544940,0.999996,0.000267,-0.004419,0.009554,0.000509,0.009572,-0.004438,87.916502,0.009581,
1320,1650,-0.207615,-2.612467,0.999997,0.000204,-0.002586,0.007322,-0.000530,0.007350,-0.002614,-86.945940,0.007452,
1070,190,0.186996,-19.047013,0.999998,0.000175,-0.001323,0.006972,0.000337,0.006986,-0.001337,87.678126,0.007416,
850,660,1.824347,-14.245270,0.999998,0.000162,-0.006145,0.011131,-0.000272,0.011136,-0.006149,-89.098623,0.011156,
940,320,0.697394,-17.878334,0.999997,0.000200,-0.003181,0.008644,0.000038,0.008644,-0.003181,89.814436,0.008744,
1020,1970,0.097430,-0.421285,0.999998,0.000199,-0.000580,0.006573,-0.000667,0.006635,-0.000642,-84.719591,0.007318,
660,1270,3.346010,-7.757645,0.999995,0.000262,-0.005048,0.010027,-0.000766,0.010065,-0.005086,-87.097475,0.010066,
770,320,1.343691,-17.488388,0.999995,0.000282,-0.004353,0.009797,0.000231,0.009800,-0.004357,89.063640,0.009820,
1720,720,-2.668131,-13.260619,0.999997,0.000236,-0.005629,0.010749,-0.000629,0.010773,-0.005653,-87.804804,0.010777,
980,640,0.984179,-15.039099,0.999995,0.000256,-0.005812,0.010137,-0.001819,0.010342,-0.006017,-83.575815,0.010388,
1080,1330,0.508927,-5.304816,0.999996,0.000258,-0.005561,0.008882,0.003559,0.009712,-0.006390,76.882422,0.009872,
1530,1560,-1.018503,-3.888624,0.999997,0.000235,-0.004618,0.009485,-0.000894,0.009541,-0.004675,-86.385797,0.009542,
1330,400,-0.232968,-17.568954,0.999998,0.000170,-0.002621,0.007334,0.000566,0.007366,-0.002653,86.754618,0.007462,
1230,1900,0.001883,-0.838001,0.999998,0.000169,-0.000932,0.006482,0.000012,0.006482,-0.000933,89.904521,0.007008,
770,550,1.972660,-15.161089,0.999995,0.000262,-0.005364,0.010414,-0.000248,0.010418,-0.005368,-89.098519,0.010420,
1800,1340,-3.079503,-7.040559,0.999996,0.000211,-0.005173,0.010177,0.000539,0.010195,-0.005192,87.990087,0.010196,
1710,980,-3.453388,-10.550759,0.999995,0.000254,-0.004289,0.009889,-0.000427,0.009902,-0.004302,-88.277651,0.009931,
600,1000,4.126907,-10.322043,0.999997,0.000202,-0.004165,0.008676,0.000233,0.008680,-0.004169,88.962144,0.008682,
600,30,0.225078,-19.968675,0.999965,0.000000,0.000435,0.011612,0.006285,0.014434,-0.002387,65.822713,0.015474,
850,1780,0.890317,-2.058338,0.999997,0.000225,-0.003463,0.009060,-0.000530,0.009082,-0.003485,-87.581168,0.009164,
1580,1430,-1.527550,-5.402371,0.999994,0.000275,-0.005951,0.010820,-0.000774,0.010855,-0.005986,-87.361456,0.010874,
1120,800,0.414222,-14.634125,0.999993,0.000312,-0.005395,0.007412,-0.004548,0.008863,-0.006846,-72.307515,0.009291,
660,1910,1.011886,-1.211930,0.999998,0.000249,-0.003713,0.010199,-0.002205,0.010540,-0.004054,-81.204280,0.010633,
1050,80,0.072274,-19.778443,0.999998,0.000173,-0.000579,0.006423,0.000503,0.006458,-0.000615,85.915235,0.007129,
950,1140,2.321034,-8.661706,0.999995,0.000284,-0.005811,0.013011,-0.001265,0.013096,-0.005895,-86.171206,0.013117,
1040,210,0.265813,-18.880303,0.999997,0.000218,-0.001811,0.007225,0.000288,0.007234,-0.001820,88.177623,0.007526,
1640,1280,-2.407337,-7.312962,0.999994,0.000276,-0.006221,0.011456,0.000800,0.011492,-0.006258,87.415548,0.011507,
1900,100,-1.104152,-19.011390,0.999995,0.000000,-0.004571,0.011925,-0.002436,0.012278,-0.004923,-81.773494,0.012358,
650,170,1.207548,-18.664231,0.999995,0.000271,-0.004281,0.010397,0.001562,0.010562,-0.004446,83.991500,0.010606,
1020,960,2.210325,-11.243383,0.999989,0.000411,-0.006136,0.016220,-0.001266,0.016292,-0.006207,-86.770025,0.016445,
680,1920,0.871331,-1.072035,0.999997,0.000229,-0.003644,0.009817,-0.002297,0.010198,-0.004026,-80.576333,0.010273,
590,1210,3.877189,-8.484464,0.999998,0.000158,-0.004508,0.009299,-0.000370,0.009309,-0.004518,-88.464498,0.009311,
1590,1210,-2.408524,-8.014980,0.999994,0.000324,-0.006203,0.011964,0.001213,0.012045,-0.006284,86.196620,0.012049,
1470,170,-0.269247,-19.139211,0.999998,0.000173,-0.001365,0.007259,-0.000684,0.007313,-0.001418,-85.495277,0.007756,
1110,260,0.200965,-18.570075,0.999998,0.000182,-0.001773,0.007168,0.000027,0.007168,-0.001773,89.827039,0.007467,
1670,1740,-1.226917,-2.560827,0.999997,0.000257,-0.004370,0.009646,0.000208,0.009649,-0.004373,89.149684,0.009663,
1420,1740,-0.394510,-2.066905,0.999997,0.000232,-0.002722,0.007765,-0.000171,0.007768,-0.002724,-89.063816,0.007883,
1680,280,-1.159748,-17.910172,0.999996,0.000207,-0.004219,0.009574,-0.000497,0.009592,-0.004237,-87.938415,0.009614,
900,80,0.162855,-19.746187,0.999998,0.000159,-0.000791,0.007031,0.001281,0.007236,-0.000996,80.931952,0.007844,
580,1390,3.327386,-6.770194,0.999997,0.000214,-0.004743,0.010174,-0.000222,0.010177,-0.004746,-89.146017,0.010185,
1270,1390,-0.084758,-4.265281,0.999998,0.000179,-0.002441,0.005300,-0.001162,0.005471,-0.002612,-81.644770,0.005473,
590,160,1.432530,-18.495219,0.999996,0.000265,-0.005001,0.010193,0.000792,0.010234,-0.005042,87.025398,0.010234,
640,1270,3.444919,-7.800140,0.999995,0.000281,-0.004951,0.009914,-0.000681,0.009945,-0.004982,-87.383148,0.009945,
1720,700,-2.594514,-13.479735,0.999995,0.000291,-0.005649,0.010762,-0.000502,0.010777,-0.005664,-88.249457,0.010782,
1130,680,0.269199,-15.548122,0.999997,0.000230,-0.003625,0.006742,-0.002799,0.007450,-0.004333,-75.813847,0.007483,
1760,1040,-3.697695,-9.959404,0.999996,0.000218,-0.004329,0.009601,0.000263,0.009606,-0.004334,88.918309,0.009621,
1170,390,0.139100,-17.680494,0.999998,0.000183,-0.002234,0.007176,-0.000161,0.007178,-0.002237,-89.017244,0.007346,
980,620,0.955238,-15.241894,0.999996,0.000249,-0.005544,0.009995,-0.001733,0.010186,-0.005734,-83.713906,0.010213,
600,980,4.111453,-10.493659,0.999996,0.000222,-0.004174,0.008575,0.000108,0.008576,-0.004175,89.515326,0.008577,
770,530,1.919689,-15.369680,0.999996,0.000234,-0.005275,0.010373,-0.000259,0.010377,-0.005280,-89.053601,0.010378,
1800,1320,-3.152808,-7.243983,0.999996,0.000221,-0.005138,0.010186,0.000610,0.010210,-0.005162,87.725361,0.010210,
1220,740,0.021568,-15.615346,0.999998,0.000163,-0.001956,0.003339,-0.000575,0.003401,-0.002018,-83.870312,0.003420,
710,1800,1.369520,-2.187492,0.999996,0.000282,-0.004684,0.009987,-0.000607,0.010012,-0.004709,-87.634623,0.010018,
1270,400,-0.089202,-17.620200,0.999998,0.000183,-0.002322,0.007139,0.000193,0.007143,-0.002326,88.829784,0.007287,
1260,1590,-0.069899,-2.993323,0.999998,0.000148,-0.002439,0.006907,-0.000292,0.006916,-0.002448,-88.209557,0.007013,
600,670,3.244337,-13.402805,0.999995,0.000260,-0.005000,0.010065,0.000206,0.010068,-0.005003,89.217844,0.010068,
980,1970,0.116348,-0.427581,0.999998,0.000156,-0.000663,0.006768,-0.000835,0.006860,-0.000755,-83.665775,0.007524,
590,2020,0.287197,-0.261644,0.999968,0.000000,0.000864,0.011844,-0.006510,0.014870,-0.002162,-65.069689,0.016068,
1890,780,-3.751842,-12.232906,0.999995,0.000288,-0.004717,0.009442,-0.000188,0.009445,-0.004720,-89.241025,0.009445,
960,1010,2.687167,-10.298346,0.999995,0.000252,-0.003915,0.012802,0.000323,0.012808,-0.003922,88.894525,0.013125,
1030,80,0.085811,-19.773490,0.999998,0.000176,-0.000606,0.006490,0.000611,0.006542,-0.000659,85.112398,0.007204,
1390,1780,-0.279277,-1.726832,0.999997,0.000228,-0.001916,0.007409,0.000090,0.007410,-0.001917,89.448138,0.007692,
1900,90,-1.008094,-19.133582,0.999996,0.000000,-0.004538,0.012477,-0.002772,0.012917,-0.004979,-80.975128,0.013030,
1120,780,0.364803,-14.783403,0.999995,0.000287,-0.005195,0.007292,-0.004382,0.008676,-0.006579,-72.468059,0.009054,
970,140,0.238643,-19.345449,0.999998,0.000174,-0.001425,0.007175,0.000771,0.007243,-0.001494,84.918772,0.007648,
1060,1330,0.625936,-5.466165,0.999995,0.000263,-0.006050,0.009718,0.003314,0.010386,-0.006719,78.599381,0.010534,
1640,1520,-1.651009,-4.667736,0.999995,0.000237,-0.005321,0.010369,-0.000470,0.010383,-0.005335,-88.285209,0.010384,
1070,170,0.164326,-19.183341,0.999998,0.000161,-0.001174,0.006874,0.000370,0.006891,-0.001191,87.376395,0.007366,
940,300,0.660087,-18.044420,0.999996,0.000228,-0.003063,0.008385,0.000137,0.008386,-0.003065,89.316043,0.008487,
840,830,2.540584,-12.248181,0.999995,0.000252,-0.006015,0.011621,0.001197,0.011702,-0.006096,86.133861,0.011705,
1020,210,0.301842,-18.863175,0.999997,0.000220,-0.001710,0.007378,0.000371,0.007393,-0.001725,87.663845,0.007735,
800,1490,1.850453,-5.058066,0.999996,0.000231,-0.005447,0.010465,0.000310,0.010471,-0.005453,88.884482,0.010474,
1370,1280,-0.513868,-5.634106,0.999996,0.000272,-0.006055,0.008985,-0.004208,0.010082,-0.007152,-75.385255,0.010372,
1860,1010,-4.121615,-10.234928,0.999997,0.000198,-0.004155,0.008723,-0.000244,0.008727,-0.004159,-88.914723,0.008731,
1330,90,-0.042100,-19.727837,0.999998,0.000156,-0.000549,0.006255,-0.000235,0.006263,-0.000557,-88.023740,0.006932,
680,1900,0.997853,-1.268266,0.999997,0.000226,-0.003993,0.010080,-0.001929,0.010340,-0.004253,-82.333270,0.010394,
1020,940,2.072947,-11.566621,0.999994,0.000287,-0.006233,0.015216,-0.001137,0.015276,-0.006293,-86.974369,0.015355,
1530,360,-0.799989,-17.507295,0.999996,0.000241,-0.003355,0.008749,0.000116,0.008750,-0.003357,89.452786,0.008829,
1040,1830,0.284432,-1.388077,0.999997,0.000218,-0.001967,0.007360,-0.000223,0.007365,-0.001972,-88.633479,0.007625,
1640,650,-1.958865,-14.263936,0.999995,0.000284,-0.005962,0.010999,0.000133,0.011000,-0.005963,89.549068,0.011013,
710,1200,3.338080,-8.381944,0.999996,0.000236,-0.004970,0.010052,-0.001010,0.010120,-0.005038,-86.169634,0.010120,
1470,150,-0.231594,-19.283703,0.999998,0.000180,-0.001144,0.007135,-0.000706,0.007195,-0.001204,-85.157979,0.007708,
1680,260,-1.086858,-18.101071,0.999997,0.000197,-0.004067,0.009446,-0.000654,0.009478,-0.004099,-87.234945,0.009506,
900,100,0.218852,-19.606045,0.999998,0.000179,-0.001061,0.007252,0.001248,0.007435,-0.001244,81.642835,0.007965,
650,130,0.941036,-19.081429,0.999995,0.000269,-0.003825,0.010377,0.002269,0.010731,-0.004179,81.141207,0.010818,
990,1460,0.872235,-4.627230,0.999996,0.000222,-0.005160,0.009646,0.001694,0.009837,-0.005351,83.557200,0.009850,
1640,1110,-3.077363,-9.219444,0.999996,0.000255,-0.004439,0.010530,0.001022,0.010599,-0.004508,86.112443,0.010639,
1600,710,-1.902196,-13.724987,0.999997,0.000217,-0.006457,0.011496,0.000067,0.011497,-0.006457,89.787442,0.011526,
1570,1620,-1.095539,-3.442342,0.999997,0.000239,-0.004365,0.009468,-0.000501,0.009486,-0.004384,-87.928658,0.009495,
980,600,0.926066,-15.440150,0.999997,0.000229,-0.005239,0.009840,-0.001620,0.010012,-0.005411,-83.936086,0.010023,
580,160,1.482891,-18.445171,0.999997,0.000235,-0.005456,0.010093,0.000834,0.010137,-0.005501,86.938811,0.010150,
1800,1300,-3.224174,-7.448180,0.999995,0.000246,-0.005093,0.010080,0.000699,0.010112,-0.005125,87.369179,0.010112,
1870,1630,-2.522778,-4.289589,0.999995,0.000273,-0.004940,0.009983,-0.000088,0.009984,-0.004940,-89.661527,0.009984,
600,960,4.094615,-10.662733,0.999996,0.000229,-0.004208,0.008559,0.000113,0.008560,-0.004209,89.494859,0.008561,
1670,1240,-2.751386,-7.834707,0.999996,0.000238,-0.005690,0.011081,0.001132,0.011157,-0.005766,86.155744,0.011159,
770,510,1.865428,-15.578562,0.999997,0.000213,-0.005206,0.010298,-0.000282,0.010303,-0.005211,-88.958065,0.010304,
1590,1190,-2.504345,-8.253512,0.999994,0.000301,-0.005935,0.011817,0.001327,0.011915,-0.006034,85.749666,0.011915,
1270,1370,-0.081991,-4.364300,0.999998,0.000179,-0.002391,0.004971,-0.001365,0.005216,-0.002635,-79.826652,0.005216,
1420,1760,-0.372543,-1.915266,0.999996,0.000247,-0.002545,0.007627,-0.000083,0.007628,-0.002546,-89.531141,0.007767,
1720,680,-2.524221,-13.694884,0.999993,0.000306,-0.005667,0.010700,-0.000406,0.010710,-0.005677,-88.581560,0.010717,
590,30,0.204407,-19.981257,0.999971,0.000000,0.001530,0.012760,0.007606,0.016600,-0.002310,63.217962,0.017983,
780,1730,1.315535,-2.693524,0.999996,0.000228,-0.004397,0.009809,-0.000175,0.009811,-0.004399,-89.292679,0.009828,
1900,80,-0.911505,-19.264389,0.999996,0.000000,-0.004398,0.012644,-0.003154,0.013209,-0.004963,-79.844894,0.013344,
1210,760,0.042952,-15.537123,0.999998,0.000168,-0.002195,0.002952,-0.001215,0.003224,-0.002468,-77.359881,0.003372,
1590,1940,-0.309197,-0.684481,0.999997,0.000230,-0.001635,0.007666,0.001375,0.007865,-0.001834,81.765567,0.008230,
830,1780,0.957718,-2.096483,0.999998,0.000157,-0.003384,0.009197,-0.000637,0.009229,-0.003416,-87.110944,0.009332,
1120,760,0.340705,-14.923564,0.999995,0.000273,-0.004851,0.007207,-0.004126,0.008484,-0.006128,-72.807856,0.008759,
1580,350,-0.960175,-17.486279,0.999997,0.000230,-0.004080,0.009153,0.000150,0.009154,-0.004082,89.351210,0.009172,
1020,920,1.917256,-11.852285,0.999991,0.000338,-0.006505,0.014729,-0.000995,0.014776,-0.006551,-87.323081,0.014807,
1640,540,-1.662296,-15.441541,0.999995,0.000260,-0.005339,0.010353,0.000480,0.010368,-0.005354,88.249030,0.010370,
1760,1020,-3.701827,-10.153906,0.999997,0.000213,-0.004320,0.009594,-0.000139,0.009596,-0.004321,-89.426268,0.009612,
1890,300,-2.206977,-17.037751,0.999997,0.000215,-0.004875,0.009670,0.000051,0.009671,-0.004875,89.800823,0.009671,
970,80,0.115174,-19.763495,0.999998,0.000171,-0.000759,0.006753,0.000869,0.006852,-0.000858,83.487511,0.007466,
940,1010,2.761188,-10.284397,0.999996,0.000215,-0.003672,0.012014,0.000400,0.012025,-0.003682,88.540118,0.012322,
940,280,0.616708,-18.217525,0.999996,0.000237,-0.002938,0.008417,0.000288,0.008425,-0.002945,88.545618,0.008551,
1550,1420,-1.371740,-5.385296,0.999995,0.000273,-0.006047,0.010828,-0.000999,0.010887,-0.006106,-86.624276,0.010914,
1780,830,-3.390601,-11.990661,0.999994,0.000276,-0.004950,0.009940,-0.000898,0.009994,-0.005004,-86.562154,0.009994,
780,1490,1.958529,-5.122764,0.999995,0.000273,-0.005464,0.010428,0.000221,0.010431,-0.005467,89.201884,0.010435,
1240,1590,-0.021612,-2.980707,0.999998,0.000155,-0.002483,0.006863,-0.000150,0.006866,-0.002486,-89.081239,0.006952,
1370,1930,-0.098398,-0.665801,0.999998,0.000148,-0.000691,0.006560,0.000389,0.006581,-0.000712,86.938833,0.007223,
1640,270,-0.967929,-18.095101,0.999998,0.000152,-0.003442,0.009174,-0.000690,0.009211,-0.003479,-86.877337,0.009303,
1840,1940,-0.949059,-1.028340,0.999996,0.000234,-0.004760,0.010633,0.001619,0.010801,-0.004929,84.059256,0.010815,
900,490,1.161133,-16.213480,0.999996,0.000239,-0.004748,0.009716,-0.000749,0.009754,-0.004787,-87.042157,0.009755,
590,1200,3.908870,-8.578634,0.999997,0.000173,-0.004445,0.009219,-0.000355,0.009228,-0.004454,-88.514033,0.009230,
680,1880,1.119847,-1.474701,0.999995,0.000276,-0.004201,0.010059,-0.001580,0.010232,-0.004374,-83.752678,0.010268,
1570,1360,-1.657429,-6.142777,0.999995,0.000256,-0.006555,0.011425,-0.000485,0.011438,-0.006568,-88.456670,0.011480,
1670,1300,-2.509344,-7.159410,0.999996,0.000241,-0.005972,0.011156,0.000760,0.011190,-0.006006,87.465121,0.011200,
1310,480,-0.199665,-17.014616,0.999998,0.000170,-0.002792,0.007158,0.000749,0.007214,-0.002848,85.717289,0.007268,
1680,240,-1.013788,-18.289872,0.999997,0.000200,-0.003911,0.009492,-0.000843,0.009545,-0.003963,-86.416467,0.009590,
900,120,0.279315,-19.455218,0.999997,0.000189,-0.001305,0.007531,0.001250,0.007705,-0.001479,82.099423,0.008178,
1850,1780,-1.914851,-2.721669,0.999997,0.000218,-0.004852,0.009944,0.000112,0.009945,-0.004853,89.564865,0.009946,
1220,720,0.022462,-15.689873,0.999998,0.000171,-0.001951,0.003845,-0.000561,0.003899,-0.002005,-84.520817,0.003900,
590,100,0.980601,-19.132268,0.999996,0.000230,-0.004601,0.011087,0.002238,0.011400,-0.004913,82.039163,0.011436,
1470,130,-0.194137,-19.425031,0.999998,0.000181,-0.000982,0.007004,-0.000766,0.007077,-0.001055,-84.572412,0.007636,
1810,1620,-2.251584,-4.195129,0.999996,0.000215,-0.005052,0.010130,-0.000141,0.010132,-0.005053,-89.469603,0.010132,
1800,1280,-3.295840,-7.651119,0.999995,0.000254,-0.005068,0.010061,0.000780,0.010101,-0.005108,87.056008,0.010102,
570,160,1.535692,-18.385794,0.999622,0.002376,-0.005716,0.009991,0.000889,0.010041,-0.005766,86.770598,0.010078,
980,580,0.905013,-15.634300,0.999997,0.000223,-0.005028,0.009672,-0.001553,0.009834,-0.005191,-84.034257,0.009839,
580,2020,0.279544,-0.248151,0.999966,0.000000,0.001248,0.012795,-0.007840,0.016758,-0.002715,-63.184907,0.017988,
600,940,4.066602,-10.838455,0.999997,0.000201,-0.004282,0.008811,0.000364,0.008821,-0.004292,88.408721,0.008822,
770,490,1.812943,-15.784187,0.999997,0.000214,-0.005100,0.010212,-0.000301,0.010218,-0.005106,-88.873152,0.010218,
1170,370,0.132997,-17.823750,0.999998,0.000172,-0.002170,0.007149,-0.000112,0.007150,-0.002171,-89.310801,0.007332,
1510,1870,-0.369817,-1.160522,0.999997,0.000237,-0.002041,0.007650,0.000697,0.007700,-0.002091,85.909727,0.007964,
630,800,3.548990,-12.189576,0.999996,0.000222,-0.004844,0.009730,0.000624,0.009757,-0.004871,87.554026,0.009757,
640,1520,2.611876,-5.255694,0.999995,0.000261,-0.005112,0.010215,0.000064,0.010216,-0.005112,89.760815,0.010216,
1070,150,0.139074,-19.322682,0.999998,0.000129,-0.000983,0.006812,0.000429,0.006836,-0.001006,86.858568,0.007381,
1290,760,-0.133511,-15.366157,0.999993,0.000338,-0.002979,0.004240,0.002954,0.005295,-0.004033,70.351604,0.005532,
850,1880,0.565024,-1.184734,0.999996,0.000231,-0.002341,0.008281,-0.001249,0.008426,-0.002486,-83.382162,0.008659,
1590,1170,-2.603065,-8.491883,0.999995,0.000288,-0.005601,0.011771,0.001458,0.011892,-0.005722,85.236324,0.011895,
1760,1000,-3.686559,-10.346604,0.999997,0.000223,-0.004323,0.009568,-0.000319,0.009575,-0.004330,-88.684158,0.009590,
1720,660,-2.453537,-13.909941,0.999995,0.000290,-0.005634,0.010634,-0.000299,0.010639,-0.005639,-88.946936,0.010646,
1420,1780,-0.345066,-1.760794,0.999996,0.000230,-0.002399,0.007598,0.000006,0.007598,-0.002399,89.965702,0.007768,
780,1270,2.705336,-7.524634,0.999994,0.000281,-0.005779,0.011059,-0.000998,0.011118,-0.005838,-86.620510,0.011123,
620,1450,2.927980,-6.036051,0.999997,0.000231,-0.005091,0.010143,-0.000082,0.010143,-0.005091,-89.692602,0.010143,
1370,900,-1.332194,-13.390643,0.999991,0.000371,-0.003510,0.009116,0.005979,0.011498,-0.005892,68.278036,0.011499,
1330,70,-0.030323,-19.853014,0.999998,0.000141,-0.000411,0.006178,-0.000268,0.006189,-0.000422,-87.673530,0.006915,
850,1520,1.508294,-4.571065,0.999994,0.000260,-0.005355,0.010307,0.000594,0.010330,-0.005378,87.830154,0.010333,
1850,1620,-2.453135,-4.323334,0.999995,0.000300,-0.004998,0.010059,-0.000125,0.010060,-0.005000,-89.526176,0.010060,
1580,330,-0.913804,-17.669053,0.999996,0.000245,-0.003896,0.009170,0.000007,0.009170,-0.003896,89.968407,0.009204,
1640,500,-1.566870,-15.855416,0.999995,0.000261,-0.005171,0.010193,0.000450,0.010206,-0.005184,88.324555,0.010206,
950,80,0.132607,-19.756627,0.999998,0.000182,-0.000782,0.006833,0.000999,0.006962,-0.000911,82.648094,0.007568,
810,1780,1.028780,-2.136433,0.999997,0.000212,-0.003811,0.009368,-0.000562,0.009392,-0.003835,-87.563764,0.009444,
1900,70,-0.815729,-19.394373,0.999996,0.000000,-0.003753,0.013295,-0.004217,0.014281,-0.004739,-76.839471,0.014547,
1120,740,0.318894,-15.067734,0.999995,0.000290,-0.004512,0.007067,-0.003843,0.008227,-0.005672,-73.211827,0.008421,
1520,290,-0.630409,-18.134268,0.999997,0.000214,-0.003007,0.008389,-0.000191,0.008392,-0.003011,-89.038739,0.008503,
1020,810,1.157961,-13.383187,0.999995,0.000265,-0.007788,0.012435,-0.002114,0.012654,-0.008006,-84.094685,0.012801,
1840,1920,-1.100160,-1.242965,0.999997,0.000218,-0.004865,0.010536,0.001271,0.010640,-0.004969,85.312740,0.010648,
990,1520,0.805570,-4.055993,0.999996,0.000240,-0.004515,0.009155,0.001356,0.009289,-0.004649,84.388861,0.009289,
1000,1030,2.534521,-10.043098,0.999990,0.000417,-0.004976,0.015108,0.000014,0.015108,-0.004976,89.961347,0.015399,
1060,1170,1.350880,-7.272739,0.999992,0.000325,-0.006736,0.012424,0.003495,0.013041,-0.007354,79.977439,0.013077,
1020,900,1.753190,-12.147553,0.999991,0.000356,-0.006930,0.014372,-0.000983,0.014417,-0.006975,-87.363918,0.014420,
580,30,0.186135,-19.992190,0.999992,0.000000,0.001335,0.013912,0.008561,0.018247,-0.002999,63.148939,0.019569,
1850,1880,-1.414467,-1.709055,0.999996,0.000253,-0.004901,0.010315,0.000753,0.010352,-0.004938,87.172298,0.010356,
1680,220,-0.933710,-18.480322,0.999997,0.000218,-0.003714,0.009281,-0.000996,0.009357,-0.003790,-85.642408,0.009413,
900,140,0.340227,-19.304354,0.999997,0.000202,-0.001568,0.007619,0.001150,0.007761,-0.001709,82.973623,0.008156,
980,560,0.883425,-15.828215,0.999997,0.000224,-0.004903,0.009492,-0.001453,0.009638,-0.005048,-84.292942,0.009641,
680,1860,1.224665,-1.672752,0.999995,0.000248,-0.004397,0.010113,-0.001261,0.010221,-0.004505,-85.070934,0.010245,
1470,110,-0.154659,-19.566962,0.999997,0.000203,-0.000770,0.006912,-0.000815,0.006998,-0.000855,-84.011891,0.007634,
1370,1910,-0.113440,-0.799542,0.999998,0.000159,-0.000844,0.006675,0.000358,0.006692,-0.000861,87.278650,0.007281,
1860,130,-1.160093,-18.870775,0.999996,0.000249,-0.004805,0.010611,-0.001372,0.010732,-0.004926,-84.954948,0.010744,
1800,490,-2.361491,-15.438326,0.999995,0.000271,-0.005121,0.010237,0.000157,0.010238,-0.005123,89.416189,0.010238,
1110,540,0.335388,-16.482575,0.999995,0.000269,-0.003318,0.007550,-0.001394,0.007726,-0.003494,-82.805366,0.007738,
940,1830,0.491210,-1.490391,0.999997,0.000217,-0.002378,0.007991,-0.000550,0.008020,-0.002407,-86.970609,0.008231,
1800,1260,-3.366880,-7.851533,0.999996,0.000248,-0.005032,0.010038,0.000804,0.010081,-0.005074,86.956122,0.010081,
770,470,1.763343,-15.988648,0.999996,0.000230,-0.005058,0.010122,-0.000293,0.010128,-0.005064,-88.893971,0.010128,
780,1010,3.365599,-10.256329,0.999997,0.000188,-0.004149,0.010036,0.000324,0.010044,-0.004157,88.693041,0.010093,
1720,640,-2.389741,-14.124502,0.999994,0.000293,-0.005606,0.010629,-0.000184,0.010631,-0.005608,-89.349685,0.010636,
1340,1590,-0.283962,-3.090037,0.999997,0.000185,-0.002812,0.007370,-0.000737,0.007423,-0.002865,-85.881329,0.007487,
600,920,4.019862,-11.020353,0.999997,0.000215,-0.004321,0.008916,0.000431,0.008930,-0.004335,88.138999,0.008931,
640,1500,2.670764,-5.462359,0.999995,0.000256,-0.005094,0.010223,0.000051,0.010223,-0.005095,89.810747,0.010223,
1590,1150,-2.694574,-8.725981,0.999996,0.000249,-0.005242,0.011533,0.001426,0.011653,-0.005362,85.175020,0.011666,
1270,80,-0.017361,-19.792810,0.999998,0.000161,-0.000339,0.006140,-0.000101,0.006141,-0.000340,-89.108564,0.006903,
1900,60,-0.707482,-19.517864,0.999970,0.000000,-0.002866,0.014097,-0.005743,0.015859,-0.004628,-72.949117,0.016311,
1140,1200,0.661434,-5.576310,0.999997,0.000252,-0.004005,0.004404,0.002357,0.005020,-0.004621,75.361869,0.005580,
1270,760,-0.082590,-15.475300,0.999997,0.000187,-0.002420,0.003436,0.002056,0.004085,-0.003070,72.462134,0.004254,
1660,1690,-1.328807,-3.020430,0.999997,0.000187,-0.004608,0.009700,-0.000057,0.009701,-0.004608,-89.770673,0.009705,
1430,290,-0.393161,-18.267059,0.999997,0.000230,-0.002486,0.007732,0.000034,0.007732,-0.002486,89.807397,0.007895,
850,1860,0.632267,-1.351296,0.999996,0.000239,-0.002623,0.008566,-0.001162,0.008686,-0.002743,-84.135384,0.008880,
1630,1910,-0.485359,-0.946116,0.999996,0.000227,-0.001826,0.008161,0.001598,0.008411,-0.002075,81.126446,0.008763,
1120,720,0.307687,-15.211622,0.999995,0.000276,-0.004268,0.007086,-0.003543,0.008101,-0.005283,-74.014839,0.008225,
1360,210,-0.169061,-18.918961,0.999998,0.000165,-0.001398,0.006937,-0.000198,0.006942,-0.001402,-88.639674,0.007341,
1270,1350,-0.078511,-4.462136,0.999997,0.000200,-0.002352,0.004590,-0.001561,0.004925,-0.002687,-77.889790,0.004932,
1220,270,0.019051,-18.549393,0.999998,0.000160,-0.001713,0.006949,-0.000054,0.006949,-0.001713,-89.644674,0.007241,
660,1850,1.365914,-1.833430,0.999995,0.000254,-0.004432,0.010237,-0.001184,0.010332,-0.004527,-85.414130,0.010358,
1220,700,0.023380,-15.769623,0.999998,0.000179,-0.002017,0.004283,-0.000515,0.004325,-0.002059,-85.356027,0.004327,
1760,980,-3.668018,-10.536632,0.999997,0.000224,-0.004404,0.009535,-0.000305,0.009542,-0.004411,-88.745946,0.009551,
910,940,2.663975,-11.084814,0.999995,0.000288,-0.004742,0.011823,0.001443,0.011947,-0.004867,85.058577,0.012015,
940,260,0.574385,-18.382847,0.999997,0.000229,-0.002723,0.008188,0.000368,0.008200,-0.002735,88.068900,0.008350,
1650,420,-1.426130,-16.625141,0.999995,0.000253,-0.004705,0.009861,0.000239,0.009865,-0.004709,89.058484,0.009868,
1460,770,-1.125539,-13.735980,0.999995,0.000305,-0.007493,0.012041,0.001957,0.012236,-0.007687,84.333827,0.012369,
1790,1620,-2.151294,-4.128160,0.999995,0.000259,-0.005005,0.010136,-0.000171,0.010138,-0.005007,-89.351174,0.010138,
980,540,0.858981,-16.018054,0.999996,0.000241,-0.004744,0.009322,-0.001359,0.009452,-0.004874,-84.532852,0.009453,
1170,350,0.129476,-17.966852,0.999998,0.000151,-0.002059,0.007117,-0.000087,0.007118,-0.002060,-89.456949,0.007325,
920,1830,0.539994,-1.514342,0.999996,0.000228,-0.002283,0.008140,-0.000710,0.008188,-0.002331,-86.123528,0.008437,
900,580,1.330279,-15.305743,0.999995,0.000267,-0.005559,0.010360,-0.000934,0.010415,-0.005614,-86.654499,0.010425,
710,1720,1.666138,-2.993519,0.999996,0.000223,-0.004842,0.010025,-0.000034,0.010025,-0.004842,-89.869494,0.010027,
1680,200,-0.854247,-18.664102,0.999996,0.000248,-0.003520,0.009242,-0.001235,0.009360,-0.003638,-84.522982,0.009438,
640,1480,2.730451,-5.667037,0.999996,0.000231,-0.005102,0.010250,-0.000008,0.010250,-0.005102,-89.971303,0.010250,
1830,1300,-3.374931,-7.517367,0.999995,0.000234,-0.004959,0.009857,0.000560,0.009878,-0.004981,87.839310,0.009878,
1460,370,-0.574814,-17.581751,0.999997,0.000225,-0.003011,0.008306,0.000316,0.008315,-0.003020,88.402398,0.008418,
1720,1110,-3.433456,-9.261143,0.999995,0.000260,-0.004525,0.010054,0.000877,0.010107,-0.004578,86.568838,0.010121,
1320,1590,-0.226296,-3.055540,0.999998,0.000187,-0.002866,0.007252,-0.000744,0.007307,-0.002921,-85.816740,0.007356,
1860,170,-1.432146,-18.456114,0.999996,0.000241,-0.004892,0.010284,-0.000749,0.010321,-0.004928,-87.182675,0.010325,
860,1010,3.051218,-10.266551,0.999997,0.000219,-0.003778,0.010583,0.000346,0.010591,-0.003787,88.622076,0.010733,
830,680,2.009196,-13.953486,0.999996,0.000259,-0.006155,0.011121,0.000001,0.011121,-0.006155,89.996459,0.011142,
1070,130,0.117200,-19.456876,0.999998,0.000157,-0.000814,0.006677,0.000445,0.006703,-0.000840,86.609376,0.007304,
1800,1240,-3.437830,-8.052380,0.999996,0.000241,-0.004911,0.009866,0.000809,0.009911,-0.004955,86.875736,0.009911,
1030,1360,0.766084,-5.388635,0.999996,0.000273,-0.006035,0.010127,0.002663,0.010554,-0.006462,80.880669,0.010642,
570,2020,0.238809,-0.269435,0.999748,0.000000,0.001428,0.013712,-0.009095,0.018544,-0.003404,-62.015385,0.019743,
1140,1190,0.786833,-5.612498,0.999997,0.000241,-0.003639,0.003959,0.002215,0.004557,-0.004237,74.875297,0.005088,
1590,1130,-2.779698,-8.954731,0.999996,0.000248,-0.004870,0.011337,0.001454,0.011467,-0.004999,84.914612,0.011498,
1900,50,-0.540246,-19.677587,0.999965,0.000000,-0.001946,0.015002,-0.007270,0.017693,-0.004637,-69.687674,0.018349,
1320,1980,-0.028974,-0.337259,0.999998,0.000178,-0.000358,0.006175,0.000229,0.006183,-0.000366,87.991908,0.006937,
880,810,2.195221,-12.588606,0.999996,0.000267,-0.006588,0.012118,0.000807,0.012153,-0.006623,87.534236,0.012169,
580,290,2.134209,-17.161623,0.999997,0.000231,-0.004612,0.009702,0.000007,0.009702,-0.004612,89.971722,0.009706,
1040,1190,1.334703,-7.284476,0.999992,0.000342,-0.007276,0.013355,0.002409,0.013632,-0.007553,83.427896,0.013659,
1190,760,0.090250,-15.460413,0.999998,0.000187,-0.002521,0.003533,-0.002196,0.004245,-0.003233,-72.022012,0.004435,
1250,80,-0.008472,-19.794035,0.999998,0.000147,-0.000428,0.006098,-0.000027,0.006098,-0.000428,-89.765183,0.006808,
670,160,1.066489,-18.815507,0.999996,0.000230,-0.003951,0.010207,0.001916,0.010461,-0.004206,82.428383,0.010528,
680,1450,2.617392,-5.855370,0.999996,0.000223,-0.005277,0.010327,-0.000098,0.010328,-0.005278,-89.640300,0.010329,
600,900,3.977121,-11.196760,0.999996,0.000217,-0.004305,0.008862,0.000328,0.008870,-0.004313,88.574107,0.008871,
1370,1890,-0.138234,-0.934683,0.999998,0.000168,-0.001000,0.006763,0.000336,0.006777,-0.001015,87.525546,0.007311,
830,1880,0.610912,-1.204341,0.999996,0.000228,-0.002281,0.008485,-0.001405,0.008665,-0.002461,-82.687031,0.008930,
1880,1490,-2.990328,-5.741808,0.999996,0.000265,-0.005034,0.010203,0.000017,0.010203,-0.005034,89.935467,0.010204,
1000,810,1.314915,-13.210223,0.999991,0.000380,-0.007833,0.012790,-0.001426,0.012888,-0.007931,-86.064143,0.013002,
1110,600,0.345684,-16.027972,0.999996,0.000244,-0.003616,0.007453,-0.001956,0.007788,-0.003951,-80.268242,0.007789,
1270,1770,-0.069357,-1.724454,0.999998,0.000163,-0.001716,0.006988,-0.000003,0.006988,-0.001716,-89.977885,0.007283,
1020,990,2.351658,-10.759067,0.999989,0.000385,-0.006376,0.017299,-0.000984,0.017340,-0.006417,-87.625105,0.017534,
1510,1850,-0.421509,-1.321329,0.999997,0.000220,-0.002247,0.007798,0.000615,0.007835,-0.002285,86.510170,0.008059,
850,1370,1.902374,-6.193509,0.999994,0.000295,-0.006306,0.011283,0.000134,0.011284,-0.006307,89.563787,0.011310,
1430,270,-0.360382,-18.426090,0.999997,0.000232,-0.002306,0.007639,-0.000056,0.007639,-0.002306,-89.677586,0.007837,
1650,400,-1.375523,-16.824974,0.999996,0.000225,-0.004656,0.009852,0.000175,0.009854,-0.004658,89.308706,0.009859,
820,380,1.292351,-17.041865,0.999996,0.000261,-0.004480,0.009696,-0.000067,0.009696,-0.004480,-89.728223,0.009706,
870,1940,0.312583,-0.685953,0.999997,0.000223,-0.001654,0.007650,-0.001419,0.007861,-0.001866,-81.516141,0.008215,
1800,1870,-1.245135,-1.618516,0.999995,0.000275,-0.004229,0.010180,0.001483,0.010331,-0.004380,84.185760,0.010371,
1130,1780,0.172375,-1.680187,0.999997,0.000197,-0.001946,0.007158,0.000070,0.007159,-0.001947,89.560615,0.007403,
1460,430,-0.642857,-17.077942,0.999997,0.000193,-0.003653,0.008525,0.000760,0.008572,-0.003701,86.443036,0.008599,
830,660,1.947001,-14.176066,0.999996,0.000214,-0.006076,0.011075,-0.000141,0.011077,-0.006077,-89.527390,0.011094,
1200,1590,0.078132,-2.996195,0.999998,0.000178,-0.002443,0.006969,0.000311,0.006979,-0.002454,88.107865,0.007081,
1530,980,-2.719380,-10.643404,0.999998,0.000184,-0.004052,0.012060,-0.000924,0.012113,-0.004105,-86.730015,0.012321,
1620,1110,-2.989798,-9.206467,0.999997,0.000212,-0.004438,0.010753,0.001092,0.010831,-0.004516,85.909726,0.010881,
640,1460,2.794257,-5.872212,0.999995,0.000247,-0.005134,0.010185,-0.000098,0.010186,-0.005134,-89.635195,0.010186,
1790,1600,-2.210755,-4.331990,0.999998,0.000183,-0.005055,0.010166,-0.000168,0.010167,-0.005056,-89.369301,0.010167,
1710,1540,-1.968277,-4.690148,0.999996,0.000222,-0.005225,0.010321,-0.000244,0.010325,-0.005229,-89.101902,0.010325,
1890,1240,-3.860918,-8.249087,0.999996,0.000224,-0.004532,0.009193,0.000225,0.009196,-0.004536,89.061508,0.009196,
730,390,1.742526,-16.673397,0.999997,0.000254,-0.004867,0.010125,-0.000082,0.010126,-0.004868,-89.685741,0.010128,
570,30,0.176379,-19.994048,0.999762,0.000000,0.001034,0.014746,0.009528,0.019629,-0.003848,62.868553,0.020803,
1690,1340,-2.475832,-6.765988,0.999993,0.000313,-0.005886,0.010963,0.000549,0.010981,-0.005904,88.136378,0.010992,
1070,110,0.091054,-19.588235,0.999998,0.000181,-0.000609,0.006558,0.000471,0.006589,-0.000640,86.255852,0.007267,
1800,1220,-3.504630,-8.249720,0.999996,0.000253,-0.004821,0.009743,0.000800,0.009787,-0.004865,86.865519,0.009787,
780,1830,0.965899,-1.731602,0.999997,0.000223,-0.003762,0.009334,-0.000979,0.009407,-0.003835,-85.747480,0.009460,
1680,180,-0.764010,-18.852279,0.999996,0.000218,-0.003283,0.008999,-0.001415,0.009160,-0.003444,-83.510890,0.009253,
1900,40,-0.364438,-19.834394,0.999992,0.000000,-0.000606,0.015696,-0.008459,0.019292,-0.004203,-66.968664,0.020290,
890,940,2.760676,-11.055685,0.999996,0.000250,-0.004637,0.011479,0.001405,0.011600,-0.004759,85.055476,0.011662,
1730,1300,-2.853886,-7.293406,0.999995,0.000269,-0.005501,0.010672,0.000830,0.010715,-0.005543,87.069660,0.010717,
1550,1650,-0.951283,-3.099020,0.999997,0.000197,-0.004095,0.009183,-0.000447,0.009198,-0.004110,-88.075749,0.009215,
1320,1960,-0.037505,-0.461701,0.999998,0.000189,-0.000518,0.006272,0.000199,0.006278,-0.000524,88.321054,0.006966,
1290,80,-0.021587,-19.792780,0.999998,0.000175,-0.000280,0.006169,-0.000187,0.006175,-0.000285,-88.343589,0.006971,
1590,1110,-2.859811,-9.182083,0.999996,0.000256,-0.004517,0.011137,0.001260,0.011238,-0.004618,85.426535,0.011297,
1390,500,-0.451588,-16.679788,0.999996,0.000205,-0.003505,0.008004,0.001231,0.008134,-0.003635,83.963055,0.008150,
860,810,2.325165,-12.532683,0.999994,0.000299,-0.006394,0.011879,0.000968,0.011930,-0.006445,86.975577,0.011943,
1370,1870,-0.155412,-1.069586,0.999998,0.000174,-0.001135,0.006813,0.000266,0.006822,-0.001143,88.085487,0.007307,
760,1790,1.199927,-2.159757,0.999994,0.000274,-0.004033,0.009692,-0.000753,0.009733,-0.004075,-86.870672,0.009776,
1840,1900,-1.239837,-1.451935,0.999995,0.000269,-0.004893,0.010404,0.000974,0.010465,-0.004955,86.373032,0.010470,
600,880,3.933547,-11.374223,0.999996,0.000239,-0.004362,0.008949,0.000346,0.008958,-0.004371,88.514129,0.008958,
1870,1490,-2.939531,-5.710512,0.999996,0.000235,-0.005072,0.010190,0.000009,0.010190,-0.005072,89.966747,0.010190,
1120,700,0.304431,-15.355722,0.999996,0.000250,-0.004038,0.007102,-0.003171,0.007942,-0.004877,-75.172654,0.008010,
580,280,2.095738,-17.257476,0.999997,0.000222,-0.004619,0.009702,0.000003,0.009702,-0.004619,89.986064,0.009706,
1000,790,1.225451,-13.464462,0.999995,0.000287,-0.007726,0.012442,-0.001701,0.012585,-0.007869,-85.212155,0.012716,
780,430,1.607823,-16.427078,0.999995,0.000270,-0.004888,0.010021,-0.000256,0.010026,-0.004892,-89.016514,0.010027,
940,240,0.529411,-18.545421,0.999997,0.000218,-0.002557,0.008170,0.000532,0.008196,-0.002584,87.167396,0.008381,
1020,970,2.264693,-11.078710,0.999983,0.000532,-0.006193,0.016440,-0.001264,0.016511,-0.006263,-86.813852,0.016670,
910,140,0.327383,-19.309383,0.999997,0.000202,-0.001401,0.007544,0.001130,0.007685,-0.001542,82.910975,0.008131,
1020,1190,1.485693,-7.505281,0.999993,0.000339,-0.007676,0.013749,0.001325,0.013831,-0.007757,86.474610,0.013865,
990,1960,0.129729,-0.492409,0.999998,0.000193,-0.000638,0.006773,-0.000788,0.006856,-0.000721,-83.996254,0.007535,
1460,410,-0.620046,-17.247011,0.999996,0.000221,-0.003421,0.008408,0.000589,0.008438,-0.003450,87.156511,0.008484,
820,580,1.780644,-15.011871,0.999996,0.000220,-0.005612,0.010567,-0.000391,0.010577,-0.005621,-88.617141,0.010584,
1430,250,-0.336902,-18.574025,0.999997,0.000230,-0.002148,0.007544,-0.000162,0.007547,-0.002151,-89.040948,0.007776,
560,2020,0.256986,-0.250686,0.999748,0.000000,0.001356,0.013847,-0.010230,0.019587,-0.004384,-60.703276,0.020559,
740,1430,2.357796,-5.886399,0.999995,0.000243,-0.005526,0.010566,-0.000103,0.010567,-0.005527,-89.631608,0.010571,
1180,1590,0.126864,-3.009727,0.999998,0.000159,-0.002474,0.007051,0.000326,0.007062,-0.002485,88.040192,0.007164,
1510,1830,-0.460191,-1.474298,0.999997,0.000211,-0.002468,0.007928,0.000445,0.007947,-0.002487,87.553296,0.008131,
850,1350,1.966128,-6.423003,0.999995,0.000267,-0.006379,0.011431,-0.000013,0.011431,-0.006379,-89.958567,0.011457,
640,1440,2.857984,-6.076830,0.999995,0.000263,-0.005128,0.010200,-0.000146,0.010201,-0.005129,-89.455035,0.010201,
790,1140,3.144561,-8.924750,0.999994,0.000296,-0.004799,0.010534,-0.001178,0.010624,-0.004890,-85.630879,0.010635,
760,1010,3.449027,-10.254347,0.999995,0.000238,-0.004227,0.009919,0.000317,0.009926,-0.004234,88.715582,0.009962,
940,1650,0.848904,-3.032228,0.999997,0.000215,-0.003753,0.008879,0.000413,0.008892,-0.003766,88.128422,0.008927,
1670,1340,-2.357339,-6.712599,0.999995,0.000266,-0.006024,0.011122,0.000468,0.011135,-0.006037,88.438573,0.011148,
1110,580,0.342710,-16.179547,0.999996,0.000236,-0.003534,0.007486,-0.001754,0.007758,-0.003806,-81.171507,0.007758,
1900,30,-0.187328,-19.993589,0.999992,0.000000,0.000329,0.015659,-0.009031,0.019839,-0.003851,-65.162238,0.021040,
810,680,2.132696,-13.889785,0.999996,0.000268,-0.006066,0.011038,0.000136,0.011039,-0.006067,89.544024,0.011057,
1270,1790,-0.062067,-1.583527,0.999998,0.000174,-0.001568,0.006901,-0.000027,0.006901,-0.001568,-89.814189,0.007236,
1550,1300,-1.729466,-6.769278,0.999993,0.000280,-0.007083,0.012142,-0.000241,0.012145,-0.007086,-89.281377,0.012201,
1680,160,-0.679557,-19.024796,0.999997,0.000212,-0.003011,0.008890,-0.001651,0.009115,-0.003236,-82.246004,0.009242,
1070,90,0.071245,-19.719115,0.999998,0.000172,-0.000483,0.006403,0.000432,0.006430,-0.000510,86.424475,0.007149,
1320,1940,-0.049772,-0.589612,0.999998,0.000178,-0.000644,0.006397,0.000221,0.006404,-0.000651,88.202042,0.007049,
1350,1780,-0.206097,-1.695962,0.999998,0.000203,-0.001928,0.007222,-0.000010,0.007222,-0.001928,-89.934683,0.007479,
1730,1240,-3.077673,-7.932970,0.999997,0.000228,-0.005307,0.010486,0.001070,0.010558,-0.005379,86.140742,0.010559,
1090,80,0.054490,-19.784364,0.999998,0.000174,-0.000384,0.006327,0.000416,0.006353,-0.000409,86.465091,0.007111,
1860,1490,-2.888509,-5.680254,0.999996,0.000209,-0.005091,0.010193,0.000003,0.010193,-0.005091,89.987379,0.010193,
1590,1530,-1.364412,-4.389869,0.999996,0.000277,-0.005130,0.010111,-0.000703,0.010143,-0.005163,-87.363394,0.010144,
1800,1200,-3.567329,-8.445558,0.999995,0.000258,-0.004793,0.009775,0.000865,0.009826,-0.004845,86.615562,0.009826,
1390,520,-0.460852,-16.518204,0.999997,0.000204,-0.003561,0.007990,0.001311,0.008137,-0.003708,83.607365,0.008147,
1470,1000,-2.530816,-10.485273,0.999991,0.000333,-0.004796,0.015054,-0.000115,0.015055,-0.004796,-89.666954,0.015382,
600,860,3.878873,-11.559494,0.999996,0.000221,-0.004487,0.009232,0.000469,0.009248,-0.004503,88.043028,0.009249,
1370,1850,-0.176861,-1.209080,0.999998,0.000168,-0.001325,0.007013,0.000270,0.007021,-0.001333,88.146830,0.007458,
1800,1850,-1.352708,-1.824233,0.999994,0.000277,-0.004440,0.010224,0.001194,0.010320,-0.004537,85.374724,0.010345,
1830,1680,-2.170618,-3.650492,0.999996,0.000217,-0.004951,0.010096,-0.000093,0.010096,-0.004952,-89.647551,0.010097,
730,370,1.682030,-16.877525,0.999995,0.000273,-0.004868,0.010044,-0.000001,0.010044,-0.004868,-89.996805,0.010046,
1890,1730,-2.297369,-3.368669,0.999996,0.000247,-0.004882,0.009830,-0.000081,0.009831,-0.004882,-89.684427,0.009831,
560,2010,0.466110,-0.383860,0.999748,0.000000,-0.001027,0.014906,-0.009041,0.018990,-0.005111,-65.691758,0.019653,
790,560,1.891281,-15.121061,0.999996,0.000221,-0.005419,0.010473,-0.000286,0.010478,-0.005424,-88.968589,0.010480,
1610,840,-2.506999,-12.159140,0.999992,0.000325,-0.006042,0.011712,-0.001218,0.011795,-0.006126,-86.092471,0.011798,
1840,1880,-1.365626,-1.663221,0.999995,0.000276,-0.004873,0.010364,0.000823,0.010409,-0.004917,86.915858,0.010414,
760,430,1.708211,-16.362225,0.999996,0.000237,-0.004980,0.010113,-0.000228,0.010117,-0.004984,-89.133413,0.010117,
820,820,2.616210,-12.321521,0.999994,0.000311,-0.005896,0.011391,0.001153,0.011468,-0.005973,86.199854,0.011471,
650,800,3.450370,-12.231369,0.999996,0.000248,-0.004931,0.009930,0.000774,0.009970,-0.004972,87.025542,0.009970,
1550,1110,-2.676007,-9.130744,0.999995,0.000273,-0.004644,0.011834,0.001396,0.011952,-0.004761,85.191270,0.012034,
760,1830,1.039632,-1.771643,0.999998,0.000184,-0.003637,0.009515,-0.001129,0.009611,-0.003733,-85.127627,0.009691,
810,940,3.121993,-10.984929,0.999996,0.000271,-0.004503,0.010441,0.001011,0.010509,-0.004572,86.147841,0.010538,
1030,1960,0.103505,-0.484043,0.999998,0.000173,-0.000700,0.006593,-0.000586,0.006640,-0.000747,-85.438690,0.007275,
1120,680,0.304992,-15.494861,0.999996,0.000253,-0.003852,0.007115,-0.002851,0.007811,-0.004549,-76.265042,0.007847,
1460,570,-0.780243,-15.830457,0.999996,0.000225,-0.004815,0.009241,0.001633,0.009428,-0.005002,83.460933,0.009434,
830,140,0.473043,-19.250893,0.999996,0.000222,-0.001749,0.008156,0.001632,0.008418,-0.002011,80.880571,0.008793,
1890,2020,-0.278411,-0.251078,0.999993,0.000000,0.001077,0.014477,0.008115,0.018300,-0.002747,64.772193,0.019738,
1000,1190,1.643224,-7.688270,0.999992,0.000359,-0.007686,0.013825,0.000627,0.013844,-0.007704,88.333142,0.013873,
1710,1420,-2.316184,-5.953723,0.999996,0.000254,-0.005606,0.010648,0.000133,0.010649,-0.005608,89.532770,0.010654,
1270,1810,-0.060079,-1.446192,0.999998,0.000200,-0.001462,0.006887,0.000037,0.006888,-0.001462,89.749362,0.007258,
770,1380,2.351285,-6.334780,0.999995,0.000259,-0.005788,0.010901,-0.000282,0.010906,-0.005793,-89.033639,0.010913,
980,1010,2.607935,-10.313496,0.999994,0.000308,-0.004248,0.013928,0.000242,0.013931,-0.004252,89.236808,0.014279,
940,220,0.481397,-18.708225,0.999997,0.000212,-0.002306,0.007942,0.000582,0.007975,-0.002339,86.762386,0.008199,
1430,230,-0.304121,-18.729731,0.999997,0.000227,-0.002003,0.007458,-0.000233,0.007464,-0.002009,-88.587847,0.007725,
1600,1110,-2.903726,-9.189999,0.999997,0.000229,-0.004482,0.010993,0.001209,0.011087,-0.004576,85.559026,0.011143,
640,1420,2.922420,-6.282797,0.999996,0.000236,-0.005110,0.010222,-0.000195,0.010224,-0.005112,-89.272712,0.010224,
1320,1920,-0.062673,-0.716915,0.999998,0.000155,-0.000815,0.006461,0.000180,0.006466,-0.000819,88.581577,0.007041,
1490,1420,-1.018825,-5.107261,0.999995,0.000264,-0.005817,0.010194,-0.001724,0.010378,-0.006000,-83.923072,0.010420,
1750,520,-2.189804,-15.289201,0.999995,0.000279,-0.005223,0.010274,0.000144,0.010276,-0.005224,89.468367,0.010276,
1750,1240,-3.183465,-7.967354,0.999995,0.000306,-0.005199,0.010355,0.001037,0.010424,-0.005267,86.203255,0.010424,
1070,80,0.060748,-19.782826,0.999998,0.000157,-0.000399,0.006373,0.000458,0.006404,-0.000430,86.146758,0.007159,
1110,560,0.338626,-16.331848,0.999996,0.000221,-0.003437,0.007459,-0.001584,0.007685,-0.003663,-81.894464,0.007688,
1030,540,0.637545,-16.204180,0.999997,0.000214,-0.004263,0.008732,-0.001555,0.008915,-0.004447,-83.271064,0.008915,
1800,1180,-3.631425,-8.639735,0.999996,0.000254,-0.004725,0.009713,0.000876,0.009766,-0.004778,86.542617,0.009767,
1360,1650,-0.314639,-2.674796,0.999997,0.000207,-0.002625,0.007463,-0.000492,0.007487,-0.002649,-87.216357,0.007593,
1070,70,0.049877,-19.846560,0.999998,0.000173,-0.000334,0.006325,0.000468,0.006358,-0.000367,86.000809,0.007139,
1510,1420,-1.133110,-5.204246,0.999997,0.000219,-0.005851,0.010413,-0.001439,0.010539,-0.005977,-84.983366,0.010571,
930,1780,0.632593,-1.916948,0.999997,0.000216,-0.002815,0.008426,-0.000339,0.008437,-0.002825,-88.276631,0.008589,
1180,1310,0.113217,-4.692902,0.999997,0.000198,-0.002636,0.004233,0.002478,0.005033,-0.003437,72.097387,0.005144,
1680,140,-0.577879,-19.208990,0.999997,0.000227,-0.002702,0.008588,-0.001750,0.008853,-0.002967,-81.387051,0.009012,
620,190,1.472858,-18.330274,0.999994,0.000282,-0.004887,0.010207,0.000617,0.010232,-0.004912,87.663369,0.010235,
1840,1050,-4.033230,-9.877993,0.999998,0.000191,-0.004225,0.008907,0.000274,0.008912,-0.004231,88.804851,0.008916,
1590,1550,-1.323778,-4.189004,0.999996,0.000291,-0.005018,0.009979,-0.000668,0.010009,-0.005047,-87.456435,0.010009,
1370,1830,-0.196983,-1.349283,0.999998,0.000190,-0.001468,0.007081,0.000199,0.007086,-0.001473,88.664935,0.007478,
850,1330,2.040502,-6.652660,0.999996,0.000250,-0.006443,0.011543,-0.000185,0.011545,-0.006445,-89.410088,0.011571,
1520,80,-0.140436,-19.753658,0.999998,0.000155,-0.000730,0.006841,-0.001021,0.006977,-0.000866,-82.451712,0.007606,
680,230,1.400115,-18.131336,0.999997,0.000229,-0.004599,0.010056,0.000842,0.010104,-0.004647,86.723306,0.010115,
1620,1830,-0.755516,-1.623834,0.999995,0.000270,-0.002901,0.008765,0.000977,0.008846,-0.002983,85.244041,0.009002,
1780,1850,-1.265023,-1.767895,0.999994,0.000282,-0.004478,0.010113,0.001148,0.010202,-0.004568,85.527891,0.010221,
1200,130,0.023707,-19.479173,0.999998,0.000141,-0.000696,0.006375,0.000053,0.006376,-0.000696,89.573283,0.006995,
810,1790,0.993917,-2.042726,0.999997,0.000199,-0.003744,0.009297,-0.000629,0.009327,-0.003774,-87.243753,0.009384,
1430,210,-0.280528,-18.873599,0.999998,0.000218,-0.001787,0.007257,-0.000315,0.007268,-0.001798,-88.009147,0.007571,
1120,1220,0.573789,-5.777748,0.999994,0.000343,-0.005231,0.007150,0.004254,0.008471,-0.006552,72.752245,0.008883,
560,2000,0.658471,-0.530715,0.999559,0.000000,-0.002717,0.014676,-0.007483,0.017452,-0.005493,-69.645697,0.017847,
1890,30,-0.186704,-19.993585,0.999992,0.000000,0.000545,0.015024,-0.008667,0.019078,-0.003509,-64.935820,0.020309,
730,350,1.617701,-17.078829,0.999995,0.000269,-0.004814,0.009988,0.000074,0.009988,-0.004815,89.713145,0.009990,
600,840,3.816012,-11.748147,0.999997,0.000210,-0.004584,0.009317,0.000458,0.009333,-0.004599,88.114566,0.009333,
1190,1720,0.084499,-2.077467,0.999998,0.000184,-0.001999,0.007105,0.000106,0.007107,-0.002000,89.333452,0.007330,
1550,1090,-2.751760,-9.366127,0.999995,0.000271,-0.004278,0.011613,0.001134,0.011694,-0.004359,85.940265,0.011820,
1660,1330,-2.333994,-6.796449,0.999995,0.000248,-0.006104,0.011179,0.000515,0.011194,-0.006119,88.293224,0.011211,
960,730,1.306987,-13.934346,0.999993,0.000311,-0.007052,0.011720,-0.001305,0.011810,-0.007142,-86.041000,0.011896,
860,870,2.602677,-11.823855,0.999996,0.000249,-0.005694,0.011631,0.001384,0.011741,-0.005804,85.460883,0.011741,
1010,1960,0.118819,-0.488121,0.999998,0.000179,-0.000612,0.006667,-0.000714,0.006736,-0.000682,-84.446601,0.007416,
640,1400,2.988508,-6.487857,0.999996,0.000222,-0.005115,0.010205,-0.000275,0.010210,-0.005120,-88.971611,0.010210,
1580,1110,-2.812467,-9.170331,0.999994,0.000293,-0.004568,0.011293,0.001319,0.011402,-0.004677,85.279185,0.011463,
940,200,0.435867,-18.864597,0.999996,0.000230,-0.002127,0.007895,0.000725,0.007947,-0.002179,85.881755,0.008213,
1690,1420,-2.203477,-5.894396,0.999994,0.000291,-0.005720,0.010739,0.000048,0.010739,-0.005720,89.833428,0.010747,
1730,520,-2.085634,-15.354452,0.999996,0.000252,-0.005215,0.010301,0.000198,0.010304,-0.005218,89.270807,0.010304,
1450,1160,-1.763451,-7.999362,0.999993,0.000302,-0.007124,0.014137,-0.000614,0.014155,-0.007141,-88.347152,0.014155,
1030,560,0.653127,-16.029335,0.999995,0.000262,-0.004352,0.008773,-0.001664,0.008981,-0.004559,-82.886028,0.008981,
880,1650,1.092421,-3.194434,0.999996,0.000260,-0.004233,0.009387,0.000328,0.009395,-0.004240,88.622757,0.009409,
1470,1420,-0.901791,-5.002406,0.999995,0.000238,-0.005597,0.009887,-0.001893,0.010115,-0.005825,-83.131485,0.010153,
1790,960,-3.780050,-10.714044,0.999997,0.000210,-0.004438,0.009382,-0.000483,0.009398,-0.004454,-88.001602,0.009403,
1320,1900,-0.075249,-0.847735,0.999998,0.000153,-0.000938,0.006578,0.000169,0.006581,-0.000942,88.712356,0.007118,
1840,1860,-1.486583,-1.866033,0.999995,0.000282,-0.004881,0.010173,0.000585,0.010196,-0.004904,87.776979,0.010198,
1060,1980,0.059656,-0.346317,0.999998,0.000159,-0.000484,0.006384,-0.000504,0.006421,-0.000521,-85.825493,0.007133,
1800,1600,-2.260740,-4.365057,0.999997,0.000202,-0.005049,0.010146,-0.000154,0.010148,-0.005051,-89.420158,0.010148,
570,1270,3.790836,-7.988155,0.999969,0.000785,-0.005118,0.009345,-0.000208,0.009348,-0.005121,-89.174805,0.009362,
1530,80,-0.146385,-19.752490,0.999998,0.000144,-0.000670,0.006896,-0.001101,0.007053,-0.000826,-81.889917,0.007712,
1500,1490,-0.972451,-4.449874,0.999996,0.000247,-0.005014,0.009715,-0.001359,0.009840,-0.005138,-84.770810,0.009843,
1370,1810,-0.217127,-1.495135,0.999997,0.000189,-0.001609,0.007222,0.000172,0.007226,-0.001613,88.885407,0.007586,
1200,1270,0.078878,-4.725400,0.999996,0.000242,-0.002731,0.002655,0.001799,0.003201,-0.003276,73.131183,0.003740,
1310,520,-0.205856,-16.726297,0.999997,0.000212,-0.002898,0.007095,0.000960,0.007187,-0.002989,84.559784,0.007220,
570,1070,4.237647,-9.727391,0.999937,0.000976,-0.003821,0.008115,-0.000059,0.008116,-0.003821,-89.714417,0.008120,
910,1840,0.536813,-1.445180,0.999996,0.000232,-0.002251,0.008173,-0.000821,0.008237,-0.002315,-85.522455,0.008496,
1680,120,-0.493655,-19.371443,0.999997,0.000229,-0.002247,0.008442,-0.002016,0.008810,-0.002614,-79.667548,0.009049,
1590,1570,-1.285777,-3.989881,0.999996,0.000262,-0.004935,0.009877,-0.000627,0.009904,-0.004961,-87.580190,0.009904,
620,210,1.578178,-18.126835,0.999996,0.000264,-0.004877,0.010167,0.000429,0.010180,-0.004890,88.367268,0.010182,
810,1750,1.123664,-2.420432,0.999997,0.000209,-0.004047,0.009494,-0.000335,0.009502,-0.004055,-88.584472,0.009536,
600,820,3.753874,-11.931082,0.999996,0.000233,-0.004600,0.009271,0.000389,0.009282,-0.004611,88.394431,0.009282,
770,200,0.897508,-18.641444,0.999997,0.000179,-0.003455,0.009419,0.001366,0.009563,-0.003598,84.009032,0.009660,
1900,220,-1.908747,-17.765702,0.999997,0.000000,-0.004883,0.009599,-0.000272,0.009604,-0.004888,-88.924802,0.009605,
1520,320,-0.686636,-17.883650,0.999997,0.000225,-0.003189,0.008630,-0.000019,0.008630,-0.003189,-89.905883,0.008728,
1430,190,-0.243535,-19.021597,0.999998,0.000211,-0.001615,0.007178,-0.000420,0.007198,-0.001635,-87.272758,0.007547,
770,450,1.710259,-16.191050,0.999996,0.000240,-0.005032,0.010109,-0.000290,0.010114,-0.005037,-88.902729,0.010114,
850,1310,2.114962,-6.887677,0.999995,0.000261,-0.006472,0.011601,-0.000376,0.011609,-0.006480,-88.809293,0.011635,
810,1380,2.115434,-6.214064,0.999995,0.000254,-0.006028,0.011052,-0.000081,0.011052,-0.006029,-89.729717,0.011067,
560,1990,0.791176,-0.709533,0.999795,0.000000,-0.003881,0.014486,-0.005403,0.015957,-0.005352,-74.765043,0.016243,
1400,330,-0.356713,-18.005525,0.999996,0.000224,-0.002501,0.007637,0.000185,0.007641,-0.002504,88.956103,0.007791,
840,870,2.715858,-11.786728,0.999996,0.000242,-0.005544,0.011390,0.001386,0.011503,-0.005656,85.351272,0.011503,
1890,1110,-4.190531,-9.400171,0.999998,0.000195,-0.004160,0.008438,0.000142,0.008440,-0.004162,89.352843,0.008440,
1450,1960,-0.114861,-0.488011,0.999998,0.000177,-0.000624,0.006649,0.000687,0.006713,-0.000688,84.652165,0.007387,
1890,290,-2.168788,-17.133658,0.999995,0.000257,-0.004862,0.009611,0.000015,0.009611,-0.004862,89.939361,0.009611,
680,210,1.304268,-18.331891,0.999994,0.000295,-0.004491,0.010129,0.001100,0.010212,-0.004573,85.722710,0.010230,
640,1380,3.057912,-6.693223,0.999996,0.000227,-0.005123,0.010156,-0.000374,0.010165,-0.005132,-88.596913,0.010165,
910,1780,0.690571,-1.947119,0.999997,0.000181,-0.002839,0.008551,-0.000450,0.008569,-0.002856,-87.740049,0.008726,
1100,1590,0.347308,-3.130755,0.999996,0.000216,-0.002970,0.007633,0.000826,0.007697,-0.003034,85.571947,0.007754,
1120,660,0.306411,-15.631853,0.999996,0.000226,-0.003718,0.007138,-0.002593,0.007726,-0.004306,-77.234548,0.007743,
770,800,2.821955,-12.449762,0.999997,0.000216,-0.005631,0.010905,0.001048,0.010972,-0.005697,86.388700,0.010974,
1510,80,-0.131238,-19.758244,0.999998,0.000163,-0.000793,0.006796,-0.000946,0.006912,-0.000909,-82.999490,0.007511,
1370,760,-0.482541,-14.659233,0.999994,0.000283,-0.005773,0.008711,0.004087,0.009785,-0.006846,75.280084,0.010042,
1420,1570,-0.548286,-3.439476,0.999995,0.000271,-0.003552,0.008306,-0.001048,0.008398,-0.003644,-84.986447,0.008422,
1430,1160,-1.626868,-7.787603,0.999992,0.000329,-0.006933,0.014154,-0.001909,0.014325,-0.007104,-84.869340,0.014325,
1210,1520,0.054520,-3.467171,0.999998,0.000190,-0.002537,0.006616,0.000413,0.006635,-0.002556,87.420466,0.006693,
590,1000,4.168593,-10.316831,0.999997,0.000194,-0.003995,0.008515,0.000198,0.008518,-0.003998,89.091639,0.008523,
760,1810,1.120052,-1.966460,0.999997,0.000209,-0.003865,0.009670,-0.000954,0.009737,-0.003932,-85.989952,0.009797,
1320,1880,-0.086646,-0.981065,0.999998,0.000166,-0.001100,0.006638,0.000136,0.006641,-0.001102,88.994389,0.007118,
790,940,3.210982,-10.974264,0.999997,0.000218,-0.004495,0.010273,0.000950,0.010334,-0.004556,86.332654,0.010358,
1560,1230,-2.112712,-7.678148,0.999995,0.000257,-0.006779,0.012457,0.000765,0.012488,-0.006809,87.725040,0.012505,
1270,1830,-0.050052,-1.307056,0.999998,0.000202,-0.001324,0.006798,0.000012,0.006798,-0.001324,89.912245,0.007208,
1310,500,-0.203019,-16.870262,0.999997,0.000193,-0.002842,0.007148,0.000824,0.007216,-0.002909,85.313586,0.007261,
1070,470,0.448019,-16.913488,0.999996,0.000232,-0.003435,0.007970,-0.001068,0.008069,-0.003534,-84.694715,0.008090,
940,180,0.384626,-19.023453,0.999997,0.000214,-0.001881,0.007640,0.000810,0.007709,-0.001949,85.169524,0.008017,
740,1070,3.513425,-9.661407,0.999997,0.000216,-0.004321,0.009803,-0.000352,0.009812,-0.004330,-88.573304,0.009835,
1370,1790,-0.234459,-1.638430,0.999997,0.000197,-0.001727,0.007237,0.000099,0.007238,-0.001728,89.366928,0.007560,
1590,1590,-1.241421,-3.791266,0.999997,0.000233,-0.004753,0.009754,-0.000568,0.009776,-0.004775,-87.762135,0.009777,
1800,1620,-2.200221,-4.162631,0.999996,0.000212,-0.005041,0.010129,-0.000156,0.010130,-0.005042,-89.410925,0.010130,
760,1870,0.862434,-1.391932,0.999996,0.000216,-0.003178,0.009315,-0.001584,0.009512,-0.003376,-82.883856,0.009645,
810,1210,2.778825,-8.136180,0.999995,0.000290,-0.005606,0.011131,-0.001274,0.011227,-0.005702,-85.671177,0.011228,
560,1980,0.887561,-0.837620,0.999956,0.000000,-0.004636,0.013713,-0.003770,0.014457,-0.005380,-78.829362,0.014614,
1680,100,-0.382904,-19.545206,0.999997,0.000192,-0.001830,0.008175,-0.002095,0.008595,-0.002250,-78.639257,0.008915,
1150,1320,0.200423,-4.830228,0.999997,0.000211,-0.003480,0.005604,0.003330,0.006693,-0.004570,71.877193,0.006841,
1180,830,0.260902,-15.173687,0.999990,0.000366,-0.004640,0.003197,-0.001633,0.003524,-0.004967,-78.686653,0.005110,
790,1380,2.236319,-6.277027,0.999995,0.000267,-0.005916,0.011005,-0.000182,0.011007,-0.005918,-89.385339,0.011017,
1750,1940,-0.620013,-0.811914,0.999995,0.000264,-0.003378,0.009250,0.002314,0.009660,-0.003788,79.937288,0.009735,
1880,1110,-4.148176,-9.385751,0.999996,0.000248,-0.004185,0.008573,0.000179,0.008576,-0.004187,89.198454,0.008577,
890,140,0.356907,-19.296894,0.999997,0.000219,-0.001780,0.007695,0.001176,0.007839,-0.001924,83.028370,0.008171,
640,1360,3.126963,-6.894502,0.999997,0.000227,-0.005102,0.010102,-0.000414,0.010113,-0.005113,-88.440142,0.010114,
1330,1960,-0.044269,-0.463477,0.999998,0.000192,-0.000587,0.006297,0.000222,0.006305,-0.000594,88.153594,0.006962,
1880,300,-2.157486,-17.076860,0.999997,0.000228,-0.004865,0.009769,0.000039,0.009769,-0.004865,89.847274,0.009769,
1140,330,0.183545,-18.091567,0.999997,0.000193,-0.002195,0.007217,-0.000226,0.007223,-0.002201,-88.623701,0.007404,
840,850,2.628519,-12.014994,0.999995,0.000238,-0.005790,0.011451,0.001282,0.011546,-0.005885,85.769567,0.011547,
1900,230,-1.960092,-17.671278,0.999997,0.000000,-0.004853,0.009542,-0.000195,0.009545,-0.004856,-89.224942,0.009545,
1430,170,-0.217715,-19.161611,0.999998,0.000213,-0.001431,0.007027,-0.000451,0.007051,-0.001455,-86.955804,0.007446,
600,800,3.692106,-12.117869,0.999996,0.000251,-0.004674,0.009424,0.000383,0.009435,-0.004685,88.443151,0.009435,
730,330,1.552424,-17.281818,0.999996,0.000246,-0.004691,0.009970,0.000130,0.009971,-0.004692,89.492525,0.009977,
1140,1590,0.235060,-3.060726,0.999997,0.000223,-0.002838,0.007321,0.000751,0.007377,-0.002893,85.795088,0.007433,
1620,590,-1.674117,-14.984786,0.999994,0.000291,-0.005700,0.010604,0.000515,0.010620,-0.005716,88.193312,0.010631,
1320,1310,-0.229535,-4.937710,0.999997,0.000225,-0.003793,0.005940,-0.003609,0.007132,-0.004984,-71.721232,0.007318,
1520,350,-0.746915,-17.615123,0.999997,0.000218,-0.003399,0.008693,0.000137,0.008695,-0.003401,89.351020,0.008763,
1630,1890,-0.566698,-1.116724,0.999997,0.000212,-0.002120,0.008421,0.001486,0.008626,-0.002326,82.124620,0.008926,
1510,1290,-1.478279,-6.685997,0.999993,0.000286,-0.007358,0.012329,-0.000819,0.012363,-0.007392,-87.621366,0.012441,
1550,1070,-2.816417,-9.597247,0.999996,0.000257,-0.003903,0.011534,0.000892,0.011585,-0.003955,86.703185,0.011778,
980,520,0.832744,-16.206644,0.999996,0.000246,-0.004491,0.009205,-0.001210,0.009311,-0.004597,-84.988178,0.009311,
1170,330,0.122668,-18.109516,0.999998,0.000154,-0.001940,0.007142,-0.000034,0.007143,-0.001940,-89.786523,0.007387,
1030,500,0.606654,-16.555943,0.999996,0.000230,-0.003958,0.008531,-0.001251,0.008655,-0.004082,-84.334871,0.008660,
900,560,1.291979,-15.511313,0.999995,0.000263,-0.005340,0.010237,-0.000910,0.010290,-0.005393,-86.668239,0.010294,
1370,80,-0.053312,-19.784095,0.999998,0.000171,-0.000350,0.006336,-0.000407,0.006361,-0.000374,-86.530512,0.007139,
770,780,2.741552,-12.671037,0.999998,0.000178,-0.005718,0.010994,0.000976,0.011051,-0.005775,86.668490,0.011054,
1230,1520,0.003819,-3.453445,0.999997,0.000182,-0.002520,0.006590,0.000049,0.006590,-0.002521,89.693568,0.006651,
790,1000,3.315452,-10.358446,0.999996,0.000212,-0.004103,0.010083,0.000366,0.010093,-0.004113,88.524285,0.010150,
1880,1240,-3.815793,-8.222606,0.999995,0.000242,-0.004565,0.009220,0.000265,0.009225,-0.004570,88.900948,0.009225,
1320,1860,-0.099729,-1.114116,0.999998,0.000157,-0.001229,0.006727,0.000142,0.006730,-0.001232,88.979256,0.007167,
730,1640,1.812477,-3.741357,0.999996,0.000253,-0.004915,0.010106,0.000166,0.010108,-0.004917,89.367890,0.010109,
1110,520,0.331647,-16.635920,0.999996,0.000229,-0.003179,0.007553,-0.001189,0.007683,-0.003309,-83.750810,0.007708,
1600,80,-0.208594,-19.730807,0.999997,0.000199,-0.001068,0.007296,-0.001539,0.007570,-0.001342,-79.898213,0.008079,
1070,490,0.457767,-16.753347,0.999995,0.000248,-0.003481,0.008023,-0.001154,0.008137,-0.003595,-84.325218,0.008156,
560,1970,0.974546,-0.968725,0.999985,0.000000,-0.004695,0.012838,-0.002751,0.013260,-0.005116,-81.289736,0.013374,
850,1380,1.870864,-6.080823,0.999993,0.000309,-0.006257,0.011176,0.000197,0.011179,-0.006259,89.353215,0.011205,
600,780,3.622313,-12.310712,0.999995,0.000270,-0.004774,0.009692,0.000410,0.009704,-0.004786,88.376038,0.009704,
690,860,3.452041,-11.702901,0.999994,0.000313,-0.004903,0.009950,0.000979,0.010014,-0.004967,86.243917,0.010014,
1160,830,0.352925,-14.964126,0.999994,0.000293,-0.004406,0.004104,-0.002709,0.004893,-0.005195,-73.755058,0.005832,
1470,90,-0.120177,-19.702166,0.999997,0.000189,-0.000598,0.006713,-0.000781,0.006795,-0.000681,-83.968520,0.007484,
1130,1320,0.272812,-4.976153,0.999994,0.000296,-0.004106,0.006574,0.003632,0.007692,-0.005224,72.889670,0.007855,
1680,80,-0.295612,-19.702943,0.999997,0.000209,-0.001428,0.007798,-0.002132,0.008267,-0.001897,-77.596584,0.008661,
1370,1770,-0.251694,-1.785216,0.999998,0.000194,-0.001882,0.007360,0.000067,0.007360,-0.001882,89.587620,0.007648,
680,670,2.831789,-13.628672,0.999997,0.000217,-0.005295,0.010407,0.000366,0.010416,-0.005304,88.665111,0.010416,
680,1840,1.330076,-1.880251,0.999996,0.000246,-0.004514,0.010038,-0.001032,0.010111,-0.004587,-85.964307,0.010125,
1620,910,-2.865602,-11.340486,0.999997,0.000217,-0.004993,0.011102,-0.001388,0.011221,-0.005112,-85.105913,0.011236,
810,1190,2.864060,-8.365242,0.999995,0.000266,-0.005390,0.011108,-0.001316,0.011213,-0.005494,-85.467694,0.011213,
1840,1840,-1.589010,-2.073576,0.999996,0.000261,-0.004878,0.010188,0.000452,0.010201,-0.004892,88.281628,0.010204,
1760,960,-3.648489,-10.727639,0.999997,0.000226,-0.004479,0.009663,-0.000611,0.009689,-0.004505,-87.530711,0.009697,
1580,150,-0.403344,-19.212227,0.999996,0.000219,-0.002112,0.007885,-0.001195,0.008025,-0.002253,-83.275614,0.008279,
1800,1640,-2.143738,-3.957202,0.999995,0.000242,-0.005011,0.010138,-0.000148,0.010139,-0.005013,-89.441342,0.010140,
1860,150,-1.304789,-18.660738,0.999996,0.000241,-0.004875,0.010318,-0.000971,0.010380,-0.004937,-86.356224,0.010384,
1120,620,0.306824,-15.922149,0.999996,0.000243,-0.003587,0.007172,-0.002132,0.007579,-0.003994,-79.191269,0.007582,
1430,150,-0.183989,-19.302959,0.999998,0.000203,-0.001263,0.006975,-0.000522,0.007008,-0.001296,-86.391464,0.007457,
640,1340,3.198658,-7.098336,0.999996,0.000235,-0.005078,0.010108,-0.000467,0.010122,-0.005093,-88.240952,0.010122,
820,1550,1.595286,-4.366832,0.999994,0.000262,-0.005192,0.010207,0.000449,0.010220,-0.005205,88.329518,0.010220,
850,1290,2.193664,-7.120903,0.999994,0.000298,-0.006492,0.011686,-0.000582,0.011704,-0.006511,-88.168213,0.011729,
1900,240,-2.006493,-17.577302,0.999996,0.000000,-0.004820,0.009555,-0.000115,0.009556,-0.004821,-89.540005,0.009556,
1340,210,-0.140276,-18.930522,0.999998,0.000184,-0.001450,0.006844,-0.000086,0.006845,-0.001451,-89.407846,0.007214,
1280,320,-0.094323,-18.186381,0.999998,0.000193,-0.001905,0.007111,0.000049,0.007111,-0.001905,89.686137,0.007363,
1550,1680,-0.893937,-2.827504,0.999997,0.000205,-0.003692,0.008972,-0.000158,0.008974,-0.003694,-89.284580,0.009021,
1590,1800,-0.754264,-1.839122,0.999997,0.000203,-0.003388,0.008709,0.000508,0.008731,-0.003409,87.599646,0.008800,
1510,1040,-2.718704,-9.929838,0.999995,0.000260,-0.003736,0.012323,0.000253,0.012327,-0.003740,89.096287,0.012641,
910,1140,2.546626,-8.776303,0.999994,0.000294,-0.005371,0.012066,-0.001460,0.012187,-0.005492,-85.247019,0.012207,
790,360,1.375012,-17.148651,0.999995,0.000250,-0.004568,0.009721,-0.000025,0.009721,-0.004568,-89.900467,0.009727,
730,310,1.486059,-17.480733,0.999996,0.000232,-0.004560,0.009963,0.000270,0.009968,-0.004565,88.935890,0.009980,
840,1190,2.694404,-8.314172,0.999993,0.000295,-0.005632,0.011432,-0.001376,0.011543,-0.005742,-85.419759,0.011543,
1630,1870,-0.639023,-1.284267,0.999997,0.000222,-0.002372,0.008571,0.001311,0.008726,-0.002527,83.263164,0.008980,
1550,1860,-0.473312,-1.277826,0.999997,0.000228,-0.001986,0.008051,0.000923,0.008135,-0.002070,84.786979,0.008455,
1000,1510,0.771078,-4.109911,0.999996,0.000244,-0.004490,0.009064,0.001420,0.009212,-0.004637,84.082882,0.009212,
1110,760,0.387190,-14.830279,0.999994,0.000312,-0.005189,0.007805,-0.004134,0.009009,-0.006393,-73.764711,0.009269,
640,2020,0.152758,-0.157456,0.999993,0.000000,-0.002566,0.008687,-0.003324,0.009596,-0.003475,-74.712032,0.009717,
1550,1050,-2.852387,-9.829233,0.999997,0.000219,-0.003672,0.011349,0.000518,0.011367,-0.003690,88.026793,0.011598,
1520,330,-0.706909,-17.794435,0.999997,0.000231,-0.003225,0.008766,0.000004,0.008766,-0.003225,89.980658,0.008867,
1020,880,1.595164,-12.434850,0.999991,0.000374,-0.007390,0.013999,-0.001111,0.014056,-0.007448,-87.033980,0.014065,
1720,620,-2.324476,-14.334428,0.999995,0.000252,-0.005584,0.010594,-0.000110,0.010595,-0.005585,-89.609502,0.010600,
1600,570,-1.516568,-15.267713,0.999996,0.000269,-0.005530,0.010481,0.000664,0.010509,-0.005558,87.628317,0.010515,
770,1640,1.616762,-3.613169,0.999996,0.000217,-0.004826,0.010020,0.000193,0.010023,-0.004828,89.253532,0.010025,
1890,1910,-1.418849,-1.597064,0.999996,0.000261,-0.004878,0.010421,0.001118,0.010503,-0.004959,85.840924,0.010508,
1220,680,0.023353,-15.858849,0.999998,0.000181,-0.002105,0.004706,-0.000461,0.004737,-0.002136,-86.142833,0.004745,
1510,1250,-1.652667,-7.197616,0.999994,0.000299,-0.007503,0.012807,-0.000290,0.012811,-0.007508,-89.181684,0.012874,
680,650,2.765869,-13.838918,0.999995,0.000261,-0.005289,0.010350,0.000290,0.010355,-0.005294,88.938393,0.010356,
1820,1290,-3.360007,-7.591632,0.999996,0.000222,-0.004988,0.009932,0.000648,0.009960,-0.005016,87.519320,0.009960,
700,1950,0.597576,-0.740748,0.999996,0.000251,-0.003339,0.009147,-0.002385,0.009587,-0.003780,-79.544650,0.009658,
1600,910,-2.765051,-11.364517,0.999996,0.000274,-0.005096,0.011324,-0.001421,0.011446,-0.005218,-85.090698,0.011461,
1680,60,-0.193245,-19.860009,0.999997,0.000196,-0.001092,0.007506,-0.002112,0.007996,-0.001583,-76.919607,0.008469,
770,430,1.656939,-16.396511,0.999996,0.000244,-0.004965,0.010075,-0.000252,0.010079,-0.004969,-89.040317,0.010079,
1840,1820,-1.690883,-2.275635,0.999997,0.000214,-0.004842,0.010068,0.000311,0.010074,-0.004848,88.806391,0.010077,
810,1170,2.938153,-8.583716,0.999995,0.000261,-0.005152,0.010869,-0.001280,0.010971,-0.005254,-85.459116,0.010974,
980,500,0.812439,-16.389145,0.999996,0.000245,-0.004243,0.009097,-0.001078,0.009184,-0.004329,-85.410106,0.009189,
1760,410,-1.931989,-16.383559,0.999996,0.000229,-0.004953,0.010124,0.000123,0.010125,-0.004954,89.531971,0.010126,
1560,150,-0.363086,-19.228223,0.999997,0.000198,-0.001622,0.007716,-0.001132,0.007851,-0.001757,-83.187630,0.008241,
1760,940,-3.603058,-10.926797,0.999996,0.000213,-0.004536,0.009753,-0.000804,0.009798,-0.004581,-86.788187,0.009805,
1800,1660,-2.085925,-3.752738,0.999996,0.000230,-0.004946,0.010122,-0.000113,0.010123,-0.004947,-89.571581,0.010124,
770,760,2.664115,-12.891694,0.999994,0.000287,-0.005767,0.010924,0.000846,0.010967,-0.005809,87.106617,0.010973,
1430,130,-0.155176,-19.441599,0.999998,0.000178,-0.001041,0.006813,-0.000528,0.006849,-0.001076,-86.171480,0.007366,
1370,1750,-0.270378,-1.933548,0.999997,0.000210,-0.002008,0.007344,-0.000047,0.007345,-0.002008,-89.713390,0.007592,
940,160,0.338437,-19.173944,0.999997,0.000205,-0.001684,0.007561,0.000930,0.007654,-0.001777,84.312534,0.008012,
1120,600,0.309086,-16.070475,0.999996,0.000240,-0.003502,0.007254,-0.001868,0.007569,-0.003817,-80.421884,0.007569,
680,1820,1.424974,-2.078091,0.999996,0.000259,-0.004611,0.010052,-0.000784,0.010093,-0.004653,-86.947792,0.010104,
1600,60,-0.133010,-19.882061,0.999997,0.000200,-0.000742,0.007115,-0.001565,0.007415,-0.001043,-79.140245,0.008028,
1330,1780,-0.167039,-1.678732,0.999998,0.000168,-0.001945,0.007150,-0.000084,0.007150,-0.001946,-89.471556,0.007394,
1900,250,-2.049067,-17.480085,0.999996,0.000000,-0.004801,0.009641,-0.000074,0.009641,-0.004801,-89.706287,0.009641,
890,1000,2.929073,-10.383743,0.999998,0.000201,-0.003730,0.010956,0.000520,0.010974,-0.003749,87.973642,0.011156,
640,1320,3.268761,-7.303614,0.999997,0.000225,-0.005034,0.010031,-0.000513,0.010048,-0.005051,-88.052221,0.010048,
850,1460,1.647011,-5.201325,0.999995,0.000281,-0.005730,0.010604,0.000553,0.010623,-0.005749,88.064074,0.010635,
940,1850,0.449068,-1.334810,0.999995,0.000247,-0.002148,0.007898,-0.000711,0.007948,-0.002198,-85.972265,0.008208,
1740,210,-1.109883,-18.458127,0.999996,0.000240,-0.004108,0.009862,-0.001134,0.009954,-0.004200,-85.389209,0.009994,
1280,300,-0.091012,-18.327156,0.999998,0.000173,-0.001777,0.007041,0.000027,0.007041,-0.001777,89.827073,0.007323,
1110,500,0.327379,-16.784061,0.999997,0.000197,-0.003057,0.007501,-0.001007,0.007596,-0.003152,-84.599564,0.007633,
1320,1840,-0.111982,-1.249770,0.999998,0.000170,-0.001403,0.006830,0.000094,0.006831,-0.001404,89.346457,0.007215,
1720,600,-2.262975,-14.547472,0.999996,0.000230,-0.005512,0.010533,-0.000011,0.010533,-0.005512,-89.959713,0.010537,
1630,1850,-0.714349,-1.462325,0.999997,0.000219,-0.002659,0.008831,0.001230,0.008961,-0.002789,83.958114,0.009171,
1340,270,-0.182194,-18.510560,0.999998,0.000173,-0.001917,0.007158,0.000072,0.007159,-0.001917,89.548124,0.007412,
860,210,0.657587,-18.689802,0.999997,0.000243,-0.002805,0.008517,0.000951,0.008596,-0.002885,85.230376,0.008750,
1370,1640,-0.344848,-2.763225,0.999997,0.000205,-0.002734,0.007574,-0.000557,0.007604,-0.002764,-86.917540,0.007698,
850,1270,2.279949,-7.359139,0.999994,0.000270,-0.006433,0.011773,-0.000750,0.011804,-0.006464,-87.644425,0.011822,
860,750,2.068982,-13.245881,0.999996,0.000265,-0.006534,0.011717,0.000317,0.011722,-0.006539,89.006455,0.011749,
1150,1960,0.036433,-0.461177,0.999998,0.000180,-0.000497,0.006280,-0.000211,0.006286,-0.000504,-88.221552,0.006986,
1550,1030,-2.874786,-10.052084,0.999997,0.000232,-0.003539,0.011174,0.000081,0.011174,-0.003539,89.684355,0.011422,
680,1270,3.244075,-7.715729,0.999997,0.000222,-0.005114,0.010133,-0.000840,0.010179,-0.005160,-86.854945,0.010180,
650,30,0.097676,-20.067230,0.999996,0.000000,-0.001280,0.008579,0.003792,0.009869,-0.002570,71.214552,0.010239,
1220,660,0.025934,-15.955932,0.999998,0.000171,-0.002187,0.005067,-0.000423,0.005092,-0.002212,-86.672591,0.005106,
860,1190,2.580762,-8.278698,0.999994,0.000293,-0.005800,0.011656,-0.001351,0.011760,-0.005904,-85.600840,0.011760,
730,290,1.415648,-17.680893,0.999996,0.000245,-0.004458,0.009977,0.000484,0.009993,-0.004474,88.083503,0.010011,
850,1140,2.849896,-8.868946,0.999996,0.000252,-0.004950,0.011115,-0.001425,0.011240,-0.005075,-84.969160,0.011258,
1410,340,-0.393804,-17.913980,0.999996,0.000208,-0.002769,0.007707,0.000309,0.007716,-0.002778,88.311534,0.007816,
1820,470,-2.404075,-15.578018,0.999996,0.000248,-0.005058,0.010174,0.000154,0.010175,-0.005060,89.422662,0.010175,
1610,1040,-3.081857,-9.945994,0.999997,0.000239,-0.003795,0.010541,0.000274,0.010546,-0.003800,88.907392,0.010682,
1510,710,-1.298526,-14.126108,0.999995,0.000261,-0.006857,0.011528,0.001312,0.011621,-0.006950,85.938095,0.011696,
1740,870,-3.321678,-11.641805,0.999996,0.000244,-0.004934,0.010180,-0.001063,0.010254,-0.005008,-85.995917,0.010255,
980,480,0.792250,-16.569256,0.999996,0.000229,-0.004055,0.008963,-0.000954,0.009033,-0.004124,-85.829084,0.009044,
1320,1710,-0.182119,-2.172377,0.999998,0.000195,-0.002268,0.007209,-0.000257,0.007216,-0.002274,-88.447169,0.007378,
1800,1290,-3.259966,-7.549201,0.999995,0.000249,-0.005081,0.010064,0.000750,0.010101,-0.005118,87.171460,0.010101,
1670,1990,-0.208283,-0.335086,0.999997,0.000220,-0.001240,0.007553,0.002034,0.008000,-0.001688,77.583160,0.008434,
1430,110,-0.125357,-19.576576,0.999998,0.000177,-0.000849,0.006744,-0.000596,0.006791,-0.000895,-85.536079,0.007379,
1840,1800,-1.779109,-2.477902,0.999997,0.000226,-0.004821,0.010116,0.000199,0.010119,-0.004824,89.238562,0.010123,
810,1150,3.009909,-8.801073,0.999995,0.000261,-0.004923,0.010793,-0.001324,0.010904,-0.005034,-85.217732,0.010915,
610,800,3.644382,-12.142321,0.999996,0.000249,-0.004729,0.009526,0.000462,0.009541,-0.004744,88.145428,0.009541,
1640,330,-1.142722,-17.533192,0.999997,0.000215,-0.004062,0.009564,-0.000161,0.009566,-0.004064,-89.325192,0.009602,
790,620,2.060377,-14.482257,0.999996,0.000227,-0.005720,0.010757,-0.000111,0.010758,-0.005721,-89.612858,0.010765,
1810,170,-1.195365,-18.672142,0.999996,0.000264,-0.004223,0.010386,-0.001634,0.010567,-0.004404,-83.697111,0.010615,
1760,920,-3.558571,-11.121907,0.999996,0.000222,-0.004575,0.009694,-0.000743,0.009732,-0.004614,-87.026843,0.009737,
1280,280,-0.083047,-18.469455,0.999998,0.000161,-0.001665,0.007045,-0.000022,0.007045,-0.001665,-89.858566,0.007364,
1120,580,0.306922,-16.218312,0.999997,0.000218,-0.003384,0.007315,-0.001621,0.007555,-0.003624,-81.570786,0.007558,
810,1580,1.571620,-4.092033,0.999994,0.000308,-0.005072,0.010064,0.000384,0.010074,-0.005082,88.549340,0.010074,
850,1440,1.700153,-5.416938,0.999994,0.000315,-0.005887,0.010729,0.000515,0.010745,-0.005903,88.226471,0.010762,
1890,450,-2.695509,-15.557461,0.999996,0.000249,-0.004916,0.010028,0.000025,0.010028,-0.004916,89.902902,0.010029,
1630,1830,-0.784975,-1.639106,0.999996,0.000242,-0.002887,0.008846,0.001048,0.008939,-0.002980,84.937826,0.009103,
650,2020,0.140283,-0.134479,0.999994,0.000000,-0.001256,0.008613,-0.003675,0.009831,-0.002474,-71.661933,0.010227,
1170,310,0.115679,-18.254205,0.999998,0.000154,-0.001803,0.007094,-0.000010,0.007094,-0.001803,-89.936624,0.007374,
1570,1800,-0.685308,-1.802076,0.999997,0.000210,-0.003062,0.008562,0.000540,0.008587,-0.003087,87.346813,0.008699,
1320,1290,-0.239041,-5.052508,0.999996,0.000268,-0.004068,0.005788,-0.003902,0.007146,-0.005426,-70.814947,0.007459,
1720,580,-2.203334,-14.762260,0.999995,0.000256,-0.005445,0.010489,0.000080,0.010490,-0.005445,89.712211,0.010492,
1550,1010,-2.856810,-10.273581,0.999997,0.000232,-0.003590,0.011273,-0.000429,0.011285,-0.003602,-88.349670,0.011529,
1350,1640,-0.291019,-2.732961,0.999997,0.000216,-0.002681,0.007439,-0.000552,0.007469,-0.002711,-86.885722,0.007562,
1590,1990,-0.141450,-0.315405,0.999997,0.000183,-0.000884,0.007091,0.001491,0.007361,-0.001154,79.750353,0.007918,
680,1800,1.511018,-2.283269,0.999996,0.000257,-0.004664,0.010107,-0.000604,0.010131,-0.004689,-87.663463,0.010141,
940,140,0.282589,-19.326565,0.999997,0.000208,-0.001422,0.007355,0.000927,0.007452,-0.001519,84.039551,0.007876,
1210,1780,0.036607,-1.647594,0.999998,0.000176,-0.001726,0.006950,0.000066,0.006951,-0.001727,89.564544,0.007238,
1370,1730,-0.285770,-2.081118,0.999997,0.000213,-0.002157,0.007499,-0.000113,0.007500,-0.002159,-89.330797,0.007722,
1220,640,0.026350,-16.060550,0.999998,0.000155,-0.002278,0.005400,-0.000377,0.005419,-0.002296,-87.192660,0.005440,
1900,470,-2.804055,-15.324474,0.999996,0.000000,-0.004879,0.010128,0.000009,0.010128,-0.004879,89.967134,0.010130,
1890,60,-0.661191,-19.546080,0.999970,0.000654,-0.002969,0.013160,-0.005059,0.014615,-0.004425,-73.947970,0.014990,
1510,690,-1.247984,-14.356405,0.999997,0.000236,-0.006623,0.011270,0.001383,0.011376,-0.006730,85.605913,0.011440,
1200,270,0.052335,-18.544091,0.999998,0.000186,-0.001657,0.006981,-0.000042,0.006981,-0.001657,-89.723973,0.007295,
640,1300,3.339489,-7.501133,0.999997,0.000235,-0.004990,0.009911,-0.000582,0.009934,-0.005013,-87.768638,0.009934,
1720,870,-3.223466,-11.663960,0.999996,0.000265,-0.005011,0.010308,-0.001112,0.010389,-0.005091,-85.869947,0.010389,
1430,330,-0.443018,-17.954282,0.999996,0.000253,-0.002804,0.007881,0.000243,0.007886,-0.002809,88.695350,0.007994,
1810,1160,-3.731487,-8.846172,0.999995,0.000276,-0.004562,0.009397,0.000624,0.009425,-0.004590,87.443838,0.009426,
900,150,0.370517,-19.226190,0.999997,0.000217,-0.001666,0.007734,0.001120,0.007866,-0.001797,83.296936,0.008244,
1650,840,-2.740688,-12.082593,0.999995,0.000289,-0.005678,0.011129,-0.001236,0.011219,-0.005769,-85.816415,0.011221,
1470,70,-0.082075,-19.837078,0.999998,0.000153,-0.000387,0.006581,-0.000792,0.006670,-0.000476,-83.600110,0.007442,
1310,1960,-0.034863,-0.460538,0.999998,0.000187,-0.000422,0.006262,0.000176,0.006266,-0.000427,88.490766,0.007002,
900,540,1.255628,-15.713764,0.999996,0.000249,-0.005233,0.010069,-0.000910,0.010123,-0.005287,-86.608968,0.010126,
850,1250,2.366222,-7.595632,0.999994,0.000284,-0.006311,0.011748,-0.000943,0.011797,-0.006360,-87.017355,0.011809,
1740,110,-0.552072,-19.412883,0.999996,0.000256,-0.002796,0.008955,-0.002344,0.009405,-0.003246,-79.123252,0.009554,
1050,1380,0.630952,-5.062362,0.999996,0.000247,-0.005441,0.009279,0.002741,0.009773,-0.005935,79.786714,0.009848,
590,800,3.737348,-12.093185,0.999996,0.000239,-0.004707,0.009318,0.000273,0.009323,-0.004712,88.884827,0.009324,
1840,1780,-1.868944,-2.680963,0.999997,0.000209,-0.004832,0.010012,0.000141,0.010013,-0.004833,89.455136,0.010015,
840,230,0.780225,-18.489270,0.999997,0.000228,-0.002929,0.008882,0.000939,0.008957,-0.003003,85.481033,0.009117,
1670,1970,-0.301901,-0.490960,0.999997,0.000221,-0.001555,0.007803,0.002005,0.008214,-0.001966,78.403008,0.008578,
810,1130,3.081444,-9.017663,0.999996,0.000268,-0.004678,0.010613,-0.001178,0.010704,-0.004768,-85.619283,0.010725,
1190,1240,0.162757,-4.858361,0.999995,0.000258,-0.003919,0.002752,0.001932,0.003271,-0.004438,74.963184,0.004601,
1760,900,-3.514830,-11.315312,0.999996,0.000239,-0.004725,0.009878,-0.000885,0.009931,-0.004778,-86.545807,0.009934,
810,620,1.944968,-14.548521,0.999997,0.000209,-0.005780,0.010778,-0.000192,0.010780,-0.005783,-89.334539,0.010790,
1810,150,-1.069457,-18.883610,0.999996,0.000283,-0.003965,0.010286,-0.001957,0.010550,-0.004229,-82.320186,0.010619,
600,760,3.554069,-12.507635,0.999995,0.000258,-0.004868,0.009783,0.000373,0.009792,-0.004878,88.544468,0.009792,
1280,260,-0.077612,-18.609724,0.999998,0.000162,-0.001521,0.006911,-0.000012,0.006911,-0.001521,-89.917980,0.007263,
1120,560,0.302655,-16.366423,0.999997,0.000208,-0.003257,0.007319,-0.001417,0.007506,-0.003443,-82.502213,0.007514,
660,30,0.092236,-20.067279,0.999997,0.000000,-0.000257,0.008532,0.004025,0.010097,-0.001821,68.757564,0.010763,
600,1270,3.641010,-7.898980,0.999994,0.000292,-0.004758,0.009570,-0.000412,0.009581,-0.004770,-88.354860,0.009582,
1890,440,-2.666718,-15.657292,0.999996,0.000233,-0.004906,0.010006,0.000023,0.010006,-0.004906,89.910441,0.010007,
1310,540,-0.206116,-16.584574,0.999997,0.000215,-0.002924,0.007001,0.001094,0.007120,-0.003043,83.784629,0.007145,
1320,1820,-0.125660,-1.388166,0.999998,0.000177,-0.001535,0.006956,0.000048,0.006956,-0.001535,89.673976,0.007309,
730,270,1.338969,-17.882886,0.999996,0.000255,-0.004345,0.009878,0.000691,0.009912,-0.004378,87.223796,0.009934,
1380,1470,-0.441283,-4.120639,0.999996,0.000244,-0.003822,0.007940,-0.001854,0.008225,-0.004107,-81.250145,0.008225,
980,900,2.034900,-11.837365,0.999994,0.000302,-0.006647,0.013750,0.000553,0.013765,-0.006662,88.446898,0.013767,
1630,1810,-0.853285,-1.818232,0.999997,0.000219,-0.003096,0.009055,0.000898,0.009121,-0.003163,85.794546,0.009263,
1360,1830,-0.180598,-1.343549,0.999998,0.000180,-0.001525,0.007051,0.000145,0.007053,-0.001527,89.029350,0.007421,
630,1660,2.247229,-3.864092,0.999996,0.000225,-0.005000,0.010068,0.000116,0.010069,-0.005001,89.559870,0.010069,
670,1140,3.698553,-9.018043,0.999997,0.000194,-0.004556,0.009462,-0.000671,0.009494,-0.004588,-87.264499,0.009496,
1170,290,0.109365,-18.394157,0.999998,0.000164,-0.001684,0.007045,0.000048,0.007045,-0.001684,89.682570,0.007358,
680,1070,3.772255,-9.677241,0.999997,0.000186,-0.004362,0.009375,-0.000263,0.009380,-0.004367,-88.903804,0.009388,
1720,560,-2.145738,-14.970268,0.999995,0.000274,-0.005401,0.010397,0.000126,0.010398,-0.005402,89.544524,0.010400,
1550,990,-2.829276,-10.504772,0.999996,0.000236,-0.003780,0.011533,-0.000812,0.011576,-0.003823,-86.971515,0.011797,
810,1560,1.622987,-4.298158,0.999994,0.000282,-0.005161,0.010211,0.000406,0.010221,-0.005172,88.488353,0.010222,
1900,460,-2.772032,-15.425602,0.999997,0.000000,-0.004899,0.010088,0.000004,0.010088,-0.004899,89.984381,0.010090,
1790,500,-2.338929,-15.367561,0.999996,0.000246,-0.005145,0.010242,0.000155,0.010244,-0.005146,89.421692,0.010244,
1410,1640,-0.465275,-2.846535,0.999997,0.000228,-0.003218,0.008020,-0.000730,0.008067,-0.003265,-86.296870,0.008116,
1320,270,-0.145139,-18.525654,0.999998,0.000168,-0.001786,0.007086,0.000043,0.007087,-0.001786,89.724617,0.007371,
1590,1970,-0.212017,-0.460644,0.999998,0.000172,-0.001188,0.007239,0.001405,0.007467,-0.001416,80.779801,0.007932,
880,150,0.408593,-19.209578,0.999998,0.000208,-0.002113,0.007916,0.001202,0.008058,-0.002255,83.261313,0.008314,
1220,620,0.025682,-16.173764,0.999998,0.000159,-0.002359,0.005743,-0.000366,0.005760,-0.002375,-87.416901,0.005789,
1510,670,-1.201408,-14.578220,0.999996,0.000245,-0.006377,0.010976,0.001442,0.011095,-0.006496,85.283322,0.011149,
1430,90,-0.095417,-19.710160,0.999998,0.000181,-0.000626,0.006542,-0.000568,0.006587,-0.000671,-85.497209,0.007250,
1270,820,-0.165235,-15.306705,0.999996,0.000255,-0.004211,0.002688,0.001572,0.003029,-0.004553,77.750827,0.004635,
840,210,0.713423,-18.662378,0.999997,0.000228,-0.002731,0.008719,0.001138,0.008831,-0.002843,84.378426,0.009016,
850,1230,2.458069,-7.830999,0.999993,0.000290,-0.006164,0.011745,-0.001127,0.011816,-0.006235,-86.412999,0.011822,
1670,1950,-0.391414,-0.650395,0.999996,0.000260,-0.002011,0.008190,0.001999,0.008568,-0.002389,79.300954,0.008843,
1120,540,0.302351,-16.510984,0.999996,0.000226,-0.003131,0.007405,-0.001231,0.007547,-0.003272,-83.425445,0.007569,
1850,1420,-3.061471,-6.364614,0.999997,0.000190,-0.005054,0.010156,0.000141,0.010157,-0.005056,89.468941,0.010158,
1780,790,-3.246732,-12.398000,0.999997,0.000214,-0.005116,0.010159,-0.000868,0.010208,-0.005165,-86.756939,0.010208,
770,30,0.067183,-20.073403,0.999997,0.000000,0.000000,0.007383,0.002477,0.008137,-0.000754,73.069058,0.008992,
1190,1220,0.248470,-4.911633,0.999989,0.000389,-0.005372,0.002979,0.000833,0.003061,-0.005454,84.356651,0.005468,
1890,430,-2.636422,-15.758355,0.999995,0.000272,-0.004914,0.009955,0.000016,0.009955,-0.004914,89.937069,0.009955,
1830,260,-1.753692,-17.671666,0.999996,0.000233,-0.004826,0.010120,-0.000286,0.010125,-0.004832,-88.903673,0.010129,
1060,1510,0.516023,-3.881587,0.999995,0.000257,-0.003859,0.008228,0.001518,0.008416,-0.004047,82.950694,0.008418,
1840,1760,-1.944228,-2.880943,0.999997,0.000215,-0.004846,0.010015,0.000056,0.010015,-0.004847,89.782912,0.010017,
810,1110,3.134395,-9.226665,0.999996,0.000231,-0.004452,0.010452,-0.000984,0.010516,-0.004517,-86.237823,0.010551,
1630,1790,-0.919330,-1.999796,0.999996,0.000229,-0.003278,0.009072,0.000719,0.009114,-0.003320,86.679872,0.009225,
1480,1550,-0.806486,-3.807818,0.999996,0.000258,-0.004249,0.009074,-0.001093,0.009163,-0.004338,-85.339648,0.009167,
1810,130,-0.931644,-19.088198,0.999996,0.000268,-0.003748,0.010329,-0.002371,0.010718,-0.004136,-80.692494,0.010810,
590,790,3.705041,-12.186878,0.999995,0.000276,-0.004774,0.009463,0.000297,0.009469,-0.004780,88.805335,0.009469,
1760,880,-3.450347,-11.518164,0.999996,0.000255,-0.004854,0.010055,-0.001030,0.010126,-0.004925,-86.064918,0.010127,
1130,760,0.292178,-15.017557,0.999997,0.000218,-0.004499,0.006575,-0.004037,0.007890,-0.005814,-71.953144,0.008180,
680,1780,1.594619,-2.484685,0.999995,0.000262,-0.004731,0.010074,-0.000434,0.010087,-0.004744,-88.324166,0.010093,
1370,1710,-0.300837,-2.233571,0.999997,0.000228,-0.002272,0.007490,-0.000210,0.007494,-0.002276,-88.769483,0.007684,
1650,820,-2.657712,-12.306499,0.999995,0.000292,-0.005866,0.011304,-0.001142,0.011380,-0.005942,-86.212597,0.011384,
1720,540,-2.088280,-15.177641,0.999995,0.000281,-0.005338,0.010359,0.000178,0.010361,-0.005340,89.351074,0.010362,
1280,240,-0.070549,-18.747245,0.999998,0.000142,-0.001400,0.006855,-0.000056,0.006856,-0.001401,-89.610482,0.007244,
570,550,3.009593,-14.533601,0.999995,0.000292,-0.004935,0.010181,-0.000025,0.010181,-0.004935,-89.905470,0.010183,
840,150,0.491106,-19.175476,0.999997,0.000210,-0.001899,0.008230,0.001532,0.008457,-0.002125,81.585003,0.008799,
1300,270,-0.111785,-18.534264,0.999998,0.000182,-0.001598,0.007024,-0.000055,0.007025,-0.001599,-89.633555,0.007364,
1390,1640,-0.401140,-2.798418,0.999997,0.000217,-0.003045,0.007805,-0.000716,0.007852,-0.003093,-86.240692,0.007911,
640,1280,3.409671,-7.699193,0.999996,0.000252,-0.004963,0.009919,-0.000653,0.009947,-0.004992,-87.490538,0.009947,
900,520,1.218588,-15.914693,0.999996,0.000245,-0.005099,0.009904,-0.000868,0.009954,-0.005149,-86.700828,0.009956,
580,310,2.211616,-16.966591,0.999996,0.000261,-0.004711,0.009685,0.000056,0.009685,-0.004712,89.775435,0.009686,
1460,1980,-0.088710,-0.357054,0.999998,0.000189,-0.000423,0.006597,0.000769,0.006680,-0.000507,83.819835,0.007438,
1010,1380,0.858746,-5.312926,0.999994,0.000300,-0.005998,0.010229,0.002304,0.010550,-0.006319,82.073176,0.010619,
1550,970,-2.768929,-10.737890,0.999997,0.000226,-0.004101,0.011598,-0.001073,0.011671,-0.004174,-86.107426,0.011827,
1420,1980,-0.071303,-0.350738,0.999998,0.000192,-0.000562,0.006441,0.000550,0.006484,-0.000605,85.534510,0.007164,
590,1890,1.464293,-1.715887,0.999995,0.000270,-0.005045,0.010225,-0.000800,0.010267,-0.005086,-87.009801,0.010267,
1290,1960,-0.027884,-0.459262,0.999998,0.000161,-0.000385,0.006242,0.000151,0.006245,-0.000389,88.693174,0.006998,
590,1270,3.688724,-7.925343,0.999996,0.000287,-0.004800,0.009485,-0.000324,0.009493,-0.004808,-88.700714,0.009493,
1510,650,-1.160235,-14.798154,0.999996,0.000254,-0.006106,0.010629,0.001453,0.010754,-0.006231,85.074333,0.010799,
600,740,3.484927,-12.704364,0.999995,0.000260,-0.004908,0.009783,0.000357,0.009792,-0.004916,88.609068,0.009792,
1220,600,0.027772,-16.291573,0.999998,0.000161,-0.002409,0.005987,-0.000359,0.006002,-0.002425,-87.558564,0.006039,
1120,520,0.301850,-16.658882,0.999997,0.000198,-0.003012,0.007406,-0.001048,0.007510,-0.003117,-84.309571,0.007546,
1670,1930,-0.489552,-0.819521,0.999996,0.000257,-0.002391,0.008335,0.001811,0.008633,-0.002689,80.672641,0.008835,
1720,1290,-2.835953,-7.381045,0.999995,0.000287,-0.005566,0.010771,0.000885,0.010818,-0.005614,86.907709,0.010821,
700,930,3.595335,-11.022061,0.999996,0.000242,-0.004564,0.009703,0.000767,0.009744,-0.004605,86.932323,0.009749,
1590,1950,-0.272246,-0.603912,0.999997,0.000200,-0.001521,0.007542,0.001373,0.007745,-0.001725,81.569856,0.008133,
1890,490,-2.815315,-15.151926,0.999995,0.000262,-0.004957,0.010073,0.000028,0.010073,-0.004957,89.893065,0.010074,
810,1090,3.184795,-9.438715,0.999997,0.000200,-0.004282,0.010418,-0.000913,0.010474,-0.004339,-86.458060,0.010525,
1840,1740,-2.020270,-3.083586,0.999997,0.000221,-0.004853,0.010015,-0.000022,0.010015,-0.004853,-89.914920,0.010017,
1900,450,-2.744370,-15.526800,0.999996,0.000000,-0.004885,0.010041,0.000025,0.010041,-0.004885,89.905744,0.010042,
1830,280,-1.837727,-17.469432,0.999995,0.000254,-0.004852,0.010099,-0.000170,0.010101,-0.004854,-89.349946,0.010104,
1630,1770,-0.979321,-2.183529,0.999997,0.000222,-0.003474,0.009274,0.000574,0.009300,-0.003499,87.425979,0.009395,
760,2020,0.099948,-0.126389,0.999997,0.000000,-0.000071,0.007452,-0.002431,0.008169,-0.000788,-73.562443,0.009012,
1490,1160,-2.047463,-8.288877,0.999995,0.000253,-0.006705,0.013541,0.000665,0.013563,-0.006727,88.120126,0.013563,
580,1480,3.035965,-5.853825,0.999994,0.000280,-0.004933,0.010181,-0.000017,0.010181,-0.004933,-89.935787,0.010182,
1520,1550,-0.987450,-3.949044,0.999997,0.000226,-0.004679,0.009475,-0.000985,0.009543,-0.004747,-86.038569,0.009543,
590,780,3.670759,-12.283153,0.999993,0.000317,-0.004837,0.009612,0.000305,0.009619,-0.004844,88.790271,0.009619,
1810,110,-0.780983,-19.301266,0.999996,0.000246,-0.003222,0.010229,-0.002795,0.010787,-0.003779,-78.716229,0.010947,
1760,860,-3.388992,-11.720239,0.999996,0.000243,-0.004937,0.010029,-0.000976,0.010092,-0.005000,-86.284905,0.010093,
1370,1690,-0.314440,-2.382361,0.999997,0.000213,-0.002411,0.007593,-0.000265,0.007600,-0.002418,-88.483233,0.007766,
680,1760,1.673889,-2.687133,0.999995,0.000259,-0.004791,0.010102,-0.000300,0.010108,-0.004797,-88.846478,0.010112,
980,920,2.176671,-11.559366,0.999994,0.000284,-0.006127,0.013780,0.000691,0.013804,-0.006151,88.015122,0.013831,
1720,520,-2.034020,-15.386252,0.999995,0.000262,-0.005232,0.010320,0.000216,0.010323,-0.005235,89.203857,0.010324,
1540,710,-1.502682,-13.976292,0.999994,0.000320,-0.006813,0.011612,0.000814,0.011648,-0.006849,87.475369,0.011708,
840,310,1.027760,-17.757593,0.999997,0.000215,-0.003686,0.009188,0.000271,0.009193,-0.003692,88.794552,0.009253,
850,1210,2.549509,-8.067377,0.999994,0.000296,-0.005948,0.011612,-0.001264,0.011703,-0.006039,-85.902414,0.011705,
640,1260,3.481630,-7.900225,0.999996,0.000276,-0.004908,0.009844,-0.000701,0.009877,-0.004941,-87.286770,0.009877,
1320,1800,-0.134509,-1.527263,0.999998,0.000171,-0.001684,0.007011,-0.000009,0.007011,-0.001684,-89.937818,0.007319,
1280,220,-0.065713,-18.883986,0.999998,0.000168,-0.001243,0.006759,-0.000051,0.006759,-0.001243,-89.631318,0.007195,
820,150,0.530282,-19.161768,0.999996,0.000244,-0.002094,0.008388,0.001626,0.008634,-0.002341,81.382552,0.008931,
1220,470,0.029364,-17.142454,0.999998,0.000151,-0.002491,0.006897,-0.000194,0.006901,-0.002495,-88.816488,0.006989,
730,250,1.255875,-18.081782,0.999996,0.000225,-0.004206,0.009911,0.000837,0.009960,-0.004255,86.618846,0.009995,
1280,270,-0.079645,-18.540414,0.999998,0.000165,-0.001588,0.006986,-0.000012,0.006986,-0.001588,-89.919218,0.007324,
1420,1960,-0.093345,-0.479219,0.999998,0.000191,-0.000756,0.006555,0.000537,0.006595,-0.000796,85.821011,0.007199,
1850,1760,-1.994546,-2.918665,0.999997,0.000241,-0.004855,0.009945,0.000043,0.009945,-0.004855,89.831728,0.009946,
940,120,0.239699,-19.470721,0.999997,0.000199,-0.001194,0.007282,0.001015,0.007402,-0.001313,83.266211,0.007898,
1170,270,0.100810,-18.537034,0.999998,0.000164,-0.001545,0.007000,0.000050,0.007000,-0.001546,89.663570,0.007355,
1510,630,-1.125129,-15.006667,0.999996,0.000254,-0.005831,0.010359,0.001429,0.010484,-0.005956,84.993308,0.010517,
580,1890,1.513119,-1.764365,0.999995,0.000256,-0.005682,0.010198,-0.000837,0.010242,-0.005726,-86.989985,0.010266,
650,1140,3.790584,-9.036053,0.999994,0.000284,-0.004526,0.009307,-0.000610,0.009334,-0.004553,-87.481024,0.009335,
660,1070,3.859247,-9.684131,0.999998,0.000168,-0.004346,0.009228,-0.000234,0.009232,-0.004351,-89.011601,0.009237,
1250,820,-0.082928,-15.406753,0.999993,0.000322,-0.004555,0.002406,0.000689,0.002474,-0.004622,84.397348,0.004626,
1110,1780,0.210832,-1.697269,0.999998,0.000172,-0.001908,0.007258,0.000013,0.007258,-0.001908,89.918840,0.007525,
1830,1420,-2.958916,-6.303325,0.999998,0.000190,-0.005131,0.010211,0.000171,0.010213,-0.005133,89.362950,0.010213,
990,1640,0.674906,-2.989413,0.999997,0.000223,-0.003704,0.008575,0.000693,0.008614,-0.003743,86.781149,0.008638,
1030,400,0.525788,-17.384333,0.999998,0.000223,-0.003118,0.008128,-0.000539,0.008154,-0.003144,-87.263212,0.008225,
1900,440,-2.716220,-15.628338,0.999996,0.000000,-0.004876,0.010004,0.000014,0.010004,-0.004876,89.946503,0.010005,
810,1070,3.222770,-9.643781,0.999997,0.000193,-0.004119,0.010236,-0.000542,0.010256,-0.004140,-87.840722,0.010320,
1840,1720,-2.088292,-3.282379,0.999997,0.000220,-0.004831,0.009966,-0.000091,0.009967,-0.004831,-89.646617,0.009968,
910,1320,1.677621,-6.540580,0.999997,0.000262,-0.006971,0.011954,0.000425,0.011964,-0.006980,88.713279,0.012019,
580,360,2.381366,-16.470387,0.999997,0.000203,-0.005897,0.009808,0.000485,0.009823,-0.005911,88.232925,0.009891,
1680,400,-1.515315,-16.736810,0.999995,0.000275,-0.004692,0.009932,0.000125,0.009933,-0.004693,89.510226,0.009938,
640,930,3.868057,-10.975021,0.999997,0.000239,-0.004472,0.009230,0.000624,0.009259,-0.004501,87.398740,0.009260,
1630,1750,-1.041006,-2.372743,0.999997,0.000218,-0.003683,0.009267,0.000351,0.009277,-0.003692,88.447605,0.009341,
760,30,0.063786,-20.075094,0.999997,0.000000,0.000128,0.007553,0.002704,0.008434,-0.000753,71.965137,0.009334,
1590,1930,-0.344546,-0.763548,0.999997,0.000211,-0.001766,0.007708,0.001316,0.007888,-0.001945,82.237299,0.008219,
730,620,2.398750,-14.295967,0.999996,0.000240,-0.005487,0.010529,0.000103,0.010529,-0.005487,89.633240,0.010532,
1890,520,-2.905647,-14.849242,0.999996,0.000251,-0.005025,0.010101,0.000021,0.010101,-0.005026,89.921728,0.010101,
1120,500,0.298916,-16.804450,0.999997,0.000200,-0.002939,0.007370,-0.000906,0.007449,-0.003018,-85.018325,0.007494,
1220,580,0.028081,-16.412717,0.999998,0.000181,-0.002458,0.006223,-0.000326,0.006235,-0.002470,-87.855491,0.006280,
1070,1960,0.076482,-0.474438,0.999998,0.000159,-0.000558,0.006455,-0.000466,0.006486,-0.000588,-86.213069,0.007173,
1550,950,-2.698491,-10.968813,0.999996,0.000243,-0.004542,0.011761,-0.001323,0.011868,-0.004649,-85.389289,0.011960,
690,800,3.249189,-12.308792,0.999996,0.000255,-0.005164,0.010207,0.000928,0.010262,-0.005220,86.556675,0.010263,
1810,90,-0.621932,-19.502388,0.999995,0.000269,-0.002647,0.010071,-0.003423,0.010934,-0.003510,-75.851220,0.011165,
620,1510,2.742785,-5.421943,0.999996,0.000227,-0.005057,0.010199,0.000053,0.010199,-0.005057,89.802268,0.010199,
1560,670,-1.520794,-14.344194,0.999992,0.000339,-0.006364,0.011252,0.000756,0.011285,-0.006397,87.546079,0.011318,
580,1270,3.734678,-7.953754,0.999997,0.000259,-0.004998,0.009407,-0.000248,0.009412,-0.005003,-89.014482,0.009418,
1180,270,0.084375,-18.538633,0.999998,0.000157,-0.001569,0.006981,0.000006,0.006981,-0.001569,89.958110,0.007326,
1760,840,-3.323535,-11.919024,0.999995,0.000272,-0.005013,0.010047,-0.000973,0.010110,-0.005076,-86.317670,0.010110,
1590,180,-0.522786,-18.962777,0.999998,0.000194,-0.002551,0.008119,-0.001015,0.008214,-0.002647,-84.614617,0.008386,
1720,500,-1.979736,-15.592048,0.999996,0.000226,-0.005159,0.010295,0.000258,0.010299,-0.005163,89.043670,0.010299,
1070,510,0.467262,-16.591159,0.999996,0.000220,-0.003532,0.008035,-0.001264,0.008171,-0.003668,-83.833801,0.008185,
1630,1730,-1.092321,-2.556102,0.999997,0.000221,-0.003874,0.009417,0.000189,0.009420,-0.003877,89.187522,0.009469,
980,1190,1.794434,-7.834981,0.999994,0.000286,-0.007420,0.013554,-0.000080,0.013555,-0.007420,-89.780211,0.013575,
1420,1940,-0.124746,-0.614091,0.999998,0.000195,-0.000940,0.006716,0.000540,0.006754,-0.000978,85.983082,0.007300,
850,1630,1.264061,-3.469530,0.999996,0.000223,-0.004612,0.009724,0.000371,0.009733,-0.004622,88.518933,0.009737,
1890,510,-2.875443,-14.950884,0.999996,0.000235,-0.005000,0.010064,0.000017,0.010064,-0.005000,89.934771,0.010064,
910,1300,1.750630,-6.783210,0.999994,0.000303,-0.007046,0.012115,0.000203,0.012117,-0.007048,89.393629,0.012171,
970,1640,0.749307,-3.043701,0.999998,0.000183,-0.003792,0.008750,0.000625,0.008781,-0.003823,87.154801,0.008805,
1630,840,-2.625863,-12.119101,0.999995,0.000256,-0.005856,0.011396,-0.001240,0.011485,-0.005945,-85.910859,0.011487,
840,290,0.970344,-17.941405,0.999996,0.000250,-0.003539,0.009210,0.000499,0.009230,-0.003559,87.759924,0.009310,
1900,430,-2.684880,-15.727594,0.999995,0.000000,-0.004887,0.009913,-0.000007,0.009913,-0.004887,-89.971225,0.009913,
900,500,1.177191,-16.115582,0.999997,0.000231,-0.004875,0.009797,-0.000787,0.009839,-0.004917,-86.939280,0.009839,
1840,1350,-3.248218,-7.044834,0.999995,0.000258,-0.005038,0.010034,0.000378,0.010044,-0.005047,88.564167,0.010044,
1680,420,-1.568801,-16.534810,0.999995,0.000252,-0.004799,0.009970,0.000196,0.009972,-0.004802,89.238200,0.009975,
1670,1380,-2.218166,-6.267657,0.999995,0.000286,-0.005940,0.010967,0.000187,0.010969,-0.005942,89.365452,0.010982,
1550,930,-2.603211,-11.209579,0.999995,0.000270,-0.005062,0.011986,-0.001443,0.012108,-0.005183,-85.196544,0.012149,
1170,250,0.094398,-18.673248,0.999998,0.000174,-0.001443,0.006928,0.000094,0.006929,-0.001444,89.357505,0.007311,
640,1240,3.550700,-8.096854,0.999995,0.000266,-0.004825,0.009648,-0.000688,0.009680,-0.004857,-87.283025,0.009680,
1380,160,-0.139531,-19.257556,0.999998,0.000183,-0.000948,0.006807,-0.000404,0.006828,-0.000969,-87.028438,0.007388,
1460,1960,-0.121413,-0.490432,0.999998,0.000197,-0.000603,0.006693,0.000738,0.006767,-0.000677,84.280600,0.007454,
1590,1910,-0.405048,-0.914555,0.999998,0.000210,-0.002092,0.007855,0.001247,0.008009,-0.002246,82.959749,0.008262,
1220,560,0.029421,-16.540305,0.999998,0.000180,-0.002500,0.006403,-0.000293,0.006412,-0.002510,-88.115859,0.006462,
1800,1670,-2.054423,-3.651404,0.999997,0.000194,-0.004927,0.010102,-0.000071,0.010103,-0.004927,-89.730689,0.010104,
730,600,2.333758,-14.508013,0.999995,0.000283,-0.005455,0.010525,0.000048,0.010525,-0.005455,89.828421,0.010528,
1040,1510,0.597067,-3.960016,0.999996,0.000232,-0.004241,0.008554,0.001607,0.008753,-0.004439,82.947614,0.008753,
1120,480,0.294434,-16.951957,0.999997,0.000200,-0.002858,0.007413,-0.000802,0.007475,-0.002921,-85.562767,0.007534,
680,1740,1.745409,-2.890724,0.999996,0.000246,-0.004805,0.010029,-0.000129,0.010030,-0.004806,-89.502458,0.010033,
1510,610,-1.090969,-15.213786,0.999996,0.000242,-0.005625,0.010243,0.001427,0.010370,-0.005753,84.902015,0.010391,
750,2020,0.096731,-0.124454,0.999997,0.000000,0.000047,0.007607,-0.002635,0.008435,-0.000780,-72.561261,0.009322,
670,800,3.349782,-12.270604,0.999995,0.000250,-0.005020,0.010074,0.000850,0.010121,-0.005067,86.785276,0.010121,
790,1980,0.261031,-0.414118,0.999997,0.000217,-0.001375,0.007711,-0.002062,0.008158,-0.001821,-77.793293,0.008564,
1170,80,0.023065,-19.792885,0.999998,0.000152,-0.000283,0.006165,0.000201,0.006171,-0.000289,88.217867,0.006965,
1850,1740,-2.068191,-3.119700,0.999997,0.000243,-0.004859,0.009998,-0.000039,0.009998,-0.004859,-89.849816,0.009999,
1090,1780,0.248086,-1.712487,0.999998,0.000184,-0.001829,0.007342,-0.000101,0.007343,-0.001830,-89.370431,0.007644,
830,560,1.673030,-15.258637,0.999996,0.000214,-0.005486,0.010460,-0.000468,0.010474,-0.005500,-88.319750,0.010478,
1160,270,0.117167,-18.533191,0.999998,0.000180,-0.001604,0.007021,0.000054,0.007022,-0.001604,89.638405,0.007359,
600,720,3.414997,-12.899993,0.999994,0.000285,-0.004924,0.009859,0.000299,0.009865,-0.004930,88.843209,0.009865,
810,1050,3.239171,-9.848840,0.999997,0.000205,-0.004002,0.010183,-0.000364,0.010192,-0.004011,-88.532731,0.010269,
1290,1580,-0.143975,-3.082613,0.999997,0.000189,-0.002566,0.007033,-0.000409,0.007050,-0.002583,-87.562963,0.007133,
1760,820,-3.255916,-12.125378,0.999995,0.000284,-0.005105,0.010258,-0.001024,0.010326,-0.005173,-86.204876,0.010326,
1610,440,-1.285121,-16.550703,0.999994,0.000288,-0.004694,0.009781,0.000451,0.009795,-0.004708,88.215822,0.009797,
1810,70,-0.433393,-19.711009,0.999995,0.000275,-0.001947,0.009905,-0.003780,0.011008,-0.003050,-73.735455,0.011367,
1160,690,0.169535,-15.644864,0.999998,0.000194,-0.002939,0.005699,-0.002328,0.006286,-0.003526,-75.839490,0.006302,
1350,760,-0.373151,-14.861037,0.999996,0.000250,-0.005119,0.007594,0.004167,0.008838,-0.006363,73.377129,0.009118,
770,410,1.602074,-16.598386,0.999997,0.000221,-0.004823,0.009996,-0.000159,0.009997,-0.004825,-89.386053,0.009999,
720,1270,3.039347,-7.641120,0.999997,0.000250,-0.005317,0.010445,-0.000921,0.010499,-0.005371,-86.667696,0.010500,
1610,1520,-1.489288,-4.562571,0.999994,0.000307,-0.005346,0.010303,-0.000611,0.010327,-0.005369,-87.766989,0.010329,
1420,1920,-0.149968,-0.748854,0.999998,0.000170,-0.001130,0.006798,0.000484,0.006828,-0.001160,86.518738,0.007307,
1000,210,0.335158,-18.845741,0.999997,0.000191,-0.001707,0.007491,0.000503,0.007518,-0.001734,86.881578,0.007873,
850,1650,1.218907,-3.273509,0.999997,0.000181,-0.004397,0.009608,0.000258,0.009612,-0.004402,88.946226,0.009624,
980,940,2.309648,-11.284784,0.999994,0.000273,-0.005551,0.013910,0.000831,0.013945,-0.005587,87.559022,0.014037,
960,1190,1.940853,-7.953899,0.999993,0.000348,-0.007086,0.013311,-0.000534,0.013325,-0.007100,-88.500253,0.013335,
1660,1110,-3.165083,-9.231003,0.999995,0.000290,-0.004447,0.010363,0.000985,0.010428,-0.004512,86.210753,0.010460,
900,480,1.144817,-16.311838,0.999996,0.000230,-0.004634,0.009653,-0.000699,0.009687,-0.004669,-87.205550,0.009689,
1720,1350,-2.611822,-6.734795,0.999995,0.000329,-0.005658,0.010751,0.000533,0.010769,-0.005675,88.143149,0.010774,
1030,1320,0.834127,-5.810619,0.999995,0.000280,-0.006716,0.010801,0.002805,0.011239,-0.007154,81.121682,0.011378,
1680,440,-1.619459,-16.336028,0.999996,0.000232,-0.004920,0.010055,0.000258,0.010059,-0.004925,89.014966,0.010060,
950,860,1.979753,-12.220220,0.999994,0.000307,-0.007024,0.013131,0.000631,0.013151,-0.007043,88.209279,0.013162,
1330,1640,-0.236447,-2.703071,0.999997,0.000213,-0.002678,0.007394,-0.000606,0.007430,-0.002714,-86.570594,0.007519,
640,530,2.596947,-14.954054,0.999994,0.000299,-0.005115,0.010185,-0.000071,0.010185,-0.005116,-89.733439,0.010185,
1900,420,-2.653637,-15.827863,0.999996,0.000000,-0.004892,0.009779,0.000031,0.009779,-0.004892,89.877706,0.009779,
1590,160,-0.461616,-19.120695,0.999997,0.000215,-0.002283,0.008020,-0.001185,0.008155,-0.002417,-83.522319,0.008377,
1220,540,0.028168,-16.667796,0.999998,0.000169,-0.002533,0.006565,-0.000264,0.006573,-0.002541,-88.340115,0.006629,
1720,480,-1.926226,-15.800298,0.999997,0.000219,-0.005087,0.010230,0.000264,0.010235,-0.005091,89.011238,0.010235,
1800,1650,-2.114529,-3.855790,0.999993,0.000289,-0.004984,0.010128,-0.000132,0.010129,-0.004985,-89.501458,0.010130,
640,1220,3.612950,-8.288007,0.999994,0.000292,-0.004751,0.009583,-0.000712,0.009618,-0.004786,-87.162239,0.009618,
1460,1940,-0.156918,-0.625386,0.999998,0.000197,-0.000786,0.006905,0.000759,0.006980,-0.000860,84.418193,0.007612,
1380,180,-0.162081,-19.120235,0.999998,0.000175,-0.001080,0.006864,-0.000340,0.006879,-0.001094,-87.553680,0.007393,
1870,1000,-4.155497,-10.316925,0.999996,0.000227,-0.004128,0.008577,-0.000224,0.008581,-0.004132,-88.988786,0.008583,
1320,1780,-0.147092,-1.669926,0.999998,0.000175,-0.001819,0.007102,-0.000051,0.007103,-0.001819,-89.670861,0.007379,
1530,1860,-0.434672,-1.258327,0.999996,0.000238,-0.002012,0.007922,0.000814,0.007989,-0.002078,85.344289,0.008289,
730,230,1.173167,-18.280911,0.999997,0.000191,-0.004020,0.009830,0.001029,0.009906,-0.004096,85.773346,0.009955,
1120,460,0.289848,-17.100866,0.999998,0.000196,-0.002791,0.007449,-0.000711,0.007498,-0.002840,-86.048249,0.007571,
680,1720,1.810140,-3.091282,0.999996,0.000228,-0.004806,0.010042,-0.000021,0.010042,-0.004806,-89.917583,0.010046,
1510,590,-1.059142,-15.419426,0.999996,0.000211,-0.005425,0.010086,0.001402,0.010212,-0.005551,84.876476,0.010225,
1590,1890,-0.476732,-1.077713,0.999996,0.000240,-0.002339,0.008028,0.001145,0.008153,-0.002463,83.773407,0.008363,
830,2010,0.100436,-0.180648,0.999998,0.000173,-0.000240,0.006996,-0.001777,0.007409,-0.000653,-76.919686,0.008204,
1400,1830,-0.240569,-1.367215,0.999998,0.000174,-0.001720,0.007203,0.000201,0.007207,-0.001725,88.708446,0.007527,
1410,80,-0.070740,-19.779169,0.999998,0.000176,-0.000560,0.006433,-0.000521,0.006472,-0.000599,-85.760789,0.007153,
1190,1780,0.069081,-1.653172,0.999998,0.000179,-0.001651,0.007009,0.000010,0.007009,-0.001651,89.936172,0.007328,
750,30,0.061641,-20.075090,0.999998,0.000000,0.000111,0.007665,0.002833,0.008609,-0.000834,71.563240,0.009496,
810,1030,3.256643,-10.054103,0.999996,0.000232,-0.003991,0.010202,-0.000046,0.010203,-0.003991,-89.815319,0.010283,
600,1140,4.010128,-9.095060,0.999998,0.000186,-0.004315,0.008882,-0.000414,0.008895,-0.004328,-88.202959,0.008896,
1270,1580,-0.095800,-3.069482,0.999998,0.000182,-0.002460,0.006930,-0.000281,0.006938,-0.002468,-88.287937,0.007034,
1800,1980,-0.469306,-0.497769,0.999995,0.000243,-0.001610,0.009799,0.003941,0.011028,-0.002839,72.678817,0.011452,
1760,800,-3.181733,-12.332922,0.999996,0.000249,-0.005163,0.010302,-0.000966,0.010362,-0.005223,-86.439032,0.010362,
1680,40,-0.109386,-20.003446,0.999996,0.000223,-0.000715,0.007176,-0.002017,0.007661,-0.001200,-76.463226,0.008242,
1420,1900,-0.181787,-0.887073,0.999997,0.000190,-0.001302,0.006938,0.000459,0.006964,-0.001327,86.820017,0.007395,
700,1270,3.142226,-7.678683,0.999998,0.000191,-0.005166,0.010253,-0.000882,0.010303,-0.005216,-86.736680,0.010303,
1510,500,-0.933201,-16.294309,0.999997,0.000212,-0.004574,0.009407,0.001053,0.009486,-0.004653,85.718661,0.009486,
1870,630,-3.144083,-13.785694,0.999996,0.000240,-0.005052,0.010138,-0.000106,0.010138,-0.005052,-89.600666,0.010138,
1180,690,0.114943,-15.723426,0.999998,0.000188,-0.002606,0.005117,-0.001852,0.005538,-0.003027,-77.186181,0.005546,
850,1670,1.176453,-3.082978,0.999998,0.000157,-0.004190,0.009464,0.000149,0.009466,-0.004192,89.373415,0.009486,
590,340,2.265148,-16.707106,0.999996,0.000196,-0.004900,0.009864,-0.000108,0.009865,-0.004901,-89.579714,0.009865,
790,1680,1.417250,-3.156167,0.999994,0.000285,-0.004616,0.009820,0.000094,0.009821,-0.004616,89.628190,0.009827,
820,1190,2.806800,-8.347241,0.999994,0.000298,-0.005496,0.011230,-0.001340,0.011337,-0.005602,-85.447949,0.011337,
980,210,0.368577,-18.831235,0.999998,0.000179,-0.001981,0.007599,0.000530,0.007628,-0.002010,86.840565,0.007907,
1720,710,-2.629927,-13.371037,0.999997,0.000250,-0.005640,0.010770,-0.000567,0.010789,-0.005659,-88.022662,0.010794,
1900,410,-2.623868,-15.924881,0.999996,0.000000,-0.004871,0.009691,0.000094,0.009691,-0.004871,89.631109,0.009691,
640,1200,3.676942,-8.480296,0.999994,0.000288,-0.004736,0.009615,-0.000786,0.009658,-0.004779,-86.874041,0.009658,
1380,200,-0.183999,-18.981133,0.999998,0.000174,-0.001252,0.007020,-0.000330,0.007033,-0.001265,-87.719725,0.007498,
1700,1350,-2.500202,-6.683235,0.999994,0.000319,-0.005837,0.010882,0.000509,0.010897,-0.005852,88.258549,0.010907,
1310,1640,-0.185496,-2.672696,0.999997,0.000207,-0.002534,0.007289,-0.000433,0.007308,-0.002553,-87.478629,0.007417,
960,150,0.278596,-19.265450,0.999997,0.000184,-0.001636,0.007358,0.000803,0.007429,-0.001707,84.936536,0.007782,
1220,520,0.029463,-16.801944,0.999998,0.000164,-0.002540,0.006683,-0.000252,0.006690,-0.002547,-88.437463,0.006753,
1720,460,-1.871985,-16.003686,0.999996,0.000212,-0.005015,0.010115,0.000240,0.010119,-0.005018,89.091307,0.010119,
1460,1920,-0.194979,-0.768727,0.999997,0.000180,-0.000949,0.006989,0.000697,0.007050,-0.001009,85.021809,0.007625,
1010,1320,0.972317,-5.963466,0.999995,0.000302,-0.006931,0.011246,0.002363,0.011548,-0.007233,82.713376,0.011670,
900,460,1.109562,-16.500622,0.999997,0.000220,-0.004478,0.009522,-0.000618,0.009549,-0.004505,-87.476035,0.009554,
1680,460,-1.672223,-16.131100,0.999996,0.000230,-0.005004,0.010106,0.000294,0.010112,-0.005010,88.885638,0.010112,
1380,1830,-0.211687,-1.355689,0.999997,0.000219,-0.001449,0.007117,0.000237,0.007123,-0.001455,88.414208,0.007527,
770,830,2.938127,-12.126449,0.999997,0.000212,-0.005436,0.010774,0.001171,0.010858,-0.005521,85.891116,0.010859,
1330,760,-0.279733,-15.047191,0.999996,0.000259,-0.004365,0.006359,0.003990,0.007680,-0.005687,71.672811,0.007971,
720,610,2.419599,-14.371921,0.999996,0.000241,-0.005429,0.010502,0.000098,0.010503,-0.005429,89.647921,0.010505,
970,1700,0.659108,-2.521332,0.999997,0.000232,-0.003499,0.008455,0.000382,0.008467,-0.003511,88.170623,0.008508,
1850,1000,-4.073563,-10.325400,0.999999,0.000159,-0.004214,0.008791,-0.000258,0.008796,-0.004219,-88.863556,0.008799,
1590,1870,-0.536552,-1.238393,0.999997,0.000231,-0.002604,0.008262,0.000992,0.008352,-0.002694,84.824002,0.008525,
1800,1960,-0.647376,-0.700762,0.999995,0.000248,-0.002393,0.009812,0.003352,0.010672,-0.003253,75.610773,0.010940,
1560,1110,-2.720921,-9.144481,0.999995,0.000252,-0.004605,0.011630,0.001375,0.011746,-0.004720,85.192871,0.011821,
1760,780,-3.107627,-12.539156,0.999997,0.000222,-0.005219,0.010316,-0.000868,0.010365,-0.005268,-86.812591,0.010365,
1390,80,-0.059230,-19.782749,0.999998,0.000159,-0.000419,0.006382,-0.000480,0.006416,-0.000453,-85.984734,0.007161,
1120,440,0.282537,-17.249581,0.999998,0.000205,-0.002724,0.007465,-0.000623,0.007503,-0.002762,-86.511770,0.007589,
1420,1880,-0.207986,-1.026248,0.999998,0.000175,-0.001494,0.006967,0.000350,0.006981,-0.001509,87.637960,0.007346,
1650,700,-2.181435,-13.674633,0.999996,0.000287,-0.006096,0.011212,-0.000248,0.011216,-0.006099,-89.178172,0.011230,
1680,110,-0.436254,-19.460001,0.999997,0.000212,-0.002053,0.008386,-0.002103,0.008794,-0.002461,-79.025985,0.009073,
1510,1860,-0.394885,-1.240908,0.999997,0.000226,-0.002155,0.007765,0.000677,0.007811,-0.002201,86.111413,0.008055,
730,210,1.079247,-18.479640,0.999997,0.000190,-0.003865,0.009788,0.001241,0.009900,-0.003977,84.846826,0.009963,
740,2020,0.093901,-0.122478,0.999997,0.000000,-0.000055,0.007738,-0.002806,0.008643,-0.000960,-72.121536,0.009475,
1510,520,-0.961919,-16.103421,0.999996,0.000230,-0.004704,0.009469,0.001115,0.009556,-0.004792,85.530909,0.009556,
1320,1760,-0.157486,-1.813050,0.999998,0.000159,-0.001959,0.007122,-0.000107,0.007123,-0.001960,-89.325243,0.007359,
1320,650,-0.226368,-15.815411,0.999997,0.000255,-0.003209,0.006516,0.002125,0.006960,-0.003653,78.195290,0.006963,
660,1770,1.729496,-2.650092,0.999995,0.000251,-0.004749,0.010131,-0.000361,0.010139,-0.004758,-88.612617,0.010146,
1250,1780,-0.032433,-1.647390,0.999998,0.000147,-0.001705,0.006927,-0.000074,0.006927,-0.001705,-89.510975,0.007219,
980,960,2.427711,-11.004578,0.999993,0.000303,-0.005025,0.013786,0.000802,0.013820,-0.005059,87.563960,0.013985,
1510,1380,-1.213978,-5.638129,0.999994,0.000283,-0.006398,0.011060,-0.001449,0.011180,-0.006517,-85.287000,0.011231,
850,1690,1.129622,-2.898721,0.999997,0.000179,-0.004006,0.009312,-0.000017,0.009312,-0.004006,-89.925059,0.009342,
680,40,0.178438,-19.983053,0.999996,0.000241,-0.000468,0.008331,0.003616,0.009626,-0.001763,70.289930,0.010250,
940,1190,2.076387,-8.045376,0.999995,0.000255,-0.006786,0.012969,-0.000888,0.013009,-0.006826,-87.430174,0.013014,
1710,740,-2.685800,-13.069849,0.999995,0.000255,-0.005725,0.010774,-0.000741,0.010807,-0.005758,-87.434408,0.010815,
680,1700,1.875906,-3.292218,0.999996,0.000242,-0.004843,0.010071,-0.000025,0.010071,-0.004843,-89.903180,0.010074,
640,1180,3.740230,-8.674426,0.999996,0.000252,-0.004643,0.009491,-0.000720,0.009527,-0.004680,-87.089708,0.009528,
1460,1900,-0.228345,-0.905109,0.999997,0.000195,-0.001149,0.007111,0.000690,0.007168,-0.001206,85.257493,0.007676,
1900,400,-2.595372,-16.020559,0.999997,0.000000,-0.004892,0.009673,0.000136,0.009675,-0.004893,89.464797,0.009675,
1070,1380,0.526716,-4.936278,0.999994,0.000292,-0.004989,0.008734,0.002863,0.009307,-0.005562,78.675047,0.009366,
1380,220,-0.207871,-18.839781,0.999998,0.000187,-0.001413,0.007061,-0.000250,0.007068,-0.001420,-88.313463,0.007477,
1100,210,0.173106,-18.918494,0.999998,0.000171,-0.001378,0.006980,0.000209,0.006985,-0.001384,88.565143,0.007397,
1220,1340,0.020656,-4.451828,0.999997,0.000190,-0.001990,0.003963,0.000537,0.004011,-0.002039,84.885087,0.004011,
1530,1240,-1.853406,-7.429268,0.999995,0.000257,-0.007267,0.012785,0.000219,0.012787,-0.007270,89.373974,0.012827,
1090,1640,0.352070,-2.767205,0.999997,0.000214,-0.002764,0.007638,0.000554,0.007668,-0.002793,86.962152,0.007761,
1680,900,-3.127537,-11.389043,0.999996,0.000248,-0.004900,0.010615,-0.001248,0.010715,-0.004999,-85.430475,0.010723,
1460,1790,-0.423120,-1.733444,0.999997,0.000192,-0.002174,0.007753,0.000266,0.007760,-0.002181,88.466994,0.008005,
720,590,2.357888,-14.582301,0.999994,0.000274,-0.005416,0.010468,0.000023,0.010468,-0.005416,89.918326,0.010470,
850,1320,2.077777,-6.770607,0.999995,0.000269,-0.006453,0.011582,-0.000277,0.011586,-0.006457,-89.119077,0.011612,
810,1010,3.245330,-10.259469,0.999997,0.000187,-0.003981,0.010224,0.000341,0.010232,-0.003989,88.624873,0.010314,
600,1160,3.966480,-8.918599,0.999997,0.000182,-0.004316,0.008829,-0.000319,0.008837,-0.004324,-88.609558,0.008837,
1800,1940,-0.786883,-0.897522,0.999995,0.000258,-0.003144,0.010190,0.002834,0.010767,-0.003722,78.484144,0.010937,
1590,1850,-0.606370,-1.410940,0.999997,0.000224,-0.002834,0.008453,0.000897,0.008524,-0.002905,85.486717,0.008667,
770,850,3.015671,-11.904579,0.999996,0.000231,-0.005290,0.010739,0.001220,0.010831,-0.005382,85.673349,0.010831,
1030,480,0.590505,-16.726315,0.999997,0.000196,-0.003745,0.008446,-0.001068,0.008539,-0.003838,-85.032584,0.008553,
1510,570,-1.027325,-15.621637,0.999997,0.000188,-0.005166,0.009868,0.001301,0.009979,-0.005278,85.090650,0.009985,
900,440,1.074463,-16.692941,0.999997,0.000226,-0.004371,0.009442,-0.000548,0.009464,-0.004393,-87.730090,0.009472,
740,30,0.062635,-20.076249,0.999998,0.000000,-0.000157,0.007762,0.002910,0.008716,-0.001111,71.844524,0.009489,
1120,640,0.307977,-15.778256,0.999996,0.000237,-0.003654,0.007135,-0.002358,0.007628,-0.004147,-78.196288,0.007637,
1720,440,-1.815732,-16.206772,0.999996,0.000243,-0.004957,0.010094,0.000221,0.010097,-0.004960,89.158885,0.010098,
780,270,1.134756,-17.999264,0.999997,0.000186,-0.004142,0.009510,0.000593,0.009536,-0.004167,87.517304,0.009561,
1760,1200,-3.372310,-8.389328,0.999995,0.000265,-0.004922,0.010048,0.000996,0.010114,-0.004988,86.209799,0.010114,
1300,860,-0.626904,-14.903435,0.999993,0.000284,-0.005094,0.002827,0.000775,0.002902,-0.005169,84.462705,0.005182,
640,1790,1.743166,-2.512268,0.999995,0.000261,-0.004809,0.010177,-0.000353,0.010185,-0.004818,-88.652758,0.010190,
1600,1850,-0.630995,-1.423387,0.999997,0.000229,-0.002837,0.008554,0.000969,0.008635,-0.002919,85.172813,0.008785,
1420,1860,-0.238431,-1.168227,0.999998,0.000196,-0.001686,0.007182,0.000338,0.007195,-0.001699,87.821201,0.007522,
1320,1740,-0.170029,-1.957234,0.999998,0.000157,-0.002094,0.007188,-0.000162,0.007190,-0.002097,-89.000867,0.007396,
730,190,0.984955,-18.675833,0.999997,0.000190,-0.003643,0.009666,0.001468,0.009826,-0.003803,83.780718,0.009909,
1230,1780,0.002066,-1.643959,0.999998,0.000163,-0.001745,0.006912,0.000004,0.006912,-0.001745,89.972468,0.007189,
1860,630,-3.093455,-13.816851,0.999996,0.000265,-0.005037,0.010150,-0.000119,0.010150,-0.005038,-89.551933,0.010151,
960,850,1.848238,-12.406127,0.999994,0.000320,-0.007358,0.013298,0.000258,0.013301,-0.007361,89.285156,0.013327,
660,290,1.747850,-17.458214,0.999997,0.000218,-0.004745,0.010128,0.000324,0.010135,-0.004752,88.751682,0.010142,
1410,1140,-1.653929,-7.794028,0.999984,0.000455,-0.006248,0.013889,-0.004154,0.014713,-0.007072,-78.789282,0.014716,
1470,280,-0.468585,-18.297799,0.999997,0.000204,-0.002350,0.007991,-0.000242,0.007997,-0.002356,-88.659449,0.008219,
860,180,0.555313,-18.947807,0.999997,0.000218,-0.002456,0.008249,0.001096,0.008360,-0.002567,84.213146,0.008565,
1460,1880,-0.268927,-1.052193,0.999998,0.000181,-0.001335,0.007207,0.000597,0.007248,-0.001376,86.020089,0.007699,
640,1160,3.791498,-8.861883,0.999995,0.000257,-0.004534,0.009248,-0.000552,0.009270,-0.004556,-87.710579,0.009270,
1320,530,-0.236144,-16.632265,0.999996,0.000226,-0.002939,0.007139,0.001052,0.007248,-0.003048,84.102891,0.007278,
1330,80,-0.037201,-19.789694,0.999998,0.000142,-0.000468,0.006217,-0.000256,0.006227,-0.000478,-87.807369,0.006931,
1250,1580,-0.046560,-3.055922,0.999998,0.000157,-0.002473,0.006878,-0.000277,0.006886,-0.002482,-88.305052,0.006975,
700,490,2.170648,-15.558396,0.999997,0.000201,-0.005112,0.010237,-0.000183,0.010239,-0.005114,-89.315771,0.010239,
980,1400,1.006853,-5.274412,0.999995,0.000250,-0.006001,0.010419,0.001828,0.010620,-0.006202,83.722054,0.010670,
920,1370,1.452960,-5.910326,0.999994,0.000348,-0.006579,0.011302,0.000906,0.011348,-0.006625,87.105790,0.011401,
1380,660,-0.461300,-15.429743,0.999997,0.000205,-0.004577,0.008219,0.002766,0.008792,-0.005149,78.310709,0.008835,
1870,1970,-0.826314,-0.850019,0.999995,0.000233,-0.004541,0.011663,0.002734,0.012111,-0.004990,80.676841,0.012174,
1070,1700,0.362695,-2.335025,0.999996,0.000226,-0.002573,0.007726,0.000295,0.007734,-0.002582,88.359051,0.007875,
1220,1360,0.022691,-4.368140,0.999997,0.000191,-0.002050,0.004386,0.000513,0.004427,-0.002091,85.470457,0.004429,
1070,1640,0.412142,-2.804975,0.999996,0.000241,-0.003125,0.007865,0.000735,0.007914,-0.003174,86.188649,0.007966,
1760,430,-1.989853,-16.180601,0.999997,0.000177,-0.004997,0.010129,0.000169,0.010131,-0.004999,89.361390,0.010131,
1400,210,-0.221903,-18.899254,0.999998,0.000190,-0.001580,0.007102,-0.000271,0.007110,-0.001588,-88.217015,0.007464,
1450,1080,-2.330465,-9.208172,0.999992,0.000335,-0.005833,0.015822,-0.000711,0.015846,-0.005857,-88.121604,0.016024,
1680,880,-3.058120,-11.601115,0.999996,0.000253,-0.005044,0.010629,-0.001225,0.010724,-0.005139,-85.558637,0.010727,
1900,390,-2.564256,-16.117862,0.999997,0.000000,-0.004938,0.009730,0.000154,0.009731,-0.004939,89.400129,0.009732,
1510,1240,-1.705404,-7.329676,0.999995,0.000267,-0.007482,0.012918,-0.000130,0.012919,-0.007483,-89.634766,0.012973,
900,420,1.035048,-16.881377,0.999997,0.000207,-0.004298,0.009372,-0.000478,0.009388,-0.004314,-87.997765,0.009399,
1440,1770,-0.408832,-1.864240,0.999996,0.000239,-0.002419,0.007780,0.000085,0.007781,-0.002420,89.523071,0.007964,
710,1320,2.905628,-7.134437,0.999995,0.000263,-0.005427,0.010470,-0.000702,0.010501,-0.005458,-87.474764,0.010504,
730,2020,0.097508,-0.123712,0.999997,0.000000,-0.000484,0.007866,-0.002864,0.008754,-0.001372,-72.774159,0.009417,
1110,1870,0.133877,-1.062793,0.999998,0.000185,-0.001212,0.006803,-0.000211,0.006808,-0.001217,-88.491718,0.007262,
1390,480,-0.442976,-16.839984,0.999996,0.000245,-0.003457,0.007990,0.001115,0.008098,-0.003564,84.488324,0.008117,
810,990,3.224904,-10.465298,0.999997,0.000194,-0.004095,0.010215,0.000472,0.010231,-0.004111,88.111321,0.010296,
1420,1840,-0.266740,-1.312784,0.999998,0.000190,-0.001864,0.007247,0.000235,0.007253,-0.001870,88.521107,0.007531,
1410,1130,-1.741039,-7.933306,0.999980,0.000532,-0.006219,0.014566,-0.004627,0.015550,-0.007203,-77.999150,0.015564,
1720,420,-1.762854,-16.408798,0.999995,0.000259,-0.004945,0.010120,0.000208,0.010123,-0.004947,89.207595,0.010124,
820,1690,1.250466,-2.970136,0.999996,0.000203,-0.004382,0.009614,-0.000013,0.009614,-0.004382,-89.948570,0.009627,
980,150,0.246161,-19.279196,0.999997,0.000201,-0.001354,0.007242,0.000744,0.007306,-0.001418,85.092551,0.007748,
680,1680,1.938784,-3.495337,0.999997,0.000228,-0.004880,0.010088,0.000020,0.010088,-0.004880,89.924046,0.010090,
1760,1220,-3.307983,-8.189997,0.999996,0.000242,-0.005051,0.010127,0.001010,0.010194,-0.005118,86.210883,0.010194,
1590,840,-2.382687,-12.209308,0.999994,0.000261,-0.006254,0.011986,-0.001155,0.012059,-0.006327,-86.391489,0.012064,
1800,1920,-0.936470,-1.108604,0.999996,0.000244,-0.003553,0.010126,0.002409,0.010537,-0.003964,80.299247,0.010645,
1600,1830,-0.694807,-1.593431,0.999997,0.000251,-0.003052,0.008595,0.000802,0.008650,-0.003107,86.078497,0.008763,
1320,1720,-0.177334,-2.099027,0.999998,0.000192,-0.002206,0.007183,-0.000225,0.007188,-0.002211,-88.629446,0.007363,
1300,850,-0.511501,-14.931028,0.999994,0.000257,-0.004883,0.003173,0.001094,0.003319,-0.005029,82.405818,0.005114,
730,170,0.876789,-18.868068,0.999997,0.000203,-0.003454,0.009551,0.001732,0.009777,-0.003681,82.540726,0.009876,
1320,510,-0.232835,-16.776892,0.999996,0.000216,-0.002905,0.007248,0.000935,0.007333,-0.002991,84.780355,0.007375,
1460,1860,-0.298225,-1.196782,0.999997,0.000189,-0.001535,0.007412,0.000581,0.007450,-0.001572,86.298561,0.007853,
1310,80,-0.027540,-19.792546,0.999999,0.000147,-0.000365,0.006189,-0.000221,0.006197,-0.000373,-88.067807,0.006951,
700,470,2.116309,-15.761257,0.999998,0.000189,-0.005046,0.010176,-0.000186,0.010179,-0.005048,-89.301805,0.010179,
1600,120,-0.345407,-19.428642,0.999997,0.000209,-0.001658,0.007791,-0.001454,0.008009,-0.001876,-81.448950,0.008378,
640,1140,3.834513,-9.044371,0.999995,0.000279,-0.004490,0.009233,-0.000575,0.009257,-0.004514,-87.606351,0.009258,
980,1380,1.041779,-5.489554,0.999995,0.000279,-0.006253,0.010749,0.001858,0.010950,-0.006454,83.834728,0.011008,
860,160,0.492556,-19.107786,0.999997,0.000240,-0.002246,0.008172,0.001289,0.008329,-0.002403,83.049976,0.008574,
1370,1780,-0.241463,-1.709430,0.999998,0.000181,-0.001801,0.007311,0.000087,0.007312,-0.001802,89.449981,0.007619,
1880,1970,-0.872537,-0.886664,0.999993,0.000302,-0.004476,0.011987,0.002859,0.012470,-0.004958,80.422856,0.012556,
1380,640,-0.451541,-15.596424,0.999996,0.000229,-0.004361,0.008095,0.002526,0.008588,-0.004854,78.960449,0.008612,
1050,280,0.337269,-18.369896,0.999997,0.000217,-0.002359,0.007604,-0.000020,0.007604,-0.002359,-89.885183,0.007784,
750,800,2.933031,-12.412648,0.999996,0.000258,-0.005469,0.010680,0.001037,0.010746,-0.005535,86.340267,0.010748,
1890,1350,-3.496524,-7.194174,0.999994,0.000267,-0.004951,0.009857,0.000176,0.009859,-0.004953,89.319669,0.009859,
600,1180,3.920634,-8.741670,0.999996,0.000218,-0.004391,0.008993,-0.000348,0.009002,-0.004400,-88.510213,0.009002,
1740,430,-1.889829,-16.243647,0.999996,0.000276,-0.004990,0.010121,0.000194,0.010123,-0.004993,89.264626,0.010124,
1510,550,-1.001712,-15.818606,0.999997,0.000203,-0.004917,0.009694,0.001205,0.009793,-0.005015,85.315185,0.009794,
770,870,3.089036,-11.693921,0.999996,0.000233,-0.005144,0.010548,0.001184,0.010637,-0.005233,85.710672,0.010637,
1900,380,-2.533645,-16.217276,0.999997,0.000000,-0.004974,0.009792,0.000113,0.009793,-0.004975,89.563188,0.009794,
1670,80,-0.279132,-19.707740,0.999997,0.000208,-0.001447,0.007740,-0.002025,0.008166,-0.001874,-78.104654,0.008555,
1780,1650,-2.014402,-3.790761,0.999996,0.000240,-0.004958,0.010127,-0.000150,0.010128,-0.004959,-89.430266,0.010129,
900,400,0.997524,-17.067359,0.999997,0.000199,-0.004183,0.009254,-0.000385,0.009265,-0.004194,-88.362124,0.009279,
1790,1800,-1.543367,-2.304733,0.999998,0.000222,-0.004709,0.010131,0.000663,0.010161,-0.004739,87.445569,0.010168,
1220,1380,0.024138,-4.278387,0.999997,0.000183,-0.002140,0.004790,0.000457,0.004820,-0.002170,86.243727,0.004828,
730,30,0.064099,-20.072167,0.999997,0.000000,-0.000575,0.007819,0.002944,0.008748,-0.001505,72.476418,0.009355,
930,1640,0.900696,-3.143988,0.999995,0.000253,-0.003950,0.009077,0.000497,0.009096,-0.003969,87.819686,0.009121,
1460,1030,-2.522102,-10.042246,0.999993,0.000347,-0.005150,0.015513,-0.000044,0.015513,-0.005151,-89.878494,0.015802,
1810,1240,-3.486392,-8.071600,0.999996,0.000244,-0.004895,0.009778,0.000755,0.009816,-0.004934,87.063618,0.009817,
1380,210,-0.196276,-18.909746,0.999997,0.000192,-0.001331,0.007032,-0.000295,0.007043,-0.001341,-87.981912,0.007479,
1760,1240,-3.235486,-7.983005,0.999996,0.000248,-0.005146,0.010270,0.001021,0.010338,-0.005213,86.229109,0.010338,
1230,1580,0.003210,-3.047607,0.999998,0.000176,-0.002539,0.006857,0.000031,0.006857,-0.002539,89.812604,0.006934,
630,1320,3.319275,-7.327746,0.999997,0.000216,-0.004978,0.009954,-0.000480,0.009970,-0.004993,-88.161686,0.009970,
1420,1820,-0.292935,-1.460065,0.999997,0.000192,-0.002056,0.007426,0.000166,0.007429,-0.002059,88.996867,0.007671,
1680,860,-2.986829,-11.814937,0.999995,0.000272,-0.005238,0.010794,-0.001252,0.010891,-0.005335,-85.559986,0.010892,
1460,1840,-0.339957,-1.350431,0.999997,0.000198,-0.001738,0.007492,0.000495,0.007519,-0.001765,86.941355,0.007863,
810,970,3.195960,-10.670522,0.999996,0.000244,-0.004236,0.010370,0.000825,0.010416,-0.004282,86.777113,0.010471,
1130,310,0.192827,-18.226676,0.999998,0.000168,-0.002181,0.007252,-0.000209,0.007257,-0.002186,-88.733788,0.007445,
680,1660,2.001806,-3.698449,0.999996,0.000222,-0.004917,0.010117,0.000102,0.010117,-0.004917,89.610148,0.010119,
1570,840,-2.255849,-12.262025,0.999996,0.000214,-0.006516,0.012278,-0.001054,0.012337,-0.006575,-86.798819,0.012346,
1410,1120,-1.825046,-8.087912,0.999984,0.000489,-0.006355,0.015412,-0.005100,0.016547,-0.007491,-77.446359,0.016572,
860,140,0.414432,-19.275299,0.999997,0.000217,-0.001945,0.007932,0.001356,0.008115,-0.002128,82.320711,0.008415,
1810,210,-1.421461,-18.256478,0.999994,0.000274,-0.004516,0.010258,-0.001013,0.010327,-0.004585,-86.096604,0.010349,
1600,630,-1.660649,-14.627856,0.999994,0.000289,-0.005992,0.010913,0.000526,0.010929,-0.006008,88.219203,0.010947,
1760,1750,-1.597634,-2.714814,0.999997,0.000235,-0.004843,0.010027,0.000207,0.010030,-0.004846,89.203934,0.010032,
1450,280,-0.422113,-18.320571,0.999996,0.000241,-0.002333,0.007872,-0.000164,0.007875,-0.002335,-89.081119,0.008089,
1320,630,-0.229435,-15.945742,0.999996,0.000235,-0.003129,0.006599,0.001842,0.006936,-0.003466,79.629555,0.006936,
640,1120,3.878361,-9.232379,0.999996,0.000242,-0.004458,0.009283,-0.000626,0.009311,-0.004487,-87.397232,0.009314,
1890,1740,-2.262646,-3.268515,0.999995,0.000250,-0.004852,0.009822,-0.000070,0.009823,-0.004852,-89.728167,0.009823,
600,1200,3.863984,-8.555291,0.999997,0.000199,-0.004501,0.009309,-0.000472,0.009325,-0.004518,-88.044109,0.009327,
1380,620,-0.445316,-15.763954,0.999995,0.000252,-0.004167,0.008052,0.002292,0.008468,-0.004583,79.718675,0.008478,
1390,460,-0.431965,-17.001465,0.999996,0.000253,-0.003366,0.007937,0.000992,0.008024,-0.003452,85.023632,0.008050,
900,620,1.416598,-14.885275,0.999995,0.000266,-0.005964,0.010665,-0.000933,0.010717,-0.006016,-86.800018,0.010744,
690,360,1.842558,-16.849069,0.999998,0.000151,-0.004824,0.010058,0.000015,0.010058,-0.004824,89.942405,0.010061,
1590,1830,-0.662357,-1.575548,0.999997,0.000233,-0.003088,0.008523,0.000744,0.008571,-0.003135,86.346271,0.008673,
1630,240,-0.834414,-18.386477,0.999998,0.000178,-0.003062,0.009095,-0.000928,0.009165,-0.003133,-85.661207,0.009317,
1720,400,-1.708041,-16.613401,0.999996,0.000245,-0.004872,0.010111,0.000138,0.010112,-0.004873,89.471699,0.010115,
1770,1800,-1.450091,-2.241564,0.999997,0.000247,-0.004681,0.010041,0.000593,0.010065,-0.004704,87.697818,0.010072,
1510,530,-0.974548,-16.008331,0.999996,0.000229,-0.004749,0.009525,0.001136,0.009615,-0.004839,85.477047,0.009615,
1220,1400,0.024551,-4.178228,0.999998,0.000166,-0.002241,0.005178,0.000399,0.005199,-0.002263,86.931637,0.005213,
720,2020,0.103727,-0.126153,0.999997,0.000000,-0.000906,0.007945,-0.002888,0.008803,-0.001765,-73.437330,0.009315,
700,610,2.528345,-14.312833,0.999995,0.000272,-0.005355,0.010425,0.000105,0.010426,-0.005356,89.618621,0.010427,
770,890,3.155834,-11.483548,0.999995,0.000264,-0.005006,0.010522,0.001228,0.010619,-0.005103,85.506024,0.010621,
1210,80,0.010493,-19.794154,0.999998,0.000185,-0.000399,0.006113,0.000053,0.006113,-0.000399,89.537167,0.006840,
1790,240,-1.477158,-18.008299,0.999995,0.000292,-0.004627,0.010112,-0.000777,0.010153,-0.004668,-86.991885,0.010164,
990,1380,0.981184,-5.433836,0.999994,0.000284,-0.006167,0.010614,0.002008,0.010851,-0.006404,83.270740,0.010909,
1500,1870,-0.349300,-1.153471,0.999996,0.000259,-0.002035,0.007580,0.000644,0.007623,-0.002078,86.184945,0.007882,
950,1700,0.732429,-2.572572,0.999996,0.000261,-0.003515,0.008602,0.000257,0.008607,-0.003521,88.786781,0.008655,
1760,1260,-3.162549,-7.774119,0.999996,0.000243,-0.005217,0.010268,0.000931,0.010324,-0.005273,86.570701,0.010325,
1460,1820,-0.369857,-1.498058,0.999997,0.000191,-0.001913,0.007671,0.000424,0.007690,-0.001932,87.473507,0.008001,
1590,1100,-2.890275,-9.291311,0.999996,0.000247,-0.004347,0.011028,0.001124,0.011110,-0.004429,85.839811,0.011186,
1210,1580,0.055083,-3.057654,0.999997,0.000200,-0.002487,0.006899,0.000307,0.006910,-0.002497,88.127400,0.006998,
1420,1800,-0.321324,-1.610057,0.999997,0.000190,-0.002210,0.007463,0.000062,0.007464,-0.002211,89.633551,0.007667,
860,120,0.351078,-19.426071,0.999997,0.000208,-0.001629,0.007785,0.001482,0.008013,-0.001857,81.261253,0.008389,
1680,840,-2.906773,-12.034737,0.999994,0.000284,-0.005448,0.010870,-0.001241,0.010964,-0.005542,-85.676255,0.010964,
1320,1700,-0.187338,-2.243996,0.999998,0.000188,-0.002321,0.007284,-0.000270,0.007291,-0.002329,-88.392330,0.007448,
1190,1300,0.088704,-4.682001,0.999998,0.000182,-0.002441,0.003644,0.002170,0.004339,-0.003136,72.251155,0.004480,
1660,1670,-1.383036,-3.218114,0.999996,0.000224,-0.004646,0.009811,-0.000126,0.009812,-0.004647,-89.499838,0.009816,
730,150,0.770333,-19.061654,0.999996,0.000217,-0.003150,0.009320,0.002022,0.009640,-0.003470,81.015918,0.009765,
810,950,3.147826,-10.879407,0.999995,0.000268,-0.004404,0.010426,0.000977,0.010490,-0.004468,86.246787,0.010529,
1800,1900,-1.062028,-1.306883,0.999996,0.000228,-0.003846,0.010255,0.002022,0.010539,-0.004130,81.998923,0.010621,
1600,650,-1.715487,-14.405451,0.999995,0.000273,-0.006132,0.011090,0.000457,0.011102,-0.006145,88.479458,0.011123,
1380,600,-0.444622,-15.923554,0.999996,0.000223,-0.003971,0.007997,0.002020,0.008329,-0.004302,80.671939,0.008330,
1120,210,0.144893,-18.929052,0.999997,0.000178,-0.001451,0.006885,0.000124,0.006887,-0.001453,89.149117,0.007260,
1020,1300,0.949924,-6.112023,0.999995,0.000277,-0.007183,0.011399,0.002538,0.011740,-0.007524,82.359531,0.011894,
1320,610,-0.233259,-16.078246,0.999997,0.000202,-0.003034,0.006738,0.001599,0.006993,-0.003289,80.937969,0.006997,
870,1860,0.579760,-1.328296,0.999996,0.000263,-0.002728,0.008418,-0.000994,0.008506,-0.002816,-84.941607,0.008666,
1570,1160,-2.535150,-8.567954,0.999993,0.000359,-0.005633,0.012010,0.001497,0.012136,-0.005759,85.182832,0.012141,
1280,200,-0.057609,-19.018874,0.999998,0.000176,-0.001108,0.006667,-0.000124,0.006669,-0.001110,-89.088796,0.007147,
1830,60,-0.406616,-19.762407,0.999993,0.000336,-0.003721,0.009896,-0.002968,0.010515,-0.004340,-78.222121,0.010568,
640,1540,2.552373,-5.051911,0.999995,0.000258,-0.005107,0.010149,0.000089,0.010149,-0.005107,89.665788,0.010149,
1130,350,0.216398,-17.935885,0.999997,0.000209,-0.002420,0.007283,-0.000351,0.007296,-0.002433,-87.928262,0.007429,
1840,1700,-2.155508,-3.482121,0.999995,0.000261,-0.004852,0.009988,-0.000094,0.009989,-0.004853,-89.638966,0.009990,
1540,150,-0.335219,-19.240802,0.999998,0.000179,-0.001440,0.007588,-0.001039,0.007706,-0.001558,-83.520401,0.008149,
1840,930,-3.944412,-10.955329,0.999997,0.000231,-0.004415,0.009137,-0.000551,0.009160,-0.004437,-87.677609,0.009161,
940,100,0.183926,-19.617681,0.999998,0.000171,-0.000952,0.007034,0.001050,0.007170,-0.001088,82.634314,0.007728,
1550,910,-2.505850,-11.449765,0.999994,0.000300,-0.005491,0.012187,-0.001477,0.012310,-0.005613,-85.257262,0.012326,
1590,1790,-0.780878,-1.925229,0.999997,0.000199,-0.003500,0.008778,0.000444,0.008794,-0.003516,87.930631,0.008853,
1430,70,-0.067856,-19.841384,0.999998,0.000165,-0.000479,0.006438,-0.000614,0.006493,-0.000533,-84.965789,0.007209,
1010,660,0.835937,-14.999530,0.999995,0.000276,-0.005781,0.010011,-0.002216,0.010316,-0.006086,-82.161402,0.010371,
600,1640,2.458865,-4.166368,0.999996,0.000251,-0.004959,0.010010,0.000089,0.010011,-0.004959,89.660008,0.010011,
680,610,2.633639,-14.251443,0.999996,0.000280,-0.005253,0.010348,0.000120,0.010349,-0.005254,89.560651,0.010349,
680,1640,2.058259,-3.902261,0.999997,0.000210,-0.004964,0.010119,0.000163,0.010121,-0.004965,89.382496,0.010122,
670,360,1.938512,-16.783898,0.999997,0.000185,-0.004903,0.010061,0.000017,0.010061,-0.004903,89.934200,0.010063,
1220,1840,0.016067,-1.234180,0.999998,0.000182,-0.001359,0.006701,0.000032,0.006701,-0.001359,89.773033,0.007085,
1510,510,-0.947169,-16.197944,0.999996,0.000219,-0.004638,0.009453,0.001090,0.009537,-0.004722,85.602929,0.009537,
1140,1830,0.123640,-1.321595,0.999998,0.000191,-0.001501,0.006900,-0.000048,0.006901,-0.001501,-89.673952,0.007259,
1760,1700,-1.764260,-3.218451,0.999996,0.000243,-0.004831,0.010051,0.000016,0.010051,-0.004831,89.939185,0.010053,
1630,1710,-1.142150,-2.748531,0.999996,0.000236,-0.003972,0.009515,0.000160,0.009517,-0.003974,89.318410,0.009560,
1720,910,-3.352996,-11.248480,0.999996,0.000260,-0.004754,0.010160,-0.001006,0.010228,-0.004822,-86.157115,0.010233,
780,30,0.065947,-20.074136,0.999998,0.000000,-0.000250,0.007212,0.002230,0.007828,-0.000865,74.569465,0.008583,
900,380,0.954987,-17.255104,0.999996,0.000216,-0.004068,0.009171,-0.000245,0.009176,-0.004072,-88.939135,0.009195,
1070,530,0.475152,-16.429490,0.999997,0.000204,-0.003618,0.008080,-0.001380,0.008241,-0.003779,-83.361561,0.008250,
1320,1680,-0.197330,-2.392920,0.999997,0.000190,-0.002448,0.007325,-0.000367,0.007339,-0.002462,-87.850035,0.007470,
770,1330,2.529195,-6.884424,0.999995,0.000264,-0.005821,0.010954,-0.000607,0.010976,-0.005843,-87.929528,0.010983,
930,1700,0.798748,-2.614072,0.999997,0.000220,-0.003269,0.008771,0.000055,0.008771,-0.003269,89.736368,0.008865,
1690,420,-1.616551,-16.505702,0.999995,0.000250,-0.004838,0.010023,0.000204,0.010026,-0.004840,89.215151,0.010028,
860,100,0.272183,-19.587538,0.999997,0.000216,-0.001336,0.007520,0.001489,0.007764,-0.001579,80.709406,0.008207,
1720,380,-1.648640,-16.817519,0.999996,0.000245,-0.004804,0.010001,0.000006,0.010001,-0.004804,89.976964,0.010003,
1470,310,-0.518734,-18.056915,0.999997,0.000211,-0.002604,0.008073,-0.000060,0.008073,-0.002605,-89.676236,0.008241,
1170,230,0.083157,-18.814698,0.999998,0.000179,-0.001286,0.006827,0.000102,0.006828,-0.001287,89.278750,0.007256,
1050,1960,0.089391,-0.477273,0.999998,0.000159,-0.000732,0.006530,-0.000494,0.006563,-0.000765,-86.125476,0.007178,
1890,500,-2.845395,-15.051093,0.999996,0.000223,-0.004980,0.010061,0.000026,0.010061,-0.004980,89.900552,0.010062,
1190,1280,0.099157,-4.749001,0.999998,0.000166,-0.002679,0.003235,0.002341,0.004050,-0.003494,70.815649,0.004391,
1100,1450,0.381787,-4.209580,0.999997,0.000192,-0.003742,0.007652,0.002001,0.007993,-0.004083,80.322977,0.007994,
1750,1720,-1.651604,-2.984296,0.999995,0.000267,-0.004805,0.009988,0.000052,0.009988,-0.004805,89.799800,0.009990,
810,930,3.098239,-11.089285,0.999996,0.000251,-0.004622,0.010538,0.001117,0.010620,-0.004704,85.809845,0.010643,
1680,820,-2.829406,-12.252756,0.999995,0.000275,-0.005570,0.010937,-0.001149,0.011016,-0.005650,-86.036121,0.011018,
610,1640,2.408600,-4.133234,0.999996,0.000249,-0.004987,0.010025,0.000119,0.010026,-0.004988,89.546649,0.010026,
1620,650,-1.839264,-14.332869,0.999996,0.000219,-0.006115,0.011058,0.000277,0.011062,-0.006119,89.075405,0.011083,
1800,1860,-1.300078,-1.719714,0.999995,0.000266,-0.004333,0.010199,0.001320,0.010318,-0.004452,84.850510,0.010350,
730,130,0.653352,-19.242601,0.999996,0.000229,-0.002846,0.009091,0.002302,0.009520,-0.003274,79.452419,0.009673,
1840,1680,-2.220760,-3.685584,0.999996,0.000248,-0.004946,0.010067,-0.000092,0.010067,-0.004946,-89.648326,0.010068,
1190,80,0.018322,-19.793298,0.999998,0.000187,-0.000337,0.006138,0.000131,0.006141,-0.000339,88.841122,0.006903,
940,80,0.142958,-19.753677,0.999998,0.000182,-0.000724,0.006863,0.001079,0.007014,-0.000875,82.059952,0.007644,
1390,760,-0.603070,-14.465421,0.999993,0.000297,-0.006383,0.009745,0.003789,0.010590,-0.007228,77.417066,0.010823,
1020,1320,0.899729,-5.885995,0.999995,0.000287,-0.006835,0.011051,0.002575,0.011414,-0.007198,81.969321,0.011544,
700,990,3.689258,-10.441169,0.999996,0.000223,-0.004336,0.009523,0.000275,0.009528,-0.004342,88.861934,0.009541,
930,1380,1.359140,-5.749693,0.999994,0.000317,-0.006477,0.011193,0.001095,0.011261,-0.006544,86.468809,0.011310,
1060,890,1.393752,-12.817588,0.999989,0.000420,-0.006558,0.012574,-0.003705,0.013267,-0.007251,-79.413946,0.013286,
1380,580,-0.440597,-16.077197,0.999997,0.000204,-0.003793,0.007923,0.001770,0.008184,-0.004054,81.591162,0.008184,
1590,1770,-0.839402,-2.106670,0.999998,0.000181,-0.003654,0.008903,0.000321,0.008912,-0.003663,88.537643,0.008959,
1300,210,-0.086126,-18.948769,0.999998,0.000199,-0.001211,0.006740,-0.000156,0.006743,-0.001214,-88.879970,0.007188,
1140,470,0.236909,-17.062218,0.999998,0.000193,-0.002834,0.007323,-0.000802,0.007386,-0.002896,-85.513283,0.007443,
880,1190,2.463240,-8.236889,0.999993,0.000307,-0.006020,0.011956,-0.001296,0.012049,-0.006113,-85.896196,0.012049,
1550,890,-2.395287,-11.699066,0.999995,0.000300,-0.005965,0.012367,-0.001379,0.012470,-0.006068,-85.722785,0.012471,
1010,340,0.519077,-17.835349,0.999996,0.000224,-0.002789,0.008068,-0.000161,0.008071,-0.002791,-89.152671,0.008198,
1760,370,-1.813912,-16.790375,0.999997,0.000226,-0.004855,0.010063,0.000040,0.010063,-0.004856,89.846630,0.010066,
1140,180,0.091839,-19.145543,0.999997,0.000193,-0.001214,0.006670,0.000132,0.006672,-0.001216,89.039940,0.007107,
1720,890,-3.289129,-11.456325,0.999997,0.000215,-0.004889,0.010346,-0.001177,0.010437,-0.004979,-85.607844,0.010441,
1080,1830,0.215026,-1.357140,0.999997,0.000210,-0.001464,0.007120,-0.000238,0.007127,-0.001470,-88.410822,0.007526,
1510,490,-0.919680,-16.390019,0.999996,0.000233,-0.004506,0.009328,0.001013,0.009402,-0.004579,85.835091,0.009403,
600,1620,2.518215,-4.367874,0.999996,0.000237,-0.004959,0.010019,0.000099,0.010020,-0.004959,89.621460,0.010020,
640,1560,2.492607,-4.846992,0.999995,0.000275,-0.005073,0.010165,0.000108,0.010165,-0.005073,89.592508,0.010165,
720,30,0.073020,-20.072062,0.999997,0.000000,-0.000859,0.007860,0.002976,0.008779,-0.001778,72.838934,0.009282,
1410,1680,-0.430373,-2.524994,0.999996,0.000224,-0.003016,0.008012,-0.000470,0.008032,-0.003036,-87.563779,0.008111,
1720,800,-2.970789,-12.402334,0.999996,0.000250,-0.005440,0.010608,-0.001019,0.010673,-0.005504,-86.382631,0.010674,
860,80,0.212354,-19.731244,0.999997,0.000191,-0.001018,0.007316,0.001601,0.007613,-0.001315,79.490798,0.008138,
1690,400,-1.562463,-16.706436,0.999995,0.000268,-0.004722,0.009966,0.000128,0.009967,-0.004723,89.500467,0.009972,
680,1620,2.118721,-4.103967,0.999997,0.000228,-0.005017,0.010128,0.000160,0.010130,-0.005019,89.393982,0.010130,
1170,210,0.078423,-18.947822,0.999998,0.000173,-0.001160,0.006729,0.000130,0.006731,-0.001162,89.055512,0.007196,
1570,1100,-2.804499,-9.272658,0.999995,0.000250,-0.004416,0.011334,0.001231,0.011430,-0.004511,85.555930,0.011514,
1470,330,-0.548307,-17.891629,0.999997,0.000210,-0.002767,0.008221,0.000067,0.008222,-0.002768,89.650411,0.008367,
1090,1960,0.068203,-0.471261,0.999998,0.000167,-0.000426,0.006398,-0.000401,0.006421,-0.000449,-86.651329,0.007170,
810,910,3.030184,-11.304045,0.999997,0.000229,-0.004868,0.010795,0.001325,0.010906,-0.004979,85.199903,0.010920,
960,1770,0.569350,-1.955265,0.999995,0.000258,-0.002999,0.008237,-0.000155,0.008239,-0.003001,-89.210549,0.008339,
1880,520,-2.855235,-14.878679,0.999997,0.000212,-0.005033,0.010098,0.000023,0.010098,-0.005033,89.914714,0.010098,
1020,1510,0.684737,-4.036023,0.999997,0.000214,-0.004345,0.008782,0.001479,0.008946,-0.004509,83.650903,0.008946,
1860,650,-3.160500,-13.614275,0.999996,0.000242,-0.005052,0.010105,-0.000188,0.010108,-0.005054,-89.290662,0.010108,
1680,800,-2.750031,-12.472981,0.999995,0.000277,-0.005708,0.011103,-0.001082,0.011172,-0.005777,-86.331171,0.011174,
1190,1580,0.103319,-3.072703,0.999998,0.000138,-0.002453,0.006952,0.000309,0.006962,-0.002463,88.117527,0.007060,
1800,1840,-1.405648,-1.927594,0.999995,0.000270,-0.004502,0.010193,0.001078,0.010272,-0.004580,85.826549,0.010292,
1390,440,-0.419276,-17.160659,0.999997,0.000200,-0.003237,0.007911,0.000877,0.007980,-0.003306,85.527925,0.008019,
730,120,0.594064,-19.331730,0.999995,0.000265,-0.002642,0.009081,0.002407,0.009556,-0.003117,78.837781,0.009746,
1820,490,-2.462932,-15.373240,0.999996,0.000259,-0.005088,0.010207,0.000130,0.010208,-0.005089,89.512220,0.010208,
1080,1450,0.456897,-4.291072,0.999996,0.000222,-0.004061,0.008117,0.002134,0.008480,-0.004424,80.343316,0.008483,
1840,1660,-2.282864,-3.889662,0.999996,0.000234,-0.005001,0.010061,-0.000129,0.010062,-0.005002,-89.510447,0.010062,
940,150,0.308674,-19.252075,0.999997,0.000201,-0.001564,0.007480,0.000948,0.007578,-0.001662,84.077642,0.007966,
940,500,0.995553,-16.248265,0.999997,0.000225,-0.004650,0.009507,-0.000961,0.009571,-0.004715,-86.133450,0.009572,
1620,1350,-2.012657,-6.446555,0.999995,0.000271,-0.006310,0.011388,0.000079,0.011388,-0.006310,89.745367,0.011410,
730,110,0.530150,-19.425905,0.999996,0.000244,-0.002444,0.008910,0.002416,0.009403,-0.002937,78.472660,0.009621,
1040,890,1.535738,-12.536304,0.999992,0.000362,-0.006987,0.013970,-0.002322,0.014225,-0.007241,-83.753702,0.014225,
1320,590,-0.233953,-16.211622,0.999997,0.000198,-0.002983,0.006873,0.001422,0.007074,-0.003184,81.949874,0.007086,
1680,970,-3.311701,-10.660302,0.999996,0.000240,-0.004338,0.010182,-0.000710,0.010217,-0.004373,-87.206130,0.010252,
1710,1160,-3.256023,-8.746756,0.999995,0.000268,-0.004892,0.010397,0.001197,0.010490,-0.004986,85.550859,0.010494,
1450,420,-0.597849,-17.186023,0.999997,0.000203,-0.003356,0.008354,0.000610,0.008386,-0.003388,87.027428,0.008437,
1550,870,-2.285997,-11.948668,0.999995,0.000287,-0.006316,0.012486,-0.001229,0.012566,-0.006396,-86.274928,0.012567,
960,210,0.413268,-18.809635,0.999998,0.000217,-0.002290,0.007734,0.000522,0.007762,-0.002317,87.027773,0.007969,
1640,470,-1.495836,-16.158952,0.999995,0.000274,-0.004943,0.009987,0.000416,0.009998,-0.004954,88.405121,0.009998,
1380,560,-0.436587,-16.231465,0.999997,0.000203,-0.003676,0.007863,0.001628,0.008088,-0.003901,82.121038,0.008090,
1020,1340,0.863639,-5.670773,0.999995,0.000293,-0.006498,0.010723,0.002547,0.011091,-0.006867,81.760851,0.011196,
1670,1760,-1.165802,-2.369386,0.999998,0.000204,-0.004279,0.009575,0.000355,0.009585,-0.004288,88.531896,0.009602,
1590,1750,-0.889656,-2.282045,0.999998,0.000168,-0.003789,0.008977,0.000151,0.008979,-0.003791,89.323402,0.009015,
640,1580,2.435119,-4.644627,0.999995,0.000259,-0.005069,0.010162,0.000130,0.010163,-0.005070,89.512299,0.010163,
710,30,0.086477,-20.068787,0.999998,0.000000,-0.000878,0.007956,0.003159,0.008970,-0.001891,72.212668,0.009457,
1510,470,-0.888847,-16.577642,0.999996,0.000237,-0.004268,0.009176,0.000859,0.009231,-0.004323,86.358268,0.009237,
860,60,0.133566,-19.882093,0.999998,0.000177,-0.000690,0.007114,0.001584,0.007424,-0.000999,78.950533,0.008058,
1720,820,-3.046376,-12.188458,0.999996,0.000258,-0.005356,0.010584,-0.001102,0.010659,-0.005431,-86.065306,0.010660,
600,1600,2.578074,-4.567705,0.999996,0.000230,-0.005002,0.010088,0.000112,0.010089,-0.005002,89.574943,0.010089,
1140,160,0.081136,-19.278322,0.999998,0.000165,-0.001036,0.006610,0.000165,0.006613,-0.001039,88.763551,0.007113,
1700,910,-3.257624,-11.264412,0.999997,0.000235,-0.004765,0.010360,-0.001099,0.010440,-0.004844,-85.865710,0.010449,
1010,1700,0.536142,-2.443054,0.999997,0.000193,-0.002869,0.008111,0.000282,0.008118,-0.002876,88.531294,0.008232,
1420,1280,-0.842115,-6.141749,0.999994,0.000293,-0.007236,0.011282,-0.003109,0.011790,-0.007744,-80.719328,0.011982,
1280,180,-0.051633,-19.151794,0.999998,0.000162,-0.000955,0.006596,-0.000068,0.006597,-0.000956,-89.482556,0.007130,
770,1310,2.606953,-7.104748,0.999996,0.000242,-0.005801,0.010910,-0.000752,0.010944,-0.005835,-87.427911,0.010952,
760,550,2.025182,-15.129361,0.999996,0.000234,-0.005362,0.010392,-0.000214,0.010395,-0.005364,-89.222622,0.010396,
1800,1820,-1.501312,-2.130555,0.999996,0.000269,-0.004623,0.010146,0.000805,0.010190,-0.004666,86.888965,0.010202,
1630,1690,-1.192745,-2.939091,0.999997,0.000243,-0.004118,0.009503,0.000083,0.009503,-0.004119,89.651684,0.009531,
1380,1770,-0.270336,-1.793150,0.999998,0.000199,-0.001882,0.007409,0.000083,0.007410,-0.001883,89.485293,0.007702,
810,890,2.956277,-11.523451,0.999997,0.000263,-0.005095,0.010841,0.001292,0.010946,-0.005199,85.393708,0.010950,
1840,1640,-2.342862,-4.090488,0.999996,0.000236,-0.004992,0.010022,-0.000130,0.010023,-0.004993,-89.505264,0.010023,
1470,350,-0.577416,-17.728143,0.999997,0.000209,-0.002940,0.008191,0.000212,0.008195,-0.002944,88.909649,0.008302,
1680,780,-2.667540,-12.698878,0.999995,0.000280,-0.005807,0.011048,-0.000960,0.011102,-0.005862,-86.750124,0.011108,
1170,190,0.066416,-19.084931,0.999998,0.000174,-0.000978,0.006659,0.000135,0.006661,-0.000980,88.988436,0.007193,
1210,1960,0.010388,-0.458209,0.999998,0.000182,-0.000529,0.006206,-0.000050,0.006206,-0.000529,-89.578681,0.006881,
1880,1100,-4.160511,-9.468891,0.999994,0.000270,-0.004160,0.008416,0.000028,0.008416,-0.004160,89.873878,0.008417,
1550,850,-2.175607,-12.200395,0.999993,0.000310,-0.006649,0.012513,-0.000973,0.012562,-0.006698,-87.099770,0.012572,
1110,820,0.548630,-14.341928,0.999990,0.000371,-0.005978,0.008132,-0.004458,0.009423,-0.007268,-73.857119,0.009874,
1020,1360,0.824582,-5.458400,0.999995,0.000290,-0.006170,0.010333,0.002514,0.010707,-0.006545,81.528381,0.010795,
1120,470,0.291897,-17.025819,0.999997,0.000190,-0.002826,0.007430,-0.000757,0.007486,-0.002882,-85.798741,0.007552,
940,520,1.022982,-16.056810,0.999997,0.000215,-0.004739,0.009539,-0.001016,0.009611,-0.004810,-85.951928,0.009611,
1580,630,-1.540465,-14.706384,0.999995,0.000263,-0.006035,0.010858,0.000732,0.010890,-0.006067,87.523279,0.010914,
1670,420,-1.520817,-16.565578,0.999995,0.000269,-0.004769,0.009931,0.000209,0.009934,-0.004772,89.183735,0.009937,
1070,1230,0.842440,-6.418212,0.999994,0.000306,-0.007289,0.011197,0.003581,0.011866,-0.007959,79.410277,0.012095,
900,340,0.866853,-17.625197,0.999997,0.000211,-0.003753,0.009013,-0.000058,0.009013,-0.003753,-89.741572,0.009055,
610,180,1.460999,-18.384951,0.999995,0.000265,-0.004875,0.010257,0.000692,0.010288,-0.004906,87.386643,0.010292,
730,90,0.416013,-19.596662,0.999995,0.000248,-0.002115,0.008259,0.002383,0.008780,-0.002636,77.663676,0.009010,
800,1190,2.916103,-8.376959,0.999996,0.000239,-0.005288,0.010988,-0.001291,0.011090,-0.005390,-85.494287,0.011091,
1390,400,-0.390654,-17.480073,0.999997,0.000176,-0.002900,0.007820,0.000575,0.007851,-0.002931,86.939781,0.007934,
1620,1330,-2.084555,-6.676499,0.999994,0.000287,-0.006370,0.011500,0.000254,0.011504,-0.006374,89.185823,0.011526,
640,1600,2.376305,-4.440398,0.999995,0.000243,-0.005064,0.010151,0.000128,0.010152,-0.005065,89.517206,0.010152,
1860,570,-2.904073,-14.429135,0.999997,0.000223,-0.005077,0.010195,-0.000011,0.010195,-0.005077,-89.959811,0.010195,
1510,450,-0.862599,-16.759693,0.999997,0.000207,-0.004036,0.009062,0.000698,0.009099,-0.004073,86.958028,0.009116,
1560,1530,-1.212695,-4.284590,0.999996,0.000251,-0.005105,0.009971,-0.000885,0.010023,-0.005156,-86.653090,0.010024,
710,80,0.415479,-19.649750,0.999995,0.000258,-0.002517,0.008545,0.002647,0.009145,-0.003117,77.213400,0.009299,
1810,1800,-1.637704,-2.365706,0.999997,0.000269,-0.004706,0.010194,0.000587,0.010217,-0.004729,87.748558,0.010227,
1590,1730,-0.941534,-2.469852,0.999997,0.000186,-0.003871,0.009268,0.000074,0.009268,-0.003872,89.678082,0.009310,
1380,540,-0.432339,-16.391747,0.999996,0.000211,-0.003599,0.007896,0.001508,0.008091,-0.003794,82.648523,0.008096,
1280,160,-0.045733,-19.283980,0.999998,0.000155,-0.000847,0.006561,-0.000110,0.006563,-0.000848,-89.148094,0.007139,
1280,1430,-0.114912,-4.061782,0.999995,0.000276,-0.002644,0.005944,-0.001146,0.006095,-0.002794,-82.529109,0.006102,
680,1600,2.174609,-4.308631,0.999995,0.000266,-0.005062,0.010164,0.000161,0.010165,-0.005064,89.393209,0.010165,
1660,970,-3.225123,-10.668086,0.999997,0.000192,-0.004235,0.010334,-0.000795,0.010377,-0.004278,-86.884622,0.010430,
600,1580,2.637161,-4.772931,0.999996,0.000239,-0.005048,0.010143,0.000089,0.010143,-0.005048,89.664378,0.010143,
700,2020,0.130377,-0.132757,0.999998,0.000000,-0.000931,0.008038,-0.003060,0.008983,-0.001875,-72.847202,0.009477,
1140,140,0.068097,-19.409404,0.999998,0.000146,-0.000881,0.006501,0.000174,0.006505,-0.000885,88.650214,0.007056,
1450,440,-0.618983,-17.017624,0.999996,0.000243,-0.003584,0.008444,0.000798,0.008496,-0.003637,86.220790,0.008526,
1380,1450,-0.444977,-4.279675,0.999995,0.000262,-0.004010,0.008028,-0.002083,0.008379,-0.004360,-80.455856,0.008381,
850,1990,0.156115,-0.319173,0.999997,0.000179,-0.000665,0.007264,-0.001694,0.007611,-0.001012,-78.429532,0.008267,
1720,840,-3.120462,-11.975491,0.999995,0.000264,-0.005231,0.010490,-0.001137,0.010572,-0.005313,-85.884971,0.010572,
1460,210,-0.329582,-18.848798,0.999997,0.000222,-0.001675,0.007479,-0.000517,0.007508,-0.001704,-86.776637,0.007873,
1840,1620,-2.403853,-4.290504,0.999996,0.000274,-0.004994,0.010084,-0.000132,0.010085,-0.004995,-89.497125,0.010085,
1010,1680,0.560113,-2.608306,0.999996,0.000237,-0.003003,0.008275,0.000336,0.008285,-0.003013,88.295271,0.008387,
970,640,1.043646,-14.985812,0.999994,0.000269,-0.005868,0.010261,-0.001704,0.010439,-0.006046,-84.034436,0.010482,
1360,1770,-0.234206,-1.777740,0.999998,0.000196,-0.001935,0.007310,0.000021,0.007310,-0.001935,89.872461,0.007575,
810,870,2.882398,-11.740958,0.999996,0.000275,-0.005316,0.011047,0.001331,0.011155,-0.005424,85.379124,0.011156,
1470,370,-0.604166,-17.563370,0.999997,0.000223,-0.003132,0.008381,0.000335,0.008391,-0.003142,88.334479,0.008479,
770,1290,2.682027,-7.322476,0.999996,0.000244,-0.005757,0.010967,-0.000882,0.011014,-0.005803,-86.989334,0.011019,
1680,910,-3.161424,-11.281043,0.999996,0.000258,-0.004812,0.010566,-0.001201,0.010660,-0.004906,-85.560859,0.010671,
1430,1960,-0.101470,-0.481870,0.999998,0.000166,-0.000702,0.006583,0.000587,0.006630,-0.000749,85.426052,0.007262,
1870,1100,-4.118809,-9.459990,0.999995,0.000248,-0.004207,0.008544,0.000118,0.008545,-0.004208,89.471810,0.008545,
1170,170,0.063646,-19.214893,0.999998,0.000179,-0.000853,0.006591,0.000151,0.006594,-0.000856,88.836565,0.007171,
1450,980,-2.349776,-10.875222,0.999995,0.000353,-0.005774,0.015953,0.000666,0.015973,-0.005794,88.246611,0.016172,
1680,760,-2.588281,-12.919712,0.999995,0.000269,-0.005886,0.011022,-0.000813,0.011061,-0.005925,-87.254440,0.011071,
940,540,1.050677,-15.865471,0.999997,0.000224,-0.004898,0.009707,-0.001079,0.009787,-0.004978,-85.797246,0.009787,
1350,80,-0.048194,-19.786806,0.999998,0.000179,-0.000408,0.006276,-0.000327,0.006292,-0.000424,-87.208497,0.007033,
1800,1800,-1.591454,-2.335271,0.999997,0.000254,-0.004698,0.010170,0.000660,0.010199,-0.004727,87.464601,0.010208,
1550,830,-2.071434,-12.453477,0.999993,0.000303,-0.006863,0.012597,-0.000729,0.012624,-0.006890,-87.858068,0.012642,
730,70,0.302091,-19.758191,0.999994,0.000283,-0.001520,0.008116,0.002643,0.008793,-0.002198,75.628937,0.009153,
1390,560,-0.472818,-16.199185,0.999996,0.000214,-0.003779,0.008047,0.001617,0.008264,-0.003996,82.354872,0.008266,
1840,250,-1.758232,-17.733886,0.999996,0.000230,-0.004842,0.010077,-0.000216,0.010080,-0.004845,-89.170778,0.010083,
1020,1800,0.373318,-1.638469,0.999996,0.000242,-0.002151,0.007607,-0.000231,0.007613,-0.002156,-88.644947,0.007847,
900,320,0.824776,-17.802270,0.999997,0.000211,-0.003498,0.008884,0.000075,0.008884,-0.003498,89.654853,0.008951,
590,1380,3.311337,-6.838710,0.999996,0.000254,-0.005029,0.010064,-0.000232,0.010068,-0.005032,-89.119356,0.010068,
1070,1210,0.973094,-6.643591,0.999994,0.000293,-0.007320,0.011273,0.003373,0.011866,-0.007913,80.028155,0.012084,
1630,1670,-1.248853,-3.128950,0.999997,0.000252,-0.004339,0.009591,-0.000113,0.009592,-0.004340,-89.536226,0.009607,
750,1540,1.983606,-4.699265,0.999994,0.000275,-0.005209,0.010344,0.000241,0.010347,-0.005213,89.112689,0.010347,
1760,510,-2.212567,-15.360709,0.999996,0.000224,-0.005177,0.010282,0.000147,0.010284,-0.005179,89.455689,0.010284,
1860,550,-2.843654,-14.633829,0.999996,0.000242,-0.005055,0.010219,0.000019,0.010219,-0.005055,89.929290,0.010219,
1380,520,-0.425420,-16.548940,0.999997,0.000200,-0.003557,0.007922,0.001383,0.008087,-0.003721,83.225624,0.008095,
1060,1190,1.196114,-7.010318,0.999992,0.000305,-0.007230,0.012228,0.003158,0.012727,-0.007730,81.009146,0.012825,
1100,490,0.356065,-16.837455,0.999997,0.000219,-0.003169,0.007643,-0.001030,0.007740,-0.003267,-84.605617,0.007771,
1220,1450,0.026858,-3.900143,0.999998,0.000144,-0.002395,0.005902,0.000353,0.005917,-0.002410,87.565594,0.005950,
1380,770,-0.559300,-14.470736,0.999992,0.000328,-0.006280,0.009419,0.004059,0.010407,-0.007267,76.328472,0.010676,
1280,140,-0.037423,-19.414575,0.999998,0.000164,-0.000698,0.006441,-0.000108,0.006442,-0.000700,-89.135150,0.007070,
680,1580,2.232008,-4.513782,0.999995,0.000263,-0.005111,0.010204,0.000164,0.010206,-0.005113,89.384711,0.010206,
1890,840,-3.937984,-11.679333,0.999996,0.000230,-0.004471,0.009206,-0.000267,0.009211,-0.004476,-88.882148,0.009212,
1380,1430,-0.448749,-4.440547,0.999996,0.000252,-0.004248,0.008084,-0.002351,0.008517,-0.004681,-79.565356,0.008531,
700,30,0.094856,-20.067242,0.999997,0.000000,-0.000670,0.008093,0.003296,0.009195,-0.001771,71.523393,0.009757,
1590,1710,-0.990196,-2.656419,0.999997,0.000201,-0.004030,0.009212,-0.000059,0.009213,-0.004031,-89.745607,0.009237,
1830,1800,-1.731754,-2.437727,0.999997,0.000226,-0.004784,0.010164,0.000304,0.010171,-0.004790,88.835395,0.010176,
650,110,0.790143,-19.295952,0.999995,0.000267,-0.003353,0.010286,0.002687,0.010796,-0.003863,79.247778,0.010940,
1510,430,-0.835566,-16.938079,0.999997,0.000220,-0.003850,0.008900,0.000586,0.008926,-0.003877,87.372749,0.008952,
850,1970,0.239953,-0.470791,0.999996,0.000220,-0.000999,0.007421,-0.001662,0.007737,-0.001315,-79.230518,0.008279,
810,850,2.797520,-11.965924,0.999996,0.000270,-0.005542,0.011137,0.001288,0.011236,-0.005641,85.608946,0.011236,
1100,1770,0.239199,-1.779886,0.999998,0.000165,-0.001945,0.007357,-0.000024,0.007357,-0.001945,-89.852207,0.007625,
1480,210,-0.360747,-18.834798,0.999996,0.000221,-0.001907,0.007606,-0.000545,0.007638,-0.001938,-86.734309,0.007940,
600,1560,2.696085,-4.975771,0.999996,0.000231,-0.005076,0.010099,0.000080,0.010099,-0.005076,89.696867,0.010099,
1840,1600,-2.463191,-4.495318,0.999996,0.000277,-0.005046,0.010141,-0.000129,0.010142,-0.005047,-89.514830,0.010142,
1470,810,-1.369032,-13.157849,0.999992,0.000327,-0.007816,0.012849,0.001188,0.012917,-0.007884,86.720747,0.013022,
1660,910,-3.061570,-11.298790,0.999997,0.000207,-0.004878,0.010755,-0.001276,0.010859,-0.004981,-85.363197,0.010871,
1720,860,-3.192022,-11.767549,0.999995,0.000274,-0.005083,0.010330,-0.001103,0.010408,-0.005162,-85.927449,0.010409,
1450,340,-0.509238,-17.839883,0.999997,0.000207,-0.002789,0.008008,0.000200,0.008012,-0.002793,88.941268,0.008134,
940,560,1.079373,-15.668570,0.999996,0.000254,-0.005171,0.009958,-0.001180,0.010049,-0.005262,-85.565927,0.010053,
990,1700,0.593113,-2.478849,0.999996,0.000234,-0.003021,0.008299,0.000274,0.008306,-0.003028,88.614719,0.008407,
890,580,1.386740,-15.265238,0.999995,0.000292,-0.005601,0.010432,-0.000857,0.010477,-0.005647,-86.949273,0.010488,
720,1980,0.354834,-0.453514,0.999995,0.000246,-0.002068,0.008360,-0.002634,0.008988,-0.002696,-76.599446,0.009225,
900,1130,2.644418,-8.912780,0.999996,0.000234,-0.005069,0.011784,-0.001455,0.011909,-0.005194,-85.100869,0.011941,
1170,150,0.049002,-19.349424,0.999998,0.000159,-0.000713,0.006490,0.000171,0.006494,-0.000717,88.639747,0.007122,
1230,80,0.001039,-19.794074,0.999998,0.000154,-0.000413,0.006088,0.000003,0.006088,-0.000413,89.977398,0.006804,
1140,120,0.055918,-19.538118,0.999998,0.000169,-0.000687,0.006419,0.000217,0.006426,-0.000694,88.254686,0.007053,
1450,960,-2.249580,-11.188619,0.999982,0.000510,-0.005836,0.015784,0.000757,0.015810,-0.005862,87.997457,0.015985,
1410,1960,-0.086550,-0.477465,0.999997,0.000204,-0.000734,0.006521,0.000500,0.006555,-0.000768,86.073920,0.007167,
1680,740,-2.511749,-13.140970,0.999995,0.000281,-0.005932,0.011082,-0.000686,0.011110,-0.005959,-87.696020,0.011120,
1840,230,-1.668422,-17.934463,0.999996,0.000249,-0.004844,0.010077,-0.000348,0.010085,-0.004852,-88.665461,0.010087,
1800,1780,-1.677630,-2.540346,0.999997,0.000227,-0.004749,0.010136,0.000458,0.010150,-0.004763,88.237328,0.010156,
1550,810,-1.969472,-12.710661,0.999993,0.000314,-0.007009,0.012518,-0.000460,0.012528,-0.007019,-88.649782,0.012559,
1020,1780,0.399756,-1.787531,0.999997,0.000214,-0.002327,0.007761,-0.000135,0.007763,-0.002328,-89.236161,0.007967,
1390,540,-0.468147,-16.359156,0.999996,0.000228,-0.003639,0.008027,0.001440,0.008202,-0.003814,83.068179,0.008209,
1100,470,0.348339,-16.989972,0.999997,0.000218,-0.003012,0.007636,-0.000851,0.007704,-0.003080,-85.458628,0.007755,
940,750,1.518170,-13.581101,0.999994,0.000259,-0.007184,0.012110,-0.000753,0.012139,-0.007214,-87.767625,0.012211,
1060,1150,1.530745,-7.532722,0.999980,0.000490,-0.006035,0.012930,0.004415,0.013908,-0.007013,77.516025,0.013908,
1610,1800,-0.822246,-1.876915,0.999996,0.000229,-0.003278,0.008867,0.000662,0.008903,-0.003314,86.887928,0.009000,
1380,500,-0.417069,-16.708571,0.999996,0.000205,-0.003475,0.007893,0.001289,0.008037,-0.003620,83.612797,0.008050,
1880,840,-3.893135,-11.704630,0.999997,0.000203,-0.004504,0.009260,-0.000314,0.009267,-0.004512,-88.692458,0.009268,
1160,1450,0.184093,-4.001354,0.999998,0.000174,-0.002897,0.006463,0.001419,0.006674,-0.003107,81.567146,0.006679,
830,1380,1.994407,-6.150726,0.999993,0.000337,-0.006141,0.011105,0.000038,0.011105,-0.006141,89.873995,0.011125,
1510,410,-0.807835,-17.115298,0.999997,0.000233,-0.003760,0.008827,0.000497,0.008847,-0.003780,87.741638,0.008878,
650,90,0.627328,-19.501619,0.999993,0.000286,-0.002829,0.010183,0.003356,0.010997,-0.003643,76.354623,0.011204,
850,1950,0.303046,-0.616725,0.999997,0.000215,-0.001340,0.007668,-0.001582,0.007938,-0.001610,-80.320615,0.008392,
690,2020,0.139339,-0.135771,0.999998,0.000000,-0.000508,0.008136,-0.003301,0.009253,-0.001624,-71.314089,0.009881,
1590,1690,-1.035425,-2.837106,0.999997,0.000215,-0.004147,0.009234,-0.000177,0.009236,-0.004149,-89.242446,0.009252,
600,1540,2.754346,-5.177853,0.999996,0.000235,-0.005071,0.010112,0.000063,0.010113,-0.005071,89.761606,0.010113,
810,830,2.716395,-12.190606,0.999995,0.000269,-0.005724,0.011175,0.001190,0.011258,-0.005808,85.990498,0.011260,
1080,1770,0.277048,-1.795840,0.999997,0.000195,-0.001936,0.007444,-0.000083,0.007445,-0.001937,-89.490127,0.007725,
1470,790,-1.276350,-13.415012,0.999993,0.000321,-0.007709,0.012554,0.001488,0.012663,-0.007818,85.822933,0.012779,
620,930,3.955836,-10.953110,0.999997,0.000194,-0.004367,0.009089,0.000545,0.009111,-0.004389,87.683389,0.009113,
1580,430,-1.128667,-16.737480,0.999996,0.000247,-0.004352,0.009484,0.000451,0.009499,-0.004367,88.135175,0.009509,
1720,1300,-2.798474,-7.272440,0.999995,0.000275,-0.005591,0.010725,0.000842,0.010768,-0.005634,87.053854,0.010772,
770,1270,2.760558,-7.543669,0.999995,0.000265,-0.005695,0.010977,-0.001005,0.011037,-0.005755,-86.563360,0.011041,
1850,90,-0.781014,-19.345553,0.999996,0.000226,-0.004637,0.010906,-0.002361,0.011257,-0.004988,-81.549459,0.011281,
1680,720,-2.435863,-13.365391,0.999995,0.000279,-0.005991,0.011059,-0.000558,0.011077,-0.006009,-88.127680,0.011091,
1860,110,-1.003800,-19.086706,0.999996,0.000243,-0.004711,0.010704,-0.001782,0.010907,-0.004914,-83.489263,0.010925,
1130,840,0.560114,-14.496986,0.999991,0.000373,-0.004602,0.006059,-0.003828,0.007291,-0.005834,-72.157067,0.007716,
940,1000,2.748662,-10.405415,0.999996,0.000241,-0.003769,0.012209,0.000605,0.012232,-0.003792,87.833542,0.012523,
1840,1670,-2.252093,-3.787873,0.999995,0.000259,-0.004984,0.010088,-0.000118,0.010089,-0.004985,-89.549730,0.010090,
1690,380,-1.508903,-16.905588,0.999996,0.000218,-0.004602,0.009797,0.000045,0.009797,-0.004602,89.821667,0.009803,
1550,790,-1.876626,-12.958552,0.999993,0.000326,-0.007087,0.012378,-0.000200,0.012380,-0.007089,-89.411370,0.012423,
1800,1760,-1.753578,-2.743065,0.999997,0.000199,-0.004775,0.010095,0.000297,0.010101,-0.004780,88.855381,0.010106,
1260,1330,-0.055294,-4.520980,0.999997,0.000205,-0.002155,0.003940,-0.001317,0.004212,-0.002427,-78.315257,0.004228,
1020,1760,0.431197,-1.950556,0.999996,0.000223,-0.002473,0.007807,-0.000021,0.007807,-0.002473,-89.883444,0.007980,
910,80,0.158304,-19.748429,0.999999,0.000138,-0.000644,0.006976,0.001262,0.007180,-0.000848,80.835292,0.007847,
1090,400,0.344129,-17.506047,0.999997,0.000204,-0.002643,0.007624,-0.000447,0.007644,-0.002662,-87.510295,0.007760,
1070,1190,1.112623,-6.869431,0.999992,0.000327,-0.007000,0.011432,0.003586,0.012105,-0.007673,79.370345,0.012249,
1630,1650,-1.294900,-3.323065,0.999996,0.000261,-0.004546,0.009723,-0.000263,0.009728,-0.004551,-88.943539,0.009735,
1360,1490,-0.363513,-3.891435,0.999997,0.000203,-0.003568,0.007570,-0.001696,0.007823,-0.003820,-81.530538,0.007824,
1540,1430,-1.290497,-5.233011,0.999995,0.000250,-0.005931,0.010629,-0.001108,0.010702,-0.006005,-86.189356,0.010729,
690,680,2.814398,-13.551573,0.999997,0.000206,-0.005319,0.010424,0.000429,0.010436,-0.005331,88.440211,0.010437,
810,810,2.633070,-12.414660,0.999995,0.000285,-0.005876,0.011307,0.001080,0.011374,-0.005944,86.418152,0.011378,
920,750,1.660028,-13.484155,0.999993,0.000303,-0.007092,0.012138,-0.000384,0.012146,-0.007099,-88.857479,0.012204,
690,30,0.096501,-20.072510,0.999997,0.000000,-0.000235,0.008227,0.003527,0.009504,-0.001512,70.094595,0.010214,
1590,1670,-1.079624,-3.025807,0.999997,0.000208,-0.004190,0.009357,-0.000244,0.009361,-0.004194,-88.969404,0.009378,
1250,1840,-0.025613,-1.236872,0.999999,0.000142,-0.001308,0.006730,-0.000044,0.006730,-0.001308,-89.683349,0.007137,
720,1960,0.467539,-0.617081,0.999996,0.000250,-0.002717,0.008520,-0.002321,0.008981,-0.003177,-78.775166,0.009108,
1900,490,-2.863837,-15.119546,0.999995,0.000000,-0.004920,0.010084,0.000035,0.010084,-0.004920,89.866947,0.010085,
1110,800,0.473536,-14.507871,0.999993,0.000313,-0.005832,0.008197,-0.004565,0.009552,-0.007187,-73.471331,0.009949,
1140,100,0.042683,-19.666212,0.999998,0.000180,-0.000556,0.006327,0.000220,0.006334,-0.000563,88.170451,0.007012,
1220,1770,0.021246,-1.714924,0.999998,0.000193,-0.001793,0.006954,0.000050,0.006954,-0.001794,89.671976,0.007221,
1280,360,-0.103175,-17.900845,0.999998,0.000173,-0.002100,0.007070,0.000120,0.007071,-0.002102,89.252177,0.007262,
1700,1290,-2.723261,-7.338831,0.999997,0.000217,-0.005732,0.010901,0.000883,0.010947,-0.005779,86.969342,0.010953,
910,1640,0.983851,-3.202652,0.999997,0.000200,-0.004255,0.009289,0.000491,0.009307,-0.004272,87.925846,0.009317,
670,200,1.295152,-18.407012,0.999994,0.000277,-0.004386,0.010215,0.001270,0.010324,-0.004495,85.064170,0.010353,
1840,570,-2.802214,-14.490266,0.999997,0.000212,-0.005093,0.010205,-0.000012,0.010205,-0.005093,-89.954633,0.010205,
1840,110,-0.908501,-19.184616,0.999996,0.000204,-0.004696,0.010588,-0.001730,0.010781,-0.004890,-83.621591,0.010797,
1220,1820,0.017331,-1.369846,0.999998,0.000176,-0.001495,0.006811,0.000021,0.006811,-0.001495,89.858487,0.007159,
590,1640,2.506619,-4.197161,0.999995,0.000265,-0.005363,0.009982,0.000176,0.009984,-0.005365,89.342745,0.009993,
1020,1740,0.456033,-2.101186,0.999997,0.000223,-0.002624,0.007911,0.000071,0.007911,-0.002624,89.615748,0.008059,
1470,1160,-1.908026,-8.162072,0.999993,0.000353,-0.007067,0.013978,0.000111,0.013978,-0.007067,89.696715,0.013979,
880,1130,2.743368,-8.945257,0.999997,0.000226,-0.004918,0.011471,-0.001467,0.011601,-0.005048,-84.925149,0.011634,
900,300,0.778518,-17.977334,0.999998,0.000192,-0.003302,0.008756,0.000248,0.008761,-0.003307,88.819974,0.008848,
820,1270,2.465506,-7.434678,0.999996,0.000295,-0.006116,0.011430,-0.000883,0.011474,-0.006160,-87.126656,0.011485,
980,1360,1.080356,-5.710409,0.999996,0.000282,-0.006568,0.011021,0.001846,0.011213,-0.006759,84.071525,0.011292,
1760,1680,-1.828586,-3.420195,0.999996,0.000241,-0.004886,0.010116,-0.000046,0.010116,-0.004887,-89.824699,0.010118,
1380,480,-0.409031,-16.868607,0.999997,0.000214,-0.003376,0.007866,0.001129,0.007979,-0.003488,84.319289,0.008000,
1130,1960,0.046445,-0.464799,0.999998,0.000174,-0.000580,0.006320,-0.000221,0.006327,-0.000587,-88.163533,0.006991,
770,1250,2.842802,-7.766894,0.999995,0.000266,-0.005585,0.010860,-0.001056,0.010928,-0.005652,-86.341829,0.010930,
920,150,0.338557,-19.239744,0.999997,0.000206,-0.001471,0.007591,0.001079,0.007718,-0.001597,83.303562,0.008148,
1320,1660,-0.204329,-2.537321,0.999997,0.000195,-0.002548,0.007285,-0.000492,0.007309,-0.002572,-87.144779,0.007415,
1430,340,-0.452350,-17.877986,0.999995,0.000266,-0.002850,0.007852,0.000314,0.007862,-0.002859,88.319300,0.007959,
1820,1670,-2.152209,-3.719207,0.999996,0.000220,-0.004945,0.010108,-0.000115,0.010109,-0.004946,-89.561688,0.010109,
810,1230,2.695982,-7.915759,0.999995,0.000290,-0.005777,0.011211,-0.001172,0.011291,-0.005857,-86.072419,0.011294,
650,70,0.439495,-19.711597,0.999994,0.000276,-0.002180,0.009978,0.003687,0.011009,-0.003210,74.379791,0.011323,
1870,840,-3.847592,-11.730436,0.999997,0.000185,-0.004569,0.009323,-0.000388,0.009334,-0.004580,-88.399801,0.009335,
930,80,0.147380,-19.751429,0.999997,0.000211,-0.000661,0.006901,0.001151,0.007073,-0.000832,81.532372,0.007731,
1510,280,-0.578907,-18.235883,0.999996,0.000225,-0.002986,0.008305,-0.000191,0.008308,-0.002989,-89.028897,0.008416,
600,1910,1.286829,-1.461017,0.999996,0.000230,-0.004863,0.010377,-0.001044,0.010448,-0.004934,-86.097791,0.010453,
680,2020,0.138605,-0.135546,0.999998,0.000000,-0.000152,0.008251,-0.003578,0.009568,-0.001469,-69.789754,0.010305,
1510,390,-0.777349,-17.291833,0.999996,0.000231,-0.003703,0.008786,0.000432,0.008801,-0.003718,88.023433,0.008836,
860,220,0.690185,-18.606788,0.999997,0.000238,-0.002932,0.008576,0.000871,0.008641,-0.002997,85.695618,0.008775,
600,1520,2.812475,-5.381084,0.999997,0.000201,-0.005056,0.010178,0.000051,0.010178,-0.005057,89.807052,0.010179,
870,560,1.454114,-15.399450,0.999995,0.000247,-0.005488,0.010393,-0.000715,0.010425,-0.005520,-87.427064,0.010431,
1430,1470,-0.653354,-4.339243,0.999996,0.000233,-0.004524,0.008883,-0.001796,0.009120,-0.004761,-82.500905,0.009122,
1900,370,-2.503371,-16.315353,0.999997,0.000000,-0.004981,0.009817,0.000031,0.009817,-0.004981,89.880931,0.009818,
720,1940,0.594560,-0.797955,0.999996,0.000256,-0.003038,0.009090,-0.002312,0.009516,-0.003464,-79.566401,0.009633,
1680,940,-3.242306,-10.967937,0.999996,0.000257,-0.004525,0.010201,-0.000950,0.010262,-0.004586,-86.323277,0.010282,
680,1560,2.288746,-4.718156,0.999995,0.000255,-0.005148,0.010215,0.000160,0.010216,-0.005150,89.405133,0.010216,
620,50,0.374403,-19.808445,0.999996,0.000234,-0.004003,0.009637,0.003070,0.010296,-0.004661,77.884159,0.010312,
1070,1170,1.277616,-7.119487,0.999989,0.000366,-0.006207,0.011326,0.004153,0.012260,-0.007141,77.326942,0.012315,
690,660,2.746684,-13.761920,0.999997,0.000241,-0.005342,0.010440,0.000333,0.010447,-0.005349,88.793031,0.010448,
1390,600,-0.485699,-15.878013,0.999996,0.000240,-0.004176,0.008230,0.002113,0.008580,-0.004526,80.593796,0.008585,
1140,1770,0.159731,-1.743790,0.999997,0.000192,-0.001919,0.007132,0.000066,0.007133,-0.001920,89.583924,0.007382,
670,180,1.188117,-18.610218,0.999997,0.000222,-0.004162,0.010122,0.001579,0.010294,-0.004335,83.766324,0.010337,
770,620,2.173885,-14.419573,0.999995,0.000281,-0.005665,0.010696,-0.000035,0.010696,-0.005665,-89.877543,0.010703,
770,720,2.512961,-13.331576,0.999995,0.000292,-0.005830,0.010980,0.000594,0.011001,-0.005851,87.978438,0.011008,
1140,80,0.033021,-19.792051,0.999998,0.000160,-0.000412,0.006192,0.000240,0.006201,-0.000421,87.921572,0.006930,
1280,120,-0.032644,-19.542454,0.999998,0.000175,-0.000580,0.006361,-0.000148,0.006364,-0.000583,-88.782655,0.007036,
710,1640,1.912511,-3.805365,0.999997,0.000196,-0.004942,0.010098,0.000162,0.010100,-0.004944,89.381599,0.010101,
1170,570,0.158208,-16.422051,0.999998,0.000177,-0.002794,0.006635,-0.001047,0.006749,-0.002909,-83.739599,0.006771,
1590,1650,-1.120819,-3.214037,0.999997,0.000226,-0.004250,0.009434,-0.000285,0.009440,-0.004256,-88.806497,0.009456,
1440,890,-1.653968,-12.325267,0.999988,0.000388,-0.007137,0.014155,0.001210,0.014224,-0.007206,86.758342,0.014224,
1260,1350,-0.057206,-4.439772,0.999997,0.000184,-0.002181,0.004417,-0.001166,0.004617,-0.002381,-80.266244,0.004617,
1220,1800,0.019473,-1.507628,0.999998,0.000186,-0.001624,0.006860,0.000052,0.006861,-0.001624,89.650038,0.007171,
1680,1290,-2.607743,-7.294251,0.999996,0.000220,-0.005868,0.011066,0.000852,0.011109,-0.005910,87.127485,0.011117,
1550,770,-1.789859,-13.208438,0.999994,0.000289,-0.007082,0.012240,0.000050,0.012240,-0.007082,89.850860,0.012290,
1690,360,-1.451578,-17.099078,0.999996,0.000201,-0.004474,0.009777,-0.000082,0.009778,-0.004475,-89.669604,0.009789,
1630,1100,-3.058695,-9.319638,0.999996,0.000256,-0.004308,0.010605,0.001015,0.010674,-0.004377,86.124778,0.010732,
1800,1910,-1.000408,-1.205634,0.999997,0.000224,-0.003695,0.010130,0.002193,0.010470,-0.004035,81.199374,0.010561,
1520,1790,-0.574697,-1.812313,0.999996,0.000238,-0.002791,0.008182,0.000317,0.008191,-0.002800,88.347188,0.008327,
900,280,0.728062,-18.155280,0.999997,0.000213,-0.003076,0.008660,0.000407,0.008674,-0.003090,88.015243,0.008793,
1040,1090,2.114857,-8.792513,0.999981,0.000685,-0.007424,0.018225,0.003640,0.018731,-0.007930,82.078005,0.018804,
1380,700,-0.473911,-15.095123,0.999995,0.000247,-0.005045,0.008498,0.003224,0.009226,-0.005773,77.268956,0.009323,
1760,1660,-1.888820,-3.623896,0.999997,0.000219,-0.004924,0.010138,-0.000132,0.010139,-0.004926,-89.498870,0.010141,
1720,1280,-2.876333,-7.490364,0.999996,0.000299,-0.005538,0.010782,0.000925,0.010834,-0.005590,86.766953,0.010836,
1140,1450,0.242179,-4.056488,0.999997,0.000213,-0.003078,0.006817,0.001570,0.007060,-0.003322,81.197639,0.007064,
980,1340,1.130834,-5.937137,0.999995,0.000281,-0.006820,0.011353,0.001771,0.011524,-0.006991,84.485988,0.011611,
1470,770,-1.199255,-13.662903,0.999995,0.000311,-0.007529,0.012174,0.001700,0.012320,-0.007674,85.105279,0.012443,
1020,1720,0.484842,-2.268446,0.999996,0.000216,-0.002778,0.007989,0.000192,0.007993,-0.002782,88.976434,0.008115,
1180,470,0.127073,-17.115728,0.999996,0.000221,-0.002509,0.006999,-0.000318,0.007010,-0.002520,-88.088568,0.007102,
1110,1960,0.058875,-0.468322,0.999998,0.000179,-0.000509,0.006354,-0.000299,0.006367,-0.000522,-87.508567,0.007070,
770,1230,2.917029,-7.981467,0.999996,0.000239,-0.005466,0.010760,-0.001146,0.010840,-0.005547,-85.981034,0.010841,
1850,110,-0.958053,-19.134372,0.999996,0.000229,-0.004763,0.010653,-0.001723,0.010843,-0.004953,-83.698834,0.010857,
670,1700,1.922865,-3.324550,0.999996,0.000246,-0.004897,0.010080,-0.000005,0.010080,-0.004897,-89.981352,0.010081,
1430,800,-1.012208,-13.629566,0.999990,0.000413,-0.007690,0.012033,0.002615,0.012374,-0.008031,82.573496,0.012556,
680,990,3.776296,-10.434590,0.999996,0.000249,-0.004334,0.009389,0.000271,0.009395,-0.004340,88.870211,0.009404,
1870,1240,-3.770586,-8.197914,0.999997,0.000215,-0.004612,0.009263,0.000331,0.009271,-0.004619,88.634242,0.009271,
1450,380,-0.557464,-17.515928,0.999996,0.000234,-0.003030,0.008290,0.000363,0.008302,-0.003041,88.166871,0.008400,
1230,1840,0.002482,-1.233114,0.999998,0.000165,-0.001364,0.006709,-0.000006,0.006709,-0.001364,-89.958186,0.007092,
940,980,2.692619,-10.650848,0.999995,0.000261,-0.004077,0.012223,0.000917,0.012274,-0.004129,86.791528,0.012491,
1560,530,-1.221461,-15.825547,0.999996,0.000234,-0.005133,0.009991,0.000892,0.010044,-0.005186,86.637009,0.010046,
810,1250,2.611513,-7.687628,0.999996,0.000269,-0.005951,0.011345,-0.001074,0.011412,-0.006018,-86.460268,0.011417,
1430,1510,-0.628549,-3.987848,0.999996,0.000228,-0.004269,0.008662,-0.001584,0.008853,-0.004460,-83.117423,0.008853,
680,30,0.100555,-20.068187,0.999996,0.000000,0.000079,0.008352,0.003766,0.009810,-0.001378,68.843653,0.010621,
680,110,0.696600,-19.340688,0.999995,0.000246,-0.003189,0.009718,0.002652,0.010241,-0.003712,78.831213,0.010370,
1680,700,-2.361735,-13.586654,0.999996,0.000270,-0.005971,0.010978,-0.000397,0.010987,-0.005980,-88.659309,0.011001,
600,1500,2.872548,-5.587234,0.999997,0.000217,-0.005063,0.010199,0.000018,0.010199,-0.005063,89.932109,0.010199,
710,180,1.014677,-18.719555,0.999997,0.000204,-0.004270,0.009762,0.001331,0.009888,-0.004395,84.628663,0.009908,
670,680,2.920433,-13.497309,0.999997,0.000214,-0.005254,0.010286,0.000421,0.010297,-0.005265,88.448250,0.010298,
1120,1770,0.201058,-1.762985,0.999998,0.000165,-0.002007,0.007244,0.000080,0.007245,-0.002008,89.505717,0.007481,
1280,80,-0.021482,-19.793042,0.999998,0.000170,-0.000299,0.006159,-0.000151,0.006163,-0.000303,-88.664054,0.006948,
600,930,4.044040,-10.928891,0.999997,0.000190,-0.004316,0.008901,0.000440,0.008915,-0.004331,88.095568,0.008917,
910,700,1.558849,-14.032654,0.999995,0.000272,-0.006676,0.011468,-0.000686,0.011494,-0.006702,-87.838038,0.011547,
1630,1630,-1.345832,-3.523068,0.999996,0.000258,-0.004678,0.009846,-0.000306,0.009852,-0.004684,-88.794791,0.009856,
680,1540,2.345681,-4.924769,0.999995,0.000253,-0.005172,0.010236,0.000119,0.010237,-0.005173,89.557540,0.010237,
1800,1890,-1.126121,-1.413162,0.999997,0.000209,-0.004012,0.010300,0.001857,0.010537,-0.004249,82.725387,0.010603,
900,260,0.678871,-18.324375,0.999997,0.000208,-0.002930,0.008537,0.000514,0.008560,-0.002953,87.437498,0.008697,
1870,1480,-2.971103,-5.813810,0.999997,0.000197,-0.005068,0.010168,0.000017,0.010168,-0.005068,89.937828,0.010168,
1170,590,0.156061,-16.286276,0.999998,0.000183,-0.002826,0.006514,-0.001202,0.006666,-0.002978,-82.783726,0.006679,
1640,410,-1.354266,-16.754915,0.999997,0.000190,-0.004650,0.009823,0.000244,0.009827,-0.004654,89.032902,0.009831,
1680,1510,-1.889504,-4.904286,0.999994,0.000275,-0.005363,0.010412,-0.000296,0.010418,-0.005369,-88.924966,0.010420,
1610,1100,-2.973794,-9.306671,0.999996,0.000229,-0.004293,0.010800,0.001063,0.010874,-0.004367,85.990292,0.010944,
850,1930,0.385892,-0.778109,0.999997,0.000198,-0.001643,0.007871,-0.001542,0.008115,-0.001886,-81.019888,0.008493,
1140,60,0.020950,-19.914459,0.999998,0.000160,-0.000304,0.006104,0.000247,0.006114,-0.000313,87.800007,0.006886,
630,50,0.329751,-19.845521,0.999997,0.000241,-0.003816,0.009237,0.002915,0.009859,-0.004438,77.964953,0.009875,
1900,350,-2.432647,-16.512927,0.999997,0.000000,-0.004914,0.009715,-0.000090,0.009715,-0.004915,-89.647480,0.009715,
720,1920,0.715278,-0.979186,0.999997,0.000219,-0.003424,0.009235,-0.002042,0.009556,-0.003745,-81.058958,0.009631,
1020,1700,0.505737,-2.422737,0.999997,0.000204,-0.002918,0.008057,0.000326,0.008067,-0.002928,88.301747,0.008167,
730,1320,2.795114,-7.089055,0.999997,0.000217,-0.005563,0.010592,-0.000729,0.010624,-0.005596,-87.420744,0.010629,
1670,140,-0.553933,-19.218902,0.999997,0.000243,-0.002707,0.008493,-0.001663,0.008734,-0.002949,-81.732011,0.008887,
690,1640,2.009895,-3.870032,0.999996,0.000222,-0.004953,0.010114,0.000156,0.010116,-0.004955,89.406689,0.010116,
1690,340,-1.392302,-17.296903,0.999995,0.000244,-0.004403,0.009866,-0.000149,0.009868,-0.004404,-89.403076,0.009886,
1190,1960,0.020230,-0.459112,0.999998,0.000162,-0.000420,0.006229,-0.000089,0.006230,-0.000421,-89.235268,0.006963,
980,1320,1.181554,-6.165390,0.999995,0.000275,-0.007096,0.011670,0.001671,0.011817,-0.007244,84.952514,0.011917,
650,1700,2.023266,-3.393932,0.999997,0.000180,-0.004972,0.010084,-0.000003,0.010084,-0.004972,-89.987315,0.010084,
1850,1240,-3.676763,-8.150951,0.999995,0.000242,-0.004684,0.009381,0.000494,0.009399,-0.004701,87.992694,0.009399,
1390,580,-0.478509,-16.038951,0.999996,0.000213,-0.003965,0.008084,0.001823,0.008354,-0.004235,81.580695,0.008355,
810,1270,2.524495,-7.457542,0.999996,0.000287,-0.006042,0.011304,-0.000913,0.011352,-0.006090,-86.996349,0.011362,
770,1210,2.996034,-8.197768,0.999997,0.000214,-0.005320,0.010771,-0.001232,0.010865,-0.005414,-85.647215,0.010865,
1070,890,1.328335,-12.980892,0.999989,0.000396,-0.005841,0.011503,-0.004476,0.012591,-0.006928,-76.349305,0.012612,
1840,870,-3.802813,-11.505810,0.999995,0.000282,-0.004576,0.009417,-0.000617,0.009444,-0.004603,-87.479520,0.009445,
1330,150,-0.081816,-19.339108,0.999999,0.000133,-0.001006,0.006601,-0.000206,0.006607,-0.001011,-88.450153,0.007117,
670,2020,0.138153,-0.133409,0.999997,0.000000,0.000005,0.008394,-0.003842,0.009888,-0.001488,-68.753778,0.010662,
1440,870,-1.498843,-12.610320,0.999992,0.000360,-0.007519,0.013821,0.001368,0.013908,-0.007606,86.347543,0.013929,
1440,1000,-2.371112,-10.598588,0.999987,0.000445,-0.006790,0.018395,0.000877,0.018425,-0.006821,88.008819,0.018631,
1680,660,-2.225732,-14.028376,0.999995,0.000257,-0.005847,0.010813,-0.000176,0.010815,-0.005849,-89.393248,0.010827,
1760,1640,-1.943971,-3.827907,0.999997,0.000202,-0.004931,0.010101,-0.000152,0.010102,-0.004932,-89.420622,0.010103,
580,1200,3.953782,-8.603233,0.999997,0.000193,-0.004358,0.009107,-0.000238,0.009111,-0.004362,-88.987138,0.009114,
1380,460,-0.396410,-17.028745,0.999996,0.000233,-0.003256,0.007822,0.000960,0.007904,-0.003338,85.083432,0.007936,
1320,1430,-0.230157,-4.180309,0.999998,0.000194,-0.003105,0.006656,-0.001798,0.006976,-0.003426,-79.889902,0.006977,
1140,690,0.232001,-15.539797,0.999997,0.000203,-0.003449,0.006361,-0.002825,0.007116,-0.004205,-75.028011,0.007155,
1790,780,-3.262084,-12.480566,0.999997,0.000252,-0.005113,0.010090,-0.000794,0.010131,-0.005155,-87.019504,0.010132,
1280,60,-0.010242,-19.916625,0.999998,0.000153,-0.000176,0.006078,-0.000142,0.006081,-0.000180,-88.702616,0.006921,
710,160,0.905852,-18.913642,0.999995,0.000246,-0.004073,0.009752,0.001614,0.009938,-0.004259,83.429698,0.009972,
1590,540,-1.394254,-15.616477,0.999994,0.000251,-0.005287,0.010194,0.000720,0.010227,-0.005321,87.341675,0.010230,
1850,130,-1.111195,-18.920655,0.999996,0.000223,-0.004827,0.010590,-0.001321,0.010702,-0.004940,-85.139182,0.010713,
1870,520,-2.804647,-14.908959,0.999996,0.000229,-0.005039,0.010110,0.000030,0.010111,-0.005039,89.887211,0.010111,
1880,320,-2.230647,-16.879179,0.999997,0.000210,-0.004841,0.009873,0.000068,0.009874,-0.004841,89.737001,0.009874,
1860,190,-1.555700,-18.248246,0.999996,0.000251,-0.004895,0.010073,-0.000556,0.010094,-0.004916,-87.877185,0.010095,
1720,1260,-2.950415,-7.706628,0.999996,0.000264,-0.005442,0.010637,0.000979,0.010697,-0.005501,86.527879,0.010698,
1240,1770,-0.016467,-1.715173,0.999998,0.000144,-0.001783,0.006943,-0.000054,0.006943,-0.001783,-89.646668,0.007211,
1850,1480,-2.868616,-5.750388,0.999997,0.000199,-0.005122,0.010190,0.000022,0.010190,-0.005122,89.916483,0.010190,
680,1520,2.405349,-5.130225,0.999995,0.000254,-0.005204,0.010237,0.000081,0.010237,-0.005204,89.697711,0.010238,
1450,360,-0.532059,-17.682926,0.999997,0.000227,-0.002929,0.008119,0.000298,0.008127,-0.002937,88.453714,0.008230,
1550,1800,-0.633859,-1.775105,0.999996,0.000264,-0.002584,0.008387,0.000581,0.008417,-0.002614,86.978708,0.008616,
1640,1930,-0.424051,-0.793002,0.999997,0.000224,-0.001706,0.008073,0.001742,0.008374,-0.002007,80.194046,0.008744,
900,240,0.624768,-18.497590,0.999997,0.000206,-0.002701,0.008488,0.000650,0.008526,-0.002738,86.685832,0.008705,
1630,1610,-1.392795,-3.720008,0.999996,0.000239,-0.004782,0.009883,-0.000389,0.009893,-0.004792,-88.480603,0.009895,
940,960,2.620136,-10.895344,0.999994,0.000279,-0.004516,0.012288,0.001177,0.012370,-0.004598,86.011247,0.012505,
1260,1270,-0.074205,-4.712443,0.999994,0.000305,-0.002712,0.002630,-0.001663,0.003105,-0.003188,-74.049794,0.003634,
1590,1630,-1.163589,-3.404322,0.999997,0.000241,-0.004367,0.009536,-0.000374,0.009546,-0.004377,-88.462040,0.009557,
1640,390,-1.303668,-16.951792,0.999996,0.000211,-0.004520,0.009744,0.000145,0.009746,-0.004522,89.418336,0.009754,
1660,1510,-1.782452,-4.836687,0.999995,0.000281,-0.005401,0.010425,-0.000373,0.010434,-0.005410,-88.649219,0.010436,
1170,610,0.153209,-16.156243,0.999997,0.000206,-0.002821,0.006315,-0.001375,0.006518,-0.003024,-81.621820,0.006524,
600,1480,2.934980,-5.790623,0.999996,0.000242,-0.005074,0.010176,-0.000039,0.010176,-0.005074,-89.853243,0.010176,
850,1890,0.532946,-1.103980,0.999996,0.000232,-0.002227,0.008272,-0.001354,0.008444,-0.002399,-82.768954,0.008702,
1900,340,-2.396276,-16.610726,0.999997,0.000000,-0.004871,0.009656,-0.000032,0.009656,-0.004871,-89.874354,0.009656,
1220,1780,0.019512,-1.644906,0.999998,0.000181,-0.001752,0.006921,0.000055,0.006921,-0.001753,89.639781,0.007197,
1170,1960,0.028536,-0.461166,0.999998,0.000194,-0.000350,0.006238,-0.000170,0.006243,-0.000355,-88.519167,0.007013,
670,30,0.094988,-20.067639,0.999997,0.000000,0.000110,0.008474,0.003940,0.010038,-0.001454,68.354367,0.010849,
1020,1680,0.530361,-2.589311,0.999996,0.000224,-0.003013,0.008223,0.000357,0.008234,-0.003024,88.183097,0.008330,
810,1290,2.446493,-7.233367,0.999995,0.000302,-0.006084,0.011319,-0.000754,0.011352,-0.006117,-87.522896,0.011363,
570,990,4.232909,-10.387872,0.999967,0.000698,-0.003261,0.008127,-0.000161,0.008129,-0.003263,-89.188057,0.008182,
890,1320,1.812173,-6.625759,0.999996,0.000286,-0.006744,0.011845,0.000128,0.011846,-0.006744,89.604323,0.011884,
1580,390,-1.046940,-17.114872,0.999995,0.000268,-0.004214,0.009321,0.000297,0.009327,-0.004221,88.745288,0.009341,
770,1190,3.072494,-8.414455,0.999997,0.000223,-0.005145,0.010629,-0.001194,0.010719,-0.005234,-85.694810,0.010720,
1330,170,-0.096930,-19.207399,0.999999,0.000140,-0.001147,0.006623,-0.000152,0.006626,-0.001150,-88.876147,0.007082,
1030,460,0.575324,-16.894189,0.999997,0.000217,-0.003532,0.008336,-0.000899,0.008404,-0.003600,-85.690763,0.008433,
1670,180,-0.731688,-18.867258,0.999996,0.000229,-0.003252,0.008888,-0.001368,0.009040,-0.003404,-83.651668,0.009132,
690,1620,2.067157,-4.072836,0.999996,0.000238,-0.004997,0.010126,0.000169,0.010127,-0.004999,89.358583,0.010128,
1680,640,-2.160955,-14.242157,0.999996,0.000221,-0.005781,0.010800,-0.000051,0.010800,-0.005782,-89.824685,0.010809,
1440,980,-2.296804,-10.931723,0.999985,0.000509,-0.006535,0.017065,0.001319,0.017138,-0.006609,86.810360,0.017287,
1090,910,1.445636,-13.228642,0.999986,0.000433,-0.003205,0.010241,-0.006625,0.012957,-0.005921,-67.708556,0.012973,
980,1300,1.244459,-6.405302,0.999994,0.000338,-0.007352,0.012048,0.001510,0.012164,-0.007468,85.575978,0.012269,
1620,1170,-2.766141,-8.540911,0.999996,0.000263,-0.005340,0.011331,0.001407,0.011449,-0.005458,85.208155,0.011453,
830,1640,1.334619,-3.433781,0.999996,0.000206,-0.004660,0.009826,0.000298,0.009832,-0.004666,88.821935,0.009836,
1130,1990,0.026671,-0.273815,0.999998,0.000152,-0.000367,0.006160,-0.000273,0.006172,-0.000379,-87.606325,0.006918,
1260,1770,-0.051426,-1.720564,0.999998,0.000171,-0.001749,0.006972,-0.000051,0.006973,-0.001749,-89.666354,0.007255,
1380,420,-0.374054,-17.343568,0.999997,0.000218,-0.002901,0.007747,0.000654,0.007787,-0.002941,86.498608,0.007865,
1760,1620,-2.002268,-4.030359,0.999996,0.000224,-0.004974,0.010132,-0.000150,0.010134,-0.004975,-89.429638,0.010135,
630,200,1.477418,-18.274685,0.999995,0.000263,-0.004820,0.010233,0.000617,0.010258,-0.004845,87.655957,0.010263,
1580,590,-1.448979,-15.130820,0.999995,0.000258,-0.005696,0.010497,0.000802,0.010536,-0.005736,87.170055,0.010550,
730,410,1.799680,-16.470632,0.999997,0.000242,-0.004876,0.010132,-0.000124,0.010133,-0.004877,-89.525975,0.010135,
780,1130,3.220586,-9.038791,0.999996,0.000268,-0.004674,0.010298,-0.001009,0.010366,-0.004742,-86.160730,0.010378,
1270,1990,-0.009755,-0.274060,0.999998,0.000182,-0.000250,0.006080,0.000133,0.006083,-0.000253,88.794788,0.006883,
900,220,0.571969,-18.664864,0.999997,0.000205,-0.002526,0.008258,0.000749,0.008310,-0.002578,86.048236,0.008507,
1840,190,-1.456951,-18.342753,0.999994,0.000303,-0.004854,0.010252,-0.000636,0.010279,-0.004881,-87.593013,0.010283,
780,1890,0.710037,-1.183660,0.999997,0.000211,-0.003055,0.008936,-0.001614,0.009149,-0.003268,-82.467843,0.009272,
1160,470,0.178385,-17.098601,0.999997,0.000237,-0.002717,0.007158,-0.000599,0.007194,-0.002753,-86.543370,0.007260,
1130,780,0.319570,-14.887624,0.999996,0.000251,-0.004804,0.006623,-0.004307,0.008064,-0.006245,-71.495583,0.008459,
1880,350,-2.333716,-16.579317,0.999997,0.000229,-0.004914,0.009813,0.000055,0.009814,-0.004914,89.785361,0.009814,
1480,1790,-0.466070,-1.754756,0.999995,0.000238,-0.002420,0.007935,0.000273,0.007942,-0.002427,88.492096,0.008140,
970,720,1.207813,-14.108679,0.999995,0.000255,-0.006891,0.011482,-0.001543,0.011610,-0.007020,-85.234166,0.011695,
1850,150,-1.257436,-18.710195,0.999997,0.000211,-0.004891,0.010352,-0.000959,0.010413,-0.004951,-86.413666,0.010417,
1300,1430,-0.171530,-4.120446,0.999997,0.000214,-0.002859,0.006266,-0.001586,0.006534,-0.003127,-80.413098,0.006536,
1640,1230,-2.618396,-7.889577,0.999995,0.000281,-0.005888,0.011405,0.001183,0.011485,-0.005969,86.105544,0.011488,
940,940,2.518568,-11.145052,0.999995,0.000260,-0.005093,0.012461,0.001328,0.012560,-0.005193,85.699497,0.012623,
1490,1960,-0.140717,-0.496930,0.999998,0.000213,-0.000878,0.006845,0.000844,0.006936,-0.000969,83.837827,0.007513,
1720,1240,-3.025847,-7.915948,0.999996,0.000238,-0.005359,0.010541,0.001085,0.010615,-0.005433,86.115042,0.010616,
710,240,1.306176,-18.123114,0.999995,0.000261,-0.004605,0.009977,0.000686,0.010010,-0.004638,87.310789,0.010019,
600,1460,2.999104,-5.995184,0.999995,0.000260,-0.005084,0.010134,-0.000053,0.010134,-0.005084,-89.802105,0.010134,
850,1870,0.595671,-1.263026,0.999996,0.000244,-0.002477,0.008403,-0.001185,0.008530,-0.002605,-83.854200,0.008743,
1020,1660,0.552402,-2.754986,0.999995,0.000258,-0.003091,0.008170,0.000467,0.008190,-0.003110,87.631033,0.008268,
1900,330,-2.361378,-16.704693,0.999997,0.000000,-0.004852,0.009669,0.000050,0.009670,-0.004852,89.803036,0.009670,
660,2020,0.137844,-0.134551,0.999996,0.000000,-0.000261,0.008485,-0.003874,0.009954,-0.001730,-69.231171,0.010636,
810,1730,1.182908,-2.613466,0.999997,0.000221,-0.004231,0.009590,-0.000158,0.009592,-0.004233,-89.344573,0.009613,
1740,970,-3.572660,-10.639175,0.999997,0.000211,-0.004415,0.009738,-0.000489,0.009755,-0.004432,-88.022012,0.009769,
1170,630,0.151240,-16.030977,0.999997,0.000204,-0.002794,0.006097,-0.001525,0.006351,-0.003048,-80.533322,0.006353,
770,1170,3.138195,-8.625783,0.999996,0.000233,-0.004974,0.010509,-0.001199,0.010601,-0.005066,-85.598712,0.010605,
640,1980,0.512511,-0.522735,0.999993,0.000326,-0.003304,0.010347,-0.003186,0.011054,-0.004011,-77.490026,0.011192,
780,290,1.206728,-17.805635,0.999997,0.000207,-0.004253,0.009638,0.000441,0.009652,-0.004267,88.182404,0.009674,
1790,1360,-2.957019,-6.809038,0.999996,0.000213,-0.005256,0.010256,0.000493,0.010272,-0.005272,88.179818,0.010273,
1630,1590,-1.436168,-3.920128,0.999997,0.000210,-0.004872,0.009907,-0.000435,0.009920,-0.004885,-88.316772,0.009921,
1670,160,-0.645775,-19.040514,0.999997,0.000241,-0.002984,0.008780,-0.001575,0.008987,-0.003191,-82.502961,0.009112,
760,1890,0.769710,-1.208335,0.999996,0.000226,-0.002891,0.009185,-0.001859,0.009465,-0.003171,-81.444858,0.009635,
870,1320,1.947379,-6.701292,0.999994,0.000273,-0.006596,0.011724,-0.000088,0.011724,-0.006597,-89.724250,0.011755,
1130,1640,0.244683,-2.707615,0.999998,0.000193,-0.002664,0.007408,0.000596,0.007443,-0.002700,86.626501,0.007536,
900,200,0.512644,-18.829021,0.999997,0.000208,-0.002254,0.008182,0.000889,0.008258,-0.002330,85.163568,0.008515,
1890,1480,-3.071311,-5.875437,0.999996,0.000223,-0.004993,0.010185,0.000010,0.010185,-0.004993,89.962660,0.010186,
620,1910,1.187278,-1.362056,0.999997,0.000215,-0.004919,0.010415,-0.001088,0.010492,-0.004996,-85.962543,0.010495,
1200,1770,0.057444,-1.722211,0.999998,0.000164,-0.001745,0.007019,0.000045,0.007019,-0.001745,89.707208,0.007309,
1600,1170,-2.657273,-8.508259,0.999995,0.000265,-0.005477,0.011619,0.001464,0.011743,-0.005602,85.140307,0.011747,
1380,400,-0.362225,-17.497027,0.999997,0.000200,-0.002716,0.007709,0.000477,0.007730,-0.002738,87.388012,0.007839,
1800,1740,-1.826804,-2.945413,0.999997,0.000227,-0.004832,0.010025,0.000142,0.010026,-0.004833,89.450927,0.010028,
1510,370,-0.745481,-17.468831,0.999997,0.000232,-0.003646,0.008641,0.000372,0.008652,-0.003657,88.266248,0.008686,
1880,340,-2.300223,-16.678846,0.999997,0.000221,-0.004869,0.009822,0.000072,0.009823,-0.004870,89.721036,0.009823,
1580,570,-1.405479,-15.342785,0.999994,0.000280,-0.005535,0.010408,0.000804,0.010449,-0.005576,87.121265,0.010457,
850,620,1.711657,-14.688743,0.999996,0.000218,-0.005947,0.010753,-0.000510,0.010768,-0.005963,-88.251497,0.010789,
680,930,3.687543,-11.006600,0.999996,0.000253,-0.004539,0.009565,0.000710,0.009601,-0.004575,87.125614,0.009604,
1330,190,-0.110077,-19.073812,0.999998,0.000178,-0.001314,0.006761,-0.000119,0.006762,-0.001315,-89.157966,0.007171,
1440,960,-2.191312,-11.276812,0.999987,0.000488,-0.006313,0.016412,0.001543,0.016516,-0.006417,86.133597,0.016652,
980,1280,1.316087,-6.651104,0.999995,0.000298,-0.007579,0.012421,0.001336,0.012509,-0.007668,86.196234,0.012616,
1070,870,1.149028,-13.226945,0.999988,0.000400,-0.006821,0.011463,-0.003680,0.012176,-0.007534,-79.035899,0.012290,
1270,1970,-0.018417,-0.397648,0.999998,0.000186,-0.000358,0.006183,0.000111,0.006185,-0.000360,89.027293,0.006944,
1680,620,-2.099576,-14.462526,0.999996,0.000215,-0.005692,0.010801,0.000064,0.010802,-0.005692,89.778825,0.010807,
1590,1610,-1.200826,-3.594923,0.999997,0.000233,-0.004558,0.009648,-0.000486,0.009665,-0.004575,-88.041631,0.009669,
1760,1600,-2.058366,-4.234832,0.999996,0.000223,-0.005022,0.010173,-0.000197,0.010176,-0.005024,-89.257552,0.010176,
1850,720,-3.350964,-12.937092,0.999997,0.000213,-0.004980,0.009909,-0.000365,0.009918,-0.004989,-88.595832,0.009918,
1050,1680,0.439243,-2.531340,0.999997,0.000231,-0.003035,0.008038,0.000488,0.008059,-0.003056,87.480060,0.008137,
800,1130,3.126033,-9.024536,0.999994,0.000320,-0.004677,0.010507,-0.001116,0.010589,-0.004759,-85.820358,0.010607,
730,430,1.856176,-16.266041,0.999998,0.000212,-0.004917,0.010112,-0.000171,0.010114,-0.004919,-89.348642,0.010115,
1550,750,-1.709577,-13.452318,0.999995,0.000293,-0.007052,0.012097,0.000288,0.012102,-0.007057,89.138582,0.012157,
1130,1970,0.043499,-0.402049,0.999998,0.000175,-0.000494,0.006282,-0.000241,0.006290,-0.000502,-87.963524,0.006991,
1470,1960,-0.129340,-0.492544,0.999998,0.000210,-0.000645,0.006737,0.000783,0.006819,-0.000728,84.010955,0.007489,
1220,1760,0.020811,-1.783612,0.999998,0.000193,-0.001850,0.006970,0.000065,0.006970,-0.001850,89.579060,0.007221,
1200,1450,0.075831,-3.920831,0.999997,0.000197,-0.002471,0.005983,0.000611,0.006027,-0.002515,85.885736,0.006055,
1470,750,-1.132123,-13.904680,0.999994,0.000326,-0.007260,0.011783,0.001898,0.011970,-0.007447,84.364122,0.012089,
1690,1860,-0.864653,-1.463025,0.999997,0.000178,-0.003403,0.009346,0.001378,0.009493,-0.003550,83.901124,0.009593,
710,2020,0.117797,-0.129087,0.999997,0.000000,-0.001101,0.007985,-0.002924,0.008845,-0.001961,-73.618348,0.009290,
850,1850,0.670935,-1.440830,0.999995,0.000239,-0.002740,0.008641,-0.001101,0.008747,-0.002845,-84.523760,0.008923,
1380,1230,-0.755832,-6.243809,0.999991,0.000357,-0.006902,0.010359,-0.004088,0.011278,-0.007821,-77.327415,0.011556,
1150,760,0.211182,-15.192508,0.999998,0.000177,-0.003735,0.005471,-0.003708,0.006779,-0.005043,-70.571524,0.007043,
810,1710,1.239551,-2.804863,0.999996,0.000215,-0.004435,0.009558,-0.000056,0.009559,-0.004435,-89.772023,0.009567,
1720,1220,-3.101196,-8.130717,0.999996,0.000246,-0.005246,0.010547,0.001146,0.010630,-0.005328,85.869950,0.010630,
1020,1640,0.571358,-2.916607,0.999996,0.000219,-0.003210,0.008244,0.000578,0.008273,-0.003240,87.116803,0.008338,
600,990,4.118614,-10.407831,0.999997,0.000206,-0.004178,0.008638,0.000170,0.008640,-0.004181,89.240701,0.008642,
600,1680,2.334278,-3.762491,0.999996,0.000231,-0.004918,0.009934,0.000099,0.009935,-0.004919,89.618448,0.009935,
640,1390,3.023203,-6.591128,0.999996,0.000230,-0.005128,0.010194,-0.000328,0.010201,-0.005136,-88.774750,0.010201,
710,220,1.215120,-18.322686,0.999997,0.000231,-0.004503,0.009915,0.000890,0.009969,-0.004558,86.479933,0.009982,
1560,390,-0.965026,-17.170917,0.999996,0.000218,-0.004058,0.009185,0.000316,0.009192,-0.004066,88.632064,0.009213,
1630,280,-0.963439,-18.023012,0.999997,0.000190,-0.003454,0.009217,-0.000601,0.009245,-0.003482,-87.289650,0.009338,
1900,320,-2.327347,-16.802506,0.999997,0.000000,-0.004851,0.009695,0.000102,0.009696,-0.004852,89.596756,0.009696,
1110,780,0.422810,-14.670269,0.999996,0.000288,-0.005553,0.007914,-0.004401,0.009224,-0.006864,-73.416206,0.009583,
1020,1830,0.322415,-1.406566,0.999996,0.000234,-0.001879,0.007479,-0.000341,0.007492,-0.001892,-87.915567,0.007792,
1170,1450,0.155510,-3.971153,0.999997,0.000208,-0.002813,0.006323,0.001286,0.006500,-0.002990,82.135953,0.006507,
900,180,0.458167,-18.991097,0.999997,0.000222,-0.002029,0.007928,0.000974,0.008022,-0.002123,84.463137,0.008313,
1880,330,-2.266804,-16.778861,0.999997,0.000198,-0.004844,0.009848,0.000079,0.009849,-0.004845,89.690623,0.009849,
1320,1770,-0.152550,-1.742386,0.999998,0.000171,-0.001889,0.007114,-0.000083,0.007115,-0.001889,-89.472975,0.007371,
1080,910,1.476074,-12.998962,0.999988,0.000421,-0.003978,0.011221,-0.006465,0.013599,-0.006356,-69.805783,0.013609,
1650,160,-0.586711,-19.068308,0.999996,0.000227,-0.002453,0.008575,-0.001566,0.008793,-0.002671,-82.072683,0.009016,
1110,1640,0.299593,-2.738299,0.999997,0.000205,-0.002653,0.007449,0.000540,0.007478,-0.002682,86.948822,0.007577,
1270,1950,-0.019906,-0.521389,0.999998,0.000178,-0.000521,0.006297,0.000116,0.006299,-0.000523,89.023926,0.006991,
580,720,3.512929,-12.841674,0.999994,0.000293,-0.005964,0.009841,0.000707,0.009873,-0.005996,87.444054,0.009948,
620,1630,2.388683,-4.200704,0.999996,0.000228,-0.005014,0.010035,0.000125,0.010036,-0.005015,89.525876,0.010036,
980,1260,1.400551,-6.900824,0.999992,0.000347,-0.007749,0.012712,0.001111,0.012772,-0.007809,86.899942,0.012878,
1190,1260,0.115516,-4.809228,0.999997,0.000196,-0.003142,0.002894,0.002296,0.003668,-0.003916,71.366744,0.004385,
1300,690,-0.160099,-15.656591,0.999998,0.000169,-0.002876,0.005631,0.002243,0.006187,-0.003431,76.100073,0.006199,
770,1150,3.208736,-8.837880,0.999996,0.000269,-0.004796,0.010434,-0.001200,0.010528,-0.004890,-85.523547,0.010537,
1680,600,-2.041223,-14.675732,0.999997,0.000190,-0.005621,0.010624,0.000156,0.010625,-0.005622,89.448429,0.010631,
1440,940,-2.054672,-11.600635,0.999990,0.000367,-0.006308,0.015284,0.001319,0.015365,-0.006388,86.516381,0.015437,
660,930,3.777114,-10.990768,0.999996,0.000254,-0.004541,0.009418,0.000679,0.009451,-0.004573,87.221822,0.009452,
680,1940,0.733653,-0.871556,0.999995,0.000269,-0.003293,0.009813,-0.002665,0.010334,-0.003814,-78.934138,0.010451,
1850,1540,-2.688881,-5.136210,0.999996,0.000244,-0.005035,0.010176,-0.000058,0.010177,-0.005035,-89.779844,0.010177,
560,1960,1.073283,-1.099482,0.999992,0.000000,-0.004484,0.012411,-0.002425,0.012752,-0.004825,-81.990452,0.012877,
940,920,2.410189,-11.396373,0.999995,0.000271,-0.005578,0.012723,0.001364,0.012825,-0.005679,85.759970,0.012852,
620,870,3.818113,-11.502502,0.999997,0.000220,-0.004569,0.009355,0.000601,0.009381,-0.004595,87.532859,0.009382,
1030,520,0.623773,-16.381032,0.999996,0.000265,-0.004136,0.008637,-0.001442,0.008798,-0.004297,-83.640726,0.008799,
1070,850,1.008380,-13.461185,0.999992,0.000330,-0.007244,0.011314,-0.003420,0.011924,-0.007854,-79.884618,0.012122,
870,1960,0.244662,-0.532980,0.999997,0.000216,-0.001354,0.007351,-0.001404,0.007572,-0.001575,-81.059876,0.007991,
1170,820,0.261335,-15.112205,0.999996,0.000264,-0.004199,0.003643,-0.002774,0.004525,-0.005082,-72.359662,0.005574,
620,1390,3.125189,-6.647451,0.999996,0.000209,-0.005067,0.010101,-0.000262,0.010106,-0.005072,-89.010015,0.010106,
1630,260,-0.903281,-18.202694,0.999997,0.000192,-0.003267,0.009042,-0.000758,0.009089,-0.003313,-86.490716,0.009199,
1270,1930,-0.029829,-0.650971,0.999998,0.000153,-0.000641,0.006350,0.000089,0.006351,-0.000643,89.268317,0.006992,
1490,280,-0.519776,-18.269418,0.999996,0.000244,-0.002751,0.008134,-0.000163,0.008136,-0.002754,-89.143642,0.008277,
1590,1810,-0.727045,-1.752970,0.999997,0.000225,-0.003298,0.008696,0.000594,0.008725,-0.003328,87.172471,0.008807,
730,450,1.910220,-16.063688,0.999997,0.000224,-0.005016,0.010106,-0.000212,0.010109,-0.005019,-89.195849,0.010109,
590,990,4.160930,-10.401939,0.999997,0.000189,-0.003993,0.008483,0.000104,0.008484,-0.003994,89.522650,0.008489,
810,1690,1.297059,-2.997472,0.999995,0.000238,-0.004544,0.009672,0.000044,0.009672,-0.004544,89.822925,0.009678,
1850,590,-2.915688,-14.255342,0.999996,0.000230,-0.005071,0.010150,-0.000073,0.010151,-0.005071,-89.726965,0.010151,
790,1260,2.687689,-7.615829,0.999996,0.000242,-0.005820,0.011150,-0.001037,0.011213,-0.005884,-86.514544,0.011218,
640,1960,0.701855,-0.737063,0.999994,0.000292,-0.003726,0.010328,-0.002726,0.010838,-0.004237,-79.397148,0.010924,
830,620,1.829525,-14.615118,0.999997,0.000200,-0.005841,0.010750,-0.000335,0.010757,-0.005848,-88.844119,0.010770,
900,160,0.399380,-19.148609,0.999997,0.000226,-0.001785,0.007805,0.001095,0.007928,-0.001909,83.569031,0.008276,
1170,1430,0.152269,-4.097383,0.999997,0.000188,-0.002809,0.006127,0.001473,0.006364,-0.003045,80.875557,0.006366,
1790,1100,-3.772033,-9.398073,0.999995,0.000263,-0.004471,0.009463,0.000541,0.009484,-0.004492,87.778752,0.009489,
1180,1450,0.125906,-3.947357,0.999996,0.000245,-0.002696,0.006197,0.001045,0.006318,-0.002817,83.384546,0.006331,
600,1440,3.060258,-6.197870,0.999995,0.000275,-0.005053,0.010157,-0.000083,0.010157,-0.005053,-89.686230,0.010157,
970,700,1.158208,-14.337669,0.999996,0.000235,-0.006638,0.011240,-0.001631,0.011388,-0.006786,-84.829063,0.011457,
1510,350,-0.713199,-17.636704,0.999997,0.000218,-0.003512,0.008594,0.000246,0.008599,-0.003517,88.837647,0.008647,
1800,1720,-1.892297,-3.147286,0.999996,0.000242,-0.004891,0.010073,0.000013,0.010073,-0.004891,89.950363,0.010075,
1860,1170,-3.931514,-8.823853,0.999997,0.000196,-0.004374,0.008886,0.000338,0.008894,-0.004383,88.539986,0.008895,
1220,1740,0.023581,-1.924777,0.999998,0.000189,-0.001958,0.007013,0.000095,0.007014,-0.001959,89.394035,0.007238,
1550,730,-1.635844,-13.694118,0.999995,0.000307,-0.006951,0.011868,0.000509,0.011882,-0.006965,88.450566,0.011940,
1900,310,-2.293774,-16.901995,0.999997,0.000000,-0.004866,0.009697,0.000105,0.009698,-0.004866,89.587299,0.009698,
1400,870,-1.210383,-13.127376,0.999993,0.000286,-0.007078,0.012099,0.003335,0.012662,-0.007641,80.411550,0.012752,
1870,350,-2.284422,-16.617367,0.999997,0.000224,-0.004911,0.009867,0.000120,0.009868,-0.004912,89.533721,0.009868,
1330,210,-0.124778,-18.937276,0.999998,0.000193,-0.001444,0.006802,-0.000057,0.006803,-0.001445,-89.602145,0.007168,
1720,1200,-3.173646,-8.340207,0.999997,0.000229,-0.005125,0.010389,0.001103,0.010467,-0.005203,85.955346,0.010467,
850,1830,0.733445,-1.611794,0.999996,0.000226,-0.002935,0.008738,-0.000904,0.008808,-0.003004,-85.595949,0.008955,
1020,1810,0.355628,-1.561377,0.999996,0.000260,-0.002076,0.007638,-0.000283,0.007646,-0.002084,-88.331558,0.007905,
1720,1550,-1.992609,-4.617578,0.999997,0.000213,-0.005185,0.010285,-0.000241,0.010288,-0.005189,-89.105963,0.010289,
1130,1950,0.052881,-0.527980,0.999998,0.000165,-0.000661,0.006359,-0.000230,0.006367,-0.000668,-88.125686,0.006998,
1590,200,-0.588818,-18.792265,0.999995,0.000252,-0.002786,0.008403,-0.000948,0.008482,-0.002866,-85.190481,0.008630,
1670,120,-0.466027,-19.383234,0.999997,0.000234,-0.002258,0.008330,-0.001876,0.008653,-0.002581,-80.241910,0.008885,
890,1960,0.216001,-0.523782,0.999998,0.000180,-0.001208,0.007237,-0.001278,0.007426,-0.001397,-81.581690,0.007893,
1760,870,-3.419400,-11.618903,0.999996,0.000252,-0.004905,0.010069,-0.001010,0.010137,-0.004973,-86.160164,0.010137,
1020,1620,0.588618,-3.081155,0.999997,0.000207,-0.003382,0.008337,0.000714,0.008381,-0.003425,86.528536,0.008427,
770,1370,2.385912,-6.445549,0.999994,0.000277,-0.005807,0.010916,-0.000353,0.010924,-0.005815,-88.791743,0.010931,
900,1490,1.299581,-4.700099,0.999995,0.000284,-0.005408,0.010275,0.000888,0.010325,-0.005458,86.769323,0.010330,
1180,1770,0.090028,-1.727843,0.999998,0.000157,-0.001682,0.007053,-0.000030,0.007053,-0.001682,-89.801408,0.007368,
600,1390,3.226850,-6.707058,0.999997,0.000216,-0.005033,0.010061,-0.000200,0.010064,-0.005036,-89.239813,0.010064,
1530,220,-0.497935,-18.699900,0.999997,0.000207,-0.002257,0.007963,-0.000650,0.008005,-0.002298,-86.375220,0.008243,
1420,730,-0.741101,-14.504808,0.999994,0.000288,-0.006448,0.010360,0.003055,0.010898,-0.006986,80.012233,0.011041,
1700,230,-1.048709,-18.346433,0.999997,0.000209,-0.003750,0.009565,-0.001064,0.009650,-0.003834,-85.460244,0.009717,
1880,1480,-3.021353,-5.844512,0.999996,0.000232,-0.005020,0.010178,0.000017,0.010178,-0.005020,89.936334,0.010179,
1710,1460,-2.193491,-5.527262,0.999996,0.000220,-0.005518,0.010586,-0.000066,0.010586,-0.005519,-89.766719,0.010589,
1440,920,-1.895299,-11.884417,0.999991,0.000364,-0.006555,0.014748,0.001204,0.014816,-0.006622,86.774727,0.014843,
1630,1570,-1.481069,-4.118862,0.999996,0.000209,-0.004988,0.010017,-0.000453,0.010031,-0.005002,-88.270780,0.010031,
1760,1580,-2.114449,-4.438250,0.999998,0.000189,-0.005071,0.010212,-0.000213,0.010215,-0.005074,-89.201547,0.010215,
1250,1640,-0.042453,-2.636034,0.999998,0.000180,-0.002376,0.007065,-0.000204,0.007070,-0.002380,-88.762680,0.007194,
1840,1290,-3.459649,-7.641997,0.999995,0.000247,-0.004904,0.009844,0.000521,0.009862,-0.004922,87.981107,0.009862,
1380,380,-0.349316,-17.652208,0.999997,0.000189,-0.002562,0.007714,0.000333,0.007725,-0.002573,88.145827,0.007867,
620,1610,2.448487,-4.400566,0.999996,0.000221,-0.005025,0.010083,0.000133,0.010084,-0.005027,89.495791,0.010084,
1510,480,-0.904526,-16.483513,0.999995,0.000272,-0.004401,0.009258,0.000941,0.009322,-0.004465,86.079084,0.009325,
980,1240,1.497110,-7.160607,0.999992,0.000358,-0.007784,0.013012,0.000769,0.013040,-0.007812,87.884522,0.013125,
1150,400,0.186546,-17.593182,0.999995,0.000245,-0.002485,0.007253,-0.000391,0.007268,-0.002500,-87.706548,0.007385,
580,990,4.200989,-10.398549,0.999997,0.000196,-0.003524,0.008308,-0.000048,0.008308,-0.003524,-89.767778,0.008340,
810,1670,1.350091,-3.196752,0.999995,0.000262,-0.004614,0.009854,0.000129,0.009855,-0.004616,89.488187,0.009861,
1680,580,-1.982983,-14.888730,0.999996,0.000239,-0.005517,0.010509,0.000224,0.010512,-0.005520,89.200744,0.010516,
1280,690,-0.106632,-15.734806,0.999998,0.000207,-0.002545,0.005050,0.001764,0.005440,-0.002934,77.545045,0.005445,
1670,1860,-0.796620,-1.430560,0.999996,0.000247,-0.003468,0.009134,0.001249,0.009256,-0.003590,84.395764,0.009333,
900,360,0.909995,-17.441436,0.999996,0.000215,-0.003899,0.009101,-0.000126,0.009103,-0.003900,-89.444635,0.009134,
640,1940,0.865975,-0.944442,0.999995,0.000240,-0.004054,0.010463,-0.002141,0.010772,-0.004363,-81.783017,0.010836,
610,160,1.333875,-18.594234,0.999995,0.000272,-0.004905,0.010327,0.000834,0.010372,-0.004951,86.874213,0.010376,
1070,830,0.869342,-13.683850,0.999994,0.000285,-0.007257,0.011205,-0.003506,0.011848,-0.007900,-79.601150,0.012066,
770,1260,2.802057,-7.655749,0.999995,0.000284,-0.005634,0.010926,-0.001037,0.010991,-0.005699,-86.432512,0.010993,
1800,1700,-1.956251,-3.348235,0.999997,0.000201,-0.004934,0.010057,0.000006,0.010057,-0.004934,89.977287,0.010058,
1510,330,-0.675651,-17.812263,0.999997,0.000224,-0.003317,0.008685,0.000085,0.008685,-0.003318,89.594584,0.008766,
730,470,1.964566,-15.860953,0.999997,0.000224,-0.005098,0.010181,-0.000242,0.010185,-0.005102,-89.093081,0.010185,
1220,1720,0.024623,-2.064759,0.999998,0.000164,-0.002052,0.007006,0.000126,0.007008,-0.002054,89.203154,0.007206,
1470,730,-1.076630,-14.137354,0.999995,0.000277,-0.006972,0.011441,0.001982,0.011652,-0.007183,83.924579,0.011757,
1590,1090,-2.919401,-9.401155,0.999996,0.000258,-0.004159,0.010990,0.001047,0.011062,-0.004231,86.063949,0.011164,
1840,1170,-3.842411,-8.793260,0.999995,0.000283,-0.004511,0.009134,0.000496,0.009152,-0.004529,87.921684,0.009152,
970,540,0.907570,-15.977127,0.999997,0.000211,-0.004806,0.009433,-0.001316,0.009554,-0.004927,-84.763058,0.009556,
1170,1410,0.148545,-4.220612,0.999998,0.000199,-0.002781,0.005969,0.001644,0.006268,-0.003080,79.700571,0.006268,
1850,570,-2.851983,-14.460126,0.999997,0.000221,-0.005081,0.010197,-0.000015,0.010197,-0.005081,-89.942689,0.010197,
1630,1800,-0.888149,-1.910015,0.999997,0.000217,-0.003208,0.009061,0.000800,0.009113,-0.003260,86.285706,0.009235,
1900,300,-2.256344,-16.998546,0.999997,0.000000,-0.004880,0.009582,0.000059,0.009583,-0.004880,89.764368,0.009583,
600,1400,3.192275,-6.606458,0.999997,0.000224,-0.005037,0.010074,-0.000191,0.010077,-0.005039,-89.275117,0.010077,
1380,870,-1.064306,-13.440154,0.999990,0.000352,-0.005967,0.010026,0.004304,0.011111,-0.007052,75.855473,0.011244,
680,1960,0.599665,-0.682524,0.999995,0.000274,-0.002585,0.009306,-0.002996,0.010018,-0.003298,-76.627028,0.010211,
1320,1410,-0.223533,-4.311350,0.999997,0.000211,-0.003206,0.006574,-0.002046,0.006984,-0.003617,-78.647294,0.006986,
830,1680,1.233897,-3.041168,0.999996,0.000228,-0.004276,0.009584,0.000035,0.009584,-0.004276,89.856303,0.009602,
1130,1930,0.068594,-0.656747,0.999998,0.000151,-0.000807,0.006438,-0.000225,0.006445,-0.000814,-88.222630,0.007020,
1330,650,-0.260742,-15.771039,0.999996,0.000258,-0.003467,0.006768,0.002346,0.007280,-0.003979,77.687106,0.007290,
600,870,3.907085,-11.464754,0.999995,0.000255,-0.004429,0.009080,0.000410,0.009092,-0.004442,88.262611,0.009093,
1770,1360,-2.851033,-6.758294,0.999996,0.000254,-0.005323,0.010387,0.000506,0.010404,-0.005339,88.156838,0.010405,
1270,1960,-0.018692,-0.459336,0.999998,0.000171,-0.000436,0.006227,0.000093,0.006228,-0.000437,89.201586,0.006953,
800,150,0.579502,-19.139581,0.999996,0.000237,-0.002731,0.008587,0.001629,0.008817,-0.002961,81.969167,0.008974,
1670,100,-0.368697,-19.549737,0.999998,0.000169,-0.001856,0.008084,-0.001983,0.008465,-0.002237,-79.123689,0.008773,
1700,210,-0.966572,-18.534089,0.999996,0.000238,-0.003542,0.009480,-0.001304,0.009609,-0.003671,-84.338653,0.009698,
1440,900,-1.735518,-12.177610,0.999990,0.000353,-0.006935,0.014394,0.001183,0.014459,-0.007000,86.835474,0.014462,
770,1130,3.266688,-9.044128,0.999997,0.000247,-0.004643,0.010210,-0.000956,0.010271,-0.004704,-86.333200,0.010283,
1020,1840,0.309461,-1.333622,0.999997,0.000219,-0.001780,0.007390,-0.000390,0.007407,-0.001797,-87.570498,0.007727,
1500,1610,-0.817650,-3.327959,0.999998,0.000195,-0.003888,0.008921,-0.000709,0.008960,-0.003927,-86.841711,0.008983,
1710,1440,-2.253199,-5.741434,0.999994,0.000288,-0.005581,0.010603,0.000021,0.010603,-0.005581,89.925417,0.010608,
930,600,1.203461,-15.217332,0.999996,0.000262,-0.005591,0.010300,-0.001174,0.010386,-0.005677,-85.798865,0.010401,
1680,530,-1.849504,-15.412298,0.999996,0.000234,-0.005301,0.010377,0.000330,0.010384,-0.005308,88.793020,0.010384,
1860,1290,-3.555827,-7.692788,0.999995,0.000259,-0.004861,0.009802,0.000397,0.009812,-0.004872,88.448273,0.009812,
1640,690,-2.085605,-13.818672,0.999995,0.000301,-0.006116,0.011194,-0.000114,0.011194,-0.006117,-89.622789,0.011210,
1320,570,-0.236988,-16.350613,0.999998,0.000178,-0.002962,0.006969,0.001282,0.007132,-0.003125,82.759284,0.007150,
980,1220,1.605605,-7.424702,0.999992,0.000354,-0.007733,0.013328,0.000446,0.013337,-0.007742,88.786711,0.013395,
1250,1900,-0.017023,-0.840791,0.999998,0.000159,-0.000915,0.006506,0.000031,0.006506,-0.000915,89.762782,0.007044,
1780,850,-3.454094,-11.793229,0.999995,0.000274,-0.004886,0.009851,-0.000916,0.009908,-0.004943,-86.456625,0.009908,
1850,1100,-4.034433,-9.443058,0.999998,0.000164,-0.004272,0.008868,0.000232,0.008872,-0.004276,88.987178,0.008874,
1800,1230,-3.470681,-8.151424,0.999997,0.000221,-0.004870,0.009775,0.000790,0.009818,-0.004912,86.919829,0.009818,
640,1920,1.014913,-1.157422,0.999996,0.000266,-0.004312,0.010444,-0.001781,0.010656,-0.004524,-83.213441,0.010697,
850,1810,0.800655,-1.793475,0.999997,0.000217,-0.003179,0.008918,-0.000796,0.008970,-0.003231,-86.252057,0.009086,
730,910,3.414118,-11.238277,0.999996,0.000239,-0.004698,0.010004,0.000920,0.010061,-0.004755,86.434850,0.010066,
1800,1680,-2.022834,-3.551222,0.999997,0.000198,-0.004926,0.010082,-0.000037,0.010082,-0.004926,-89.858555,0.010083,
1630,1550,-1.527248,-4.323208,0.999995,0.000254,-0.005147,0.010185,-0.000485,0.010200,-0.005163,-88.189457,0.010200,
1820,930,-3.853261,-10.977298,0.999996,0.000267,-0.004495,0.009301,-0.000633,0.009330,-0.004524,-87.380128,0.009331,
1720,1180,-3.240025,-8.547430,0.999997,0.000228,-0.005006,0.010327,0.001114,0.010408,-0.005086,85.866123,0.010409,
810,1650,1.402358,-3.394681,0.999995,0.000275,-0.004659,0.009863,0.000191,0.009865,-0.004661,89.246250,0.009870,
1680,560,-1.928974,-15.098462,0.999996,0.000253,-0.005417,0.010445,0.000258,0.010449,-0.005421,89.066788,0.010452,
1660,1170,-2.973599,-8.590970,0.999995,0.000309,-0.005084,0.010795,0.001282,0.010897,-0.005186,85.414111,0.010902,
1510,310,-0.637742,-17.989399,0.999997,0.000228,-0.003192,0.008390,0.000002,0.008390,-0.003192,89.990853,0.008470,
1900,290,-2.217232,-17.093690,0.999995,0.000000,-0.004857,0.009515,0.000003,0.009515,-0.004857,89.988649,0.009516,
1600,1140,-2.783479,-8.851810,0.999997,0.000234,-0.004989,0.011282,0.001428,0.011406,-0.005113,85.022181,0.011426,
1850,550,-2.793054,-14.663787,0.999996,0.000231,-0.005073,0.010222,0.000024,0.010223,-0.005073,89.910604,0.010223,
890,1590,1.163153,-3.737493,0.999996,0.000251,-0.004603,0.009621,0.000577,0.009644,-0.004626,87.682477,0.009647,
1570,260,-0.701164,-18.314551,0.999996,0.000230,-0.003091,0.008548,-0.000488,0.008569,-0.003111,-87.602537,0.008675,
580,1820,1.899099,-2.462383,0.999996,0.000241,-0.004853,0.009799,-0.000168,0.009801,-0.004855,-89.341829,0.009801,
1760,390,-1.872623,-16.588164,0.999996,0.000221,-0.004918,0.010133,0.000098,0.010133,-0.004919,89.626537,0.010135,
1030,2020,0.025132,-0.096779,0.999998,0.000000,-0.000163,0.006142,-0.000543,0.006188,-0.000209,-85.111270,0.007028,
970,1060,2.620775,-9.649781,0.999992,0.000405,-0.004193,0.013502,-0.000524,0.013518,-0.004208,-88.306693,0.013835,
1170,1390,0.144420,-4.339625,0.999998,0.000188,-0.002748,0.005692,0.001815,0.006066,-0.003122,78.362262,0.006067,
940,900,2.289807,-11.654386,0.999995,0.000268,-0.006130,0.012850,0.001239,0.012931,-0.006211,86.280170,0.012934,
1610,580,-1.594258,-15.126704,0.999996,0.000258,-0.005590,0.010521,0.000589,0.010543,-0.005611,87.909585,0.010550,
1170,800,0.191112,-15.181599,0.999996,0.000246,-0.003707,0.003824,-0.003200,0.005000,-0.004883,-69.817305,0.005707,
1670,60,-0.184421,-19.863166,0.999997,0.000206,-0.001114,0.007440,-0.002012,0.007890,-0.001563,-77.403096,0.008355,
1440,880,-1.572871,-12.463858,0.999990,0.000365,-0.007340,0.013986,0.001250,0.014059,-0.007413,86.656297,0.014066,
1020,1600,0.606901,-3.249422,0.999997,0.000214,-0.003616,0.008458,0.000908,0.008526,-0.003684,85.725119,0.008552,
1640,350,-1.195676,-17.338302,0.999996,0.000211,-0.004235,0.009566,-0.000110,0.009566,-0.004236,-89.541802,0.009587,
1750,1360,-2.744059,-6.706816,0.999997,0.000212,-0.005453,0.010546,0.000481,0.010560,-0.005467,88.278523,0.010562,
1510,1960,-0.160832,-0.503862,0.999998,0.000194,-0.000964,0.006950,0.000937,0.007060,-0.001074,83.337399,0.007608,
1220,1700,0.025168,-2.205818,0.999998,0.000164,-0.002145,0.007047,0.000123,0.007049,-0.002147,89.232890,0.007226,
1760,1560,-2.169402,-4.643598,0.999997,0.000202,-0.005149,0.010259,-0.000181,0.010261,-0.005151,-89.325334,0.010261,
1380,360,-0.334254,-17.802863,0.999997,0.000205,-0.002410,0.007552,0.000253,0.007558,-0.002416,88.545928,0.007720,
770,1090,3.359624,-9.453237,0.999995,0.000262,-0.004357,0.010128,-0.000765,0.010169,-0.004397,-86.985587,0.010199,
810,1680,1.323428,-3.097847,0.999995,0.000255,-0.004578,0.009770,0.000095,0.009771,-0.004579,89.620339,0.009777,
1270,1910,-0.030391,-0.776066,0.999998,0.000144,-0.000797,0.006452,0.000090,0.006454,-0.000798,89.291864,0.007036,
1680,210,-0.895220,-18.571440,0.999996,0.000228,-0.003610,0.009241,-0.001115,0.009337,-0.003706,-85.079986,0.009403,
1780,870,-3.518660,-11.593710,0.999996,0.000252,-0.004862,0.009926,-0.000965,0.009989,-0.004925,-86.283632,0.009989,
1390,420,-0.404992,-17.321212,0.999997,0.000209,-0.003072,0.007854,0.000733,0.007903,-0.003121,86.177413,0.007961,
1800,930,-3.763508,-10.993856,0.999997,0.000208,-0.004518,0.009466,-0.000711,0.009502,-0.004554,-87.098613,0.009505,
810,1630,1.453277,-3.594147,0.999995,0.000261,-0.004715,0.009865,0.000252,0.009869,-0.004719,89.011558,0.009872,
1560,1510,-1.249191,-4.486026,0.999996,0.000235,-0.005237,0.010098,-0.000923,0.010153,-0.005293,-86.567201,0.010156,
1070,810,0.775976,-13.912927,0.999993,0.000314,-0.007227,0.010957,-0.003795,0.011717,-0.007988,-78.673304,0.011972,
980,1440,0.947315,-4.866271,0.999996,0.000212,-0.005485,0.009953,0.001710,0.010140,-0.005672,83.754986,0.010164,
1640,1170,-2.871157,-8.568062,0.999997,0.000215,-0.005249,0.011042,0.001331,0.011150,-0.005357,85.358294,0.011153,
1110,340,0.259854,-17.982992,0.999997,0.000201,-0.002320,0.007356,-0.000259,0.007363,-0.002327,-88.470606,0.007527,
1270,1900,-0.035862,-0.842147,0.999999,0.000144,-0.000864,0.006515,0.000104,0.006517,-0.000865,89.194800,0.007078,
1320,550,-0.235854,-16.491323,0.999997,0.000197,-0.002946,0.007042,0.001167,0.007177,-0.003081,83.423655,0.007201,
910,600,1.314405,-15.136191,0.999995,0.000284,-0.005728,0.010407,-0.001010,0.010470,-0.005791,-86.431730,0.010489,
810,1320,2.328492,-6.889517,0.999994,0.000318,-0.006136,0.011250,-0.000530,0.011266,-0.006152,-88.254424,0.011282,
1850,530,-2.733885,-14.869791,0.999996,0.000235,-0.005059,0.010144,0.000039,0.010144,-0.005059,89.851574,0.010144,
1660,530,-1.742582,-15.477571,0.999997,0.000203,-0.005295,0.010360,0.000389,0.010370,-0.005305,88.579105,0.010371,
730,890,3.351791,-11.444399,0.999996,0.000257,-0.004856,0.010224,0.001114,0.010306,-0.004938,85.797683,0.010309,
1780,1230,-3.375384,-8.116620,0.999998,0.000199,-0.004997,0.009993,0.000918,0.010049,-0.005053,86.510033,0.010049,
640,1900,1.156631,-1.369191,0.999996,0.000264,-0.004442,0.010428,-0.001442,0.010567,-0.004581,-84.511116,0.010598,
600,1380,3.260079,-6.808142,0.999996,0.000244,-0.005020,0.010049,-0.000210,0.010052,-0.005023,-89.203120,0.010052,
1320,1390,-0.223084,-4.441959,0.999996,0.000260,-0.003294,0.006426,-0.002333,0.006957,-0.003825,-77.181365,0.006969,
860,630,1.678795,-14.618471,0.999995,0.000269,-0.006013,0.010898,-0.000523,0.010914,-0.006029,-88.230083,0.010934,
1270,840,-0.264502,-15.251534,0.999990,0.000350,-0.006042,0.002893,0.000277,0.002901,-0.006051,88.227700,0.006052,
900,1640,1.026622,-3.232587,0.999997,0.000206,-0.004276,0.009361,0.000454,0.009377,-0.004291,88.094299,0.009388,
1600,1180,-2.608282,-8.389336,0.999994,0.000281,-0.005636,0.011663,0.001436,0.011781,-0.005754,85.287111,0.011782,
1190,1640,0.097681,-2.648903,0.999998,0.000193,-0.002357,0.007090,0.000214,0.007095,-0.002361,88.699943,0.007226,
1330,630,-0.260078,-15.910367,0.999996,0.000241,-0.003370,0.006819,0.002035,0.007210,-0.003761,79.111756,0.007212,
1630,1040,-3.158482,-9.949102,0.999997,0.000223,-0.003913,0.010389,0.000259,0.010394,-0.003917,88.964573,0.010498,
1800,1880,-1.190093,-1.518522,0.999996,0.000253,-0.004136,0.010242,0.001682,0.010436,-0.004331,83.414899,0.010486,
1510,730,-1.355757,-13.893365,0.999995,0.000250,-0.007067,0.011740,0.001168,0.011813,-0.007139,86.459164,0.011898,
1850,1720,-2.136587,-3.319693,0.999996,0.000242,-0.004833,0.009922,-0.000126,0.009923,-0.004834,-89.510902,0.009925,
1680,540,-1.875854,-15.307799,0.999996,0.000247,-0.005341,0.010387,0.000301,0.010393,-0.005346,88.905730,0.010395,
1900,280,-2.177052,-17.187838,0.999996,0.000000,-0.004817,0.009552,-0.000016,0.009552,-0.004817,-89.936218,0.009552,
690,1740,1.697945,-2.856906,0.999996,0.000260,-0.004834,0.010020,-0.000129,0.010021,-0.004835,-89.503308,0.010023,
780,150,0.635694,-19.115435,0.999996,0.000237,-0.002849,0.008821,0.001756,0.009079,-0.003107,81.623362,0.009229,
1830,1360,-3.162582,-6.915873,0.999996,0.000232,-0.005071,0.010091,0.000390,0.010101,-0.005081,88.527063,0.010101,
1670,50,-0.140516,-19.936262,0.999997,0.000192,-0.000937,0.007251,-0.001961,0.007697,-0.001382,-77.205635,0.008206,
770,1070,3.386707,-9.654739,0.999995,0.000282,-0.004239,0.009990,-0.000431,0.010003,-0.004252,-88.267709,0.010040,
720,1130,3.492809,-9.077094,0.999997,0.000202,-0.004583,0.009790,-0.000808,0.009835,-0.004628,-86.791897,0.009841,
1440,860,-1.423074,-12.753163,0.999992,0.000338,-0.007703,0.013633,0.001514,0.013740,-0.007810,85.961832,0.013783,
770,1540,1.879361,-4.633819,0.999995,0.000259,-0.005250,0.010365,0.000298,0.010370,-0.005256,88.907109,0.010371,
850,1790,0.861079,-1.968810,0.999997,0.000205,-0.003367,0.008916,-0.000596,0.008945,-0.003396,-87.227930,0.009031,
620,990,4.034525,-10.415101,0.999997,0.000205,-0.004230,0.008841,0.000188,0.008844,-0.004233,89.176261,0.008847,
810,1610,1.499415,-3.792028,0.999996,0.000259,-0.004815,0.009924,0.000310,0.009931,-0.004822,88.796496,0.009932,
910,580,1.276444,-15.343908,0.999997,0.000216,-0.005492,0.010297,-0.000988,0.010359,-0.005553,-86.431969,0.010368,
790,1200,2.927687,-8.278936,0.999997,0.000219,-0.005321,0.010953,-0.001292,0.011055,-0.005423,-85.487276,0.011056,
1630,1530,-1.574675,-4.528447,0.999994,0.000266,-0.005277,0.010300,-0.000513,0.010317,-0.005294,-88.114654,0.010318,
1020,1560,0.643748,-3.595840,0.999996,0.000208,-0.004070,0.008631,0.001227,0.008749,-0.004188,84.530732,0.008752,
950,940,2.467976,-11.174032,0.999995,0.000261,-0.005189,0.012763,0.001284,0.012855,-0.005281,85.929869,0.012923,
1720,1160,-3.307516,-8.758274,0.999996,0.000241,-0.004857,0.010303,0.001143,0.010388,-0.004943,85.714298,0.010392,
1480,1290,-1.257181,-6.507282,0.999993,0.000320,-0.007480,0.012194,-0.001498,0.012308,-0.007593,-85.670243,0.012419,
1830,400,-2.248148,-16.255194,0.999996,0.000212,-0.004965,0.010065,0.000123,0.010066,-0.004966,89.531046,0.010066,
980,1200,1.726631,-7.699515,0.999993,0.000336,-0.007551,0.013540,0.000074,0.013540,-0.007551,89.797741,0.013570,
1760,1540,-2.227951,-4.852009,0.999996,0.000231,-0.005218,0.010256,-0.000161,0.010258,-0.005220,-89.403033,0.010258,
1380,340,-0.321275,-17.952042,0.999997,0.000195,-0.002264,0.007523,0.000160,0.007526,-0.002267,89.063686,0.007721,
730,870,3.288518,-11.650057,0.999996,0.000252,-0.004979,0.010218,0.001090,0.010296,-0.005057,85.919798,0.010296,
1290,1900,-0.050975,-0.843444,0.999998,0.000150,-0.000789,0.006531,0.000176,0.006535,-0.000793,88.625305,0.007132,
1220,1680,0.025299,-2.347547,0.999998,0.000159,-0.002208,0.007071,0.000137,0.007073,-0.002210,89.152116,0.007237,
640,1880,1.283414,-1.581931,0.999996,0.000260,-0.004565,0.010411,-0.001181,0.010504,-0.004658,-85.517077,0.010526,
1470,80,-0.100931,-19.768668,0.999998,0.000174,-0.000498,0.006668,-0.000797,0.006756,-0.000585,-83.732349,0.007486,
670,1260,3.329635,-7.838166,0.999996,0.000257,-0.005059,0.010083,-0.000850,0.010131,-0.005106,-86.795261,0.010131,
1510,750,-1.423240,-13.655312,0.999994,0.000267,-0.007253,0.012099,0.000988,0.012150,-0.007303,87.083762,0.012232,
1600,1610,-1.245749,-3.626108,0.999998,0.000239,-0.004687,0.009739,-0.000472,0.009754,-0.004702,-88.126026,0.009756,
1550,660,-1.431055,-14.499193,0.999995,0.000296,-0.006265,0.011102,0.000927,0.011152,-0.006315,86.954042,0.011184,
1280,470,-0.120682,-17.117138,0.999998,0.000154,-0.002481,0.007012,0.000304,0.007022,-0.002491,88.164772,0.007120,
1800,1160,-3.687708,-8.836189,0.999995,0.000279,-0.004618,0.009491,0.000697,0.009525,-0.004653,87.178992,0.009526,
1850,510,-2.673385,-15.072437,0.999995,0.000260,-0.005058,0.010137,0.000080,0.010138,-0.005059,89.699056,0.010138,
840,270,0.909140,-18.127028,0.999997,0.000209,-0.003352,0.009059,0.000643,0.009092,-0.003385,87.042559,0.009191,
1830,1040,-3.999153,-9.965270,0.999998,0.000207,-0.004252,0.009032,0.000212,0.009036,-0.004255,89.086633,0.009041,
900,1680,0.943292,-2.857832,0.999996,0.000229,-0.004002,0.009140,0.000207,0.009143,-0.004005,89.099978,0.009167,
1900,270,-2.135533,-17.284940,0.999997,0.000000,-0.004786,0.009637,-0.000041,0.009637,-0.004786,-89.837652,0.009637,
1610,690,-1.900380,-13.919377,0.999995,0.000288,-0.006322,0.011331,0.000100,0.011331,-0.006322,89.675977,0.011356,
1850,1700,-2.203179,-3.518827,0.999995,0.000277,-0.004852,0.009952,-0.000110,0.009953,-0.004853,-89.573489,0.009954,
1680,520,-1.823834,-15.516784,0.999997,0.000204,-0.005250,0.010356,0.000346,0.010364,-0.005257,88.731460,0.010364,
1170,1370,0.142766,-4.451425,0.999998,0.000192,-0.002743,0.005469,0.002038,0.005947,-0.003221,76.803022,0.005954,
1810,1360,-3.061449,-6.861084,0.999997,0.000205,-0.005143,0.010152,0.000444,0.010165,-0.005156,88.337346,0.010165,
1700,1930,-0.560074,-0.850693,0.999995,0.000245,-0.002167,0.008712,0.002221,0.009148,-0.002603,78.893031,0.009427,
600,1360,3.329261,-7.009610,0.999996,0.000266,-0.004973,0.010007,-0.000245,0.010011,-0.004977,-89.064808,0.010011,
870,140,0.395231,-19.282625,0.999998,0.000202,-0.002020,0.007847,0.001277,0.008010,-0.002182,82.741373,0.008282,
1260,1450,-0.068590,-3.917823,0.999998,0.000168,-0.002433,0.005989,-0.000586,0.006029,-0.002474,-86.037417,0.006062,
1670,40,-0.100754,-20.007015,0.999997,0.000196,-0.000780,0.007135,-0.001934,0.007582,-0.001227,-76.979198,0.008140,
1640,670,-2.021077,-14.041070,0.999996,0.000271,-0.006047,0.011045,0.000040,0.011045,-0.006047,89.864408,0.011061,
770,1050,3.403199,-9.854574,0.999996,0.000248,-0.004176,0.009926,-0.000366,0.009936,-0.004186,-88.512399,0.009977,
980,1570,0.796652,-3.637333,0.999997,0.000208,-0.004096,0.008985,0.000976,0.009057,-0.004168,85.757915,0.009067,
990,660,0.956232,-14.885883,0.999996,0.000230,-0.005981,0.010364,-0.001959,0.010596,-0.006213,-83.261513,0.010648,
1720,970,-3.485523,-10.646517,0.999996,0.000219,-0.004361,0.009895,-0.000568,0.009918,-0.004383,-87.720425,0.009940,
810,1590,1.548219,-3.990163,0.999995,0.000291,-0.004984,0.010006,0.000366,0.010015,-0.004993,88.601062,0.010015,
1630,1510,-1.622352,-4.735710,0.999995,0.000247,-0.005382,0.010380,-0.000512,0.010396,-0.005398,-88.142793,0.010399,
1170,760,0.141716,-15.352051,0.999997,0.000219,-0.003034,0.004370,-0.003068,0.005476,-0.004140,-70.175067,0.005710,
850,1770,0.921053,-2.151928,0.999996,0.000227,-0.003548,0.009157,-0.000480,0.009175,-0.003566,-87.839313,0.009250,
1700,1170,-3.172512,-8.630802,0.999996,0.000242,-0.005010,0.010474,0.001205,0.010567,-0.005103,85.575215,0.010569,
1330,610,-0.260805,-16.046341,0.999996,0.000219,-0.003237,0.006940,0.001765,0.007238,-0.003535,80.438158,0.007238,
1240,270,-0.014053,-18.550910,0.999998,0.000151,-0.001701,0.006940,0.000041,0.006940,-0.001701,89.725765,0.007234,
730,850,3.221669,-11.854263,0.999996,0.000252,-0.005085,0.010265,0.001079,0.010340,-0.005160,85.999137,0.010340,
1720,1140,-3.365214,-8.961176,0.999995,0.000266,-0.004683,0.010024,0.000940,0.010084,-0.004743,86.355846,0.010090,
1610,560,-1.548236,-15.336380,0.999995,0.000300,-0.005466,0.010420,0.000596,0.010443,-0.005488,87.854439,0.010447,
1760,1520,-2.285050,-5.059247,0.999995,0.000228,-0.005238,0.010307,-0.000110,0.010307,-0.005239,-89.594656,0.010308,
910,1190,2.277173,-8.159085,0.999995,0.000257,-0.006384,0.012481,-0.001190,0.012555,-0.006459,-86.405303,0.012557,
980,1160,1.998217,-8.253159,0.999993,0.000297,-0.006796,0.013736,-0.000503,0.013749,-0.006809,-88.597706,0.013749,
1480,1610,-0.740439,-3.273478,0.999997,0.000215,-0.003908,0.008792,-0.000818,0.008845,-0.003961,-86.327692,0.008861,
700,1130,3.585053,-9.088868,0.999997,0.000200,-0.004578,0.009673,-0.000752,0.009713,-0.004618,-86.989367,0.009717,
1850,1020,-4.087507,-10.147209,0.999997,0.000213,-0.004209,0.008874,-0.000126,0.008875,-0.004210,-89.447967,0.008879,
1470,710,-1.027544,-14.364710,0.999996,0.000271,-0.006678,0.011119,0.002062,0.011355,-0.006913,83.477570,0.011444,
1810,1230,-3.518725,-8.168130,0.999996,0.000239,-0.004845,0.009683,0.000738,0.009720,-0.004883,87.101052,0.009720,
650,1260,3.432326,-7.878016,0.999996,0.000248,-0.004957,0.009932,-0.000761,0.009971,-0.004996,-87.082618,0.009971,
1460,1290,-1.107129,-6.364144,0.999992,0.000314,-0.007445,0.011996,-0.002028,0.012206,-0.007654,-84.107471,0.012336,
680,1980,0.448632,-0.495053,0.999996,0.000268,-0.001858,0.009516,-0.003655,0.010589,-0.002931,-73.636794,0.010935,
1040,2020,0.024143,-0.101252,0.999998,0.000000,-0.000220,0.006154,-0.000484,0.006190,-0.000256,-85.686105,0.007005,
1900,260,-2.092716,-17.382097,0.999997,0.000000,-0.004786,0.009696,-0.000057,0.009696,-0.004786,-89.773606,0.009696,
1850,490,-2.616393,-15.276691,0.999996,0.000246,-0.005049,0.010135,0.000085,0.010135,-0.005049,89.677395,0.010135,
1550,710,-1.569418,-13.929084,0.999994,0.000329,-0.006788,0.011619,0.000681,0.011645,-0.006813,87.884733,0.011701,
1540,550,-1.152682,-15.700494,0.999994,0.000295,-0.005224,0.009995,0.001054,0.010068,-0.005296,86.055766,0.010072,
1610,670,-1.834596,-14.146138,0.999994,0.000276,-0.006243,0.011156,0.000243,0.011159,-0.006247,89.200363,0.011186,
1010,1840,0.327348,-1.342853,0.999997,0.000219,-0.001739,0.007457,-0.000439,0.007477,-0.001760,-87.274758,0.007819,
1020,1540,0.662623,-3.772563,0.999996,0.000223,-0.004229,0.008731,0.001353,0.008871,-0.004368,84.101621,0.008871,
1160,1770,0.122863,-1.733706,0.999998,0.000148,-0.001708,0.007061,-0.000043,0.007062,-0.001708,-89.716549,0.007369,
640,1860,1.401698,-1.789820,0.999995,0.000277,-0.004626,0.010263,-0.000917,0.010320,-0.004682,-86.488855,0.010334,
1440,840,-1.298087,-13.029053,0.999993,0.000314,-0.007877,0.013153,0.001859,0.013316,-0.008040,84.988175,0.013411,
1490,1480,-0.933804,-4.507148,0.999996,0.000259,-0.005039,0.009691,-0.001455,0.009834,-0.005182,-84.410680,0.009838,
1140,1390,0.233174,-4.455645,0.999996,0.000234,-0.003347,0.006496,0.002410,0.007055,-0.003906,76.954668,0.007068,
1130,1900,0.090293,-0.852841,0.999999,0.000121,-0.001053,0.006601,-0.000203,0.006606,-0.001059,-88.482728,0.007096,
650,1840,1.462559,-1.964977,0.999995,0.000266,-0.004578,0.010220,-0.000942,0.010280,-0.004638,-86.373144,0.010296,
770,240,1.062746,-18.262432,0.999997,0.000184,-0.003870,0.009599,0.000918,0.009661,-0.003932,86.119102,0.009717,
1130,1910,0.082830,-0.785011,0.999998,0.000137,-0.000988,0.006547,-0.000210,0.006553,-0.000994,-88.404154,0.007063,
750,60,0.229418,-19.842486,0.999997,0.000209,-0.000755,0.007748,0.002490,0.008423,-0.001431,74.824067,0.009015,
1680,1930,-0.514459,-0.829446,0.999996,0.000241,-0.002344,0.008455,0.001919,0.008786,-0.002675,80.215827,0.009007,
1510,770,-1.497999,-13.408894,0.999992,0.000328,-0.007407,0.012424,0.000759,0.012453,-0.007436,87.812422,0.012531,
1260,470,-0.071098,-17.130578,0.999998,0.000167,-0.002474,0.006936,0.000303,0.006945,-0.002483,88.157441,0.007039,
1840,210,-1.563609,-18.139383,0.999995,0.000233,-0.004872,0.010187,-0.000464,0.010201,-0.004886,-88.236098,0.010204,
930,940,2.566527,-11.124179,0.999996,0.000240,-0.004964,0.012209,0.001383,0.012319,-0.005075,85.423815,0.012383,
650,680,3.024138,-13.444312,0.999997,0.000189,-0.005133,0.010161,0.000381,0.010171,-0.005143,88.575228,0.010171,
1700,970,-3.399189,-10.654007,0.999994,0.000292,-0.004346,0.010030,-0.000640,0.010058,-0.004375,-87.454707,0.010087,
810,1570,1.596388,-4.195441,0.999994,0.000276,-0.005134,0.010154,0.000392,0.010164,-0.005144,88.532330,0.010164,
770,1030,3.419518,-10.054354,0.999996,0.000241,-0.004169,0.009964,-0.000061,0.009964,-0.004170,-89.754409,0.010008,
1380,320,-0.302844,-18.105333,0.999997,0.000219,-0.002107,0.007524,0.000061,0.007524,-0.002107,89.634760,0.007763,
850,1750,0.978413,-2.334460,0.999997,0.000221,-0.003674,0.009117,-0.000261,0.009123,-0.003680,-88.832775,0.009179,
1220,1660,0.026417,-2.489511,0.999998,0.000170,-0.002276,0.007080,0.000154,0.007083,-0.002279,89.055236,0.007231,
1450,80,-0.094315,-19.771363,0.999998,0.000148,-0.000499,0.006598,-0.000721,0.006670,-0.000571,-84.260947,0.007394,
980,1140,2.141264,-8.533334,0.999994,0.000306,-0.006290,0.013779,-0.000673,0.013802,-0.006313,-88.082597,0.013818,
1400,530,-0.499843,-16.408405,0.999995,0.000255,-0.003663,0.008149,0.001355,0.008303,-0.003816,83.540443,0.008312,
1680,1170,-3.073698,-8.612638,0.999996,0.000258,-0.005029,0.010607,0.001229,0.010703,-0.005125,85.531434,0.010706,
740,870,3.238515,-11.661345,0.999996,0.000253,-0.004986,0.010279,0.001121,0.010361,-0.005068,85.821450,0.010362,
960,1570,0.880071,-3.698465,0.999996,0.000249,-0.004364,0.009215,0.000974,0.009285,-0.004434,85.918110,0.009288,
1610,650,-1.776859,-14.368599,0.999996,0.000244,-0.006138,0.011074,0.000367,0.011081,-0.006146,88.778820,0.011103,
600,1340,3.396403,-7.210704,0.999996,0.000247,-0.004927,0.009885,-0.000303,0.009891,-0.004934,-88.828146,0.009891,
1630,1930,-0.411577,-0.789017,0.999996,0.000229,-0.001579,0.007999,0.001701,0.008292,-0.001872,80.226004,0.008698,
1440,820,-1.185763,-13.288315,0.999992,0.000321,-0.007869,0.012620,0.002101,0.012833,-0.008082,84.204558,0.012977,
970,680,1.114204,-14.560446,0.999996,0.000243,-0.006376,0.010949,-0.001704,0.011115,-0.006542,-84.435873,0.011173,
1170,1350,0.138746,-4.554287,0.999997,0.000214,-0.002765,0.005226,0.002299,0.005840,-0.003380,75.041233,0.005864,
860,1830,0.702851,-1.596869,0.999997,0.000231,-0.002995,0.008650,-0.000820,0.008707,-0.003053,-85.990785,0.008836,
1150,2020,0.007077,-0.092729,0.999998,0.000000,-0.000089,0.006049,-0.000188,0.006055,-0.000095,-88.251211,0.006937,
1020,1520,0.676929,-3.948141,0.999997,0.000215,-0.004310,0.008776,0.001441,0.008933,-0.004467,83.790030,0.008933,
590,1260,3.721213,-8.018793,0.999997,0.000252,-0.004757,0.009330,-0.000280,0.009335,-0.004762,-88.860995,0.009336,
1550,1960,-0.197089,-0.516649,0.999998,0.000186,-0.000802,0.007099,0.001215,0.007282,-0.000984,81.453814,0.007901,
900,290,0.753989,-18.065412,0.999997,0.000214,-0.003187,0.008720,0.000337,0.008729,-0.003197,88.379662,0.008833,
1070,790,0.697655,-14.130131,0.999993,0.000299,-0.006959,0.010463,-0.003763,0.011241,-0.007737,-78.317827,0.011504,
1270,1890,-0.039113,-0.908940,0.999998,0.000163,-0.000923,0.006514,0.000082,0.006515,-0.000924,89.367555,0.007050,
1470,800,-1.320909,-13.287780,0.999991,0.000346,-0.007782,0.012722,0.001344,0.012809,-0.007869,86.265381,0.012921,
1570,560,-1.329223,-15.484971,0.999994,0.000287,-0.005372,0.010244,0.000860,0.010291,-0.005419,86.856835,0.010296,
940,880,2.168304,-11.915946,0.999994,0.000277,-0.006531,0.012905,0.001082,0.012965,-0.006591,86.823083,0.012966,
770,220,0.983717,-18.452902,0.999996,0.000233,-0.003667,0.009404,0.001116,0.009498,-0.003761,85.154478,0.009567,
810,1660,1.376759,-3.294279,0.999995,0.000294,-0.004637,0.009862,0.000155,0.009864,-0.004638,89.388191,0.009870,
1330,590,-0.263289,-16.187064,0.999997,0.000214,-0.003135,0.007053,0.001540,0.007281,-0.003363,81.587396,0.007288,
1850,470,-2.555533,-15.480734,0.999996,0.000235,-0.005045,0.010151,0.000113,0.010152,-0.005046,89.575521,0.010152,
1580,910,-2.664211,-11.391779,0.999996,0.000229,-0.005227,0.011637,-0.001430,0.011757,-0.005347,-85.188099,0.011773,
750,640,2.348865,-14.143340,0.999997,0.000230,-0.005633,0.010669,0.000144,0.010670,-0.005634,89.492383,0.010676,
910,1170,2.384249,-8.406457,0.999995,0.000276,-0.006040,0.012327,-0.001352,0.012426,-0.006139,-85.813064,0.012426,
1810,1270,-3.382980,-7.772130,0.999996,0.000235,-0.005025,0.010029,0.000759,0.010067,-0.005063,87.121718,0.010067,
1120,1390,0.306082,-4.562144,0.999996,0.000246,-0.003738,0.007140,0.002659,0.007756,-0.004353,76.974071,0.007775,
840,250,0.847660,-18.305088,0.999996,0.000225,-0.003162,0.009023,0.000795,0.009075,-0.003214,86.281130,0.009203,
730,830,3.151798,-12.062442,0.999995,0.000280,-0.005196,0.010433,0.001105,0.010510,-0.005274,85.974738,0.010510,
1440,1290,-0.960716,-6.203164,0.999996,0.000221,-0.007320,0.011642,-0.002586,0.011988,-0.007666,-82.372563,0.012142,
1750,580,-2.365397,-14.665454,0.999994,0.000284,-0.005367,0.010370,0.000004,0.010370,-0.005367,89.984886,0.010373,
950,1900,0.308360,-0.940508,0.999998,0.000171,-0.001689,0.007492,-0.000866,0.007573,-0.001770,-84.658711,0.007923,
1470,690,-0.986348,-14.585502,0.999995,0.000294,-0.006356,0.010799,0.002067,0.011045,-0.006601,83.226588,0.011115,
1680,500,-1.771612,-15.724415,0.999996,0.000216,-0.005140,0.010254,0.000335,0.010261,-0.005147,88.752808,0.010261,
1380,300,-0.286863,-18.253622,0.999997,0.000205,-0.001998,0.007461,0.000011,0.007461,-0.001998,89.931550,0.007725,
860,670,1.793787,-14.171189,0.999998,0.000172,-0.006249,0.011171,-0.000304,0.011176,-0.006254,-89.000933,0.011203,
860,1130,2.841215,-8.968212,0.999996,0.000257,-0.004818,0.011190,-0.001441,0.011319,-0.004946,-84.898517,0.011348,
1900,360,-2.468837,-16.413914,0.999997,0.000000,-0.004968,0.009799,-0.000068,0.009799,-0.004968,-89.735003,0.009799,
1550,1130,-2.580981,-8.893126,0.999995,0.000282,-0.005177,0.011999,0.001442,0.012119,-0.005297,85.235476,0.012151,
650,150,1.082528,-18.875556,0.999995,0.000272,-0.004026,0.010308,0.001863,0.010546,-0.004264,82.715727,0.010610,
1020,530,0.673359,-16.255327,0.999997,0.000248,-0.004251,0.008818,-0.001455,0.008978,-0.004411,-83.723112,0.008978,
1870,1170,-3.973439,-8.842027,0.999996,0.000235,-0.004319,0.008732,0.000249,0.008736,-0.004324,88.908812,0.008736,
1130,1890,0.098183,-0.920306,0.999998,0.000141,-0.001126,0.006647,-0.000164,0.006651,-0.001130,-88.793864,0.007117,
1170,1330,0.133967,-4.652111,0.999997,0.000223,-0.002832,0.004904,0.002565,0.005677,-0.003605,73.224269,0.005746,
1850,1800,-1.828833,-2.518409,0.999996,0.000242,-0.004852,0.010047,0.000160,0.010049,-0.004854,89.385637,0.010051,
690,70,0.388759,-19.722375,0.999995,0.000272,-0.001886,0.009207,0.003457,0.010197,-0.002875,74.032599,0.010515,
970,660,1.075056,-14.778385,0.999995,0.000278,-0.006112,0.010661,-0.001697,0.010830,-0.006282,-84.281611,0.010877,
1760,1740,-1.633612,-2.815691,0.999997,0.000225,-0.004843,0.010020,0.000133,0.010021,-0.004844,89.486286,0.010023,
1440,800,-1.088701,-13.534217,0.999993,0.000329,-0.007712,0.012278,0.002340,0.012549,-0.007982,83.411746,0.012703,
980,1120,2.277195,-8.807080,0.999992,0.000326,-0.005727,0.013846,-0.000813,0.013880,-0.005761,-87.625738,0.013946,
1150,1180,0.878919,-5.486577,0.999993,0.000000,-0.003932,0.003028,0.001749,0.003443,-0.004346,76.661524,0.004587,
950,1960,0.164682,-0.504640,0.999998,0.000212,-0.000944,0.006934,-0.000956,0.007049,-0.001058,-83.182542,0.007602,
1020,1500,0.692732,-4.126115,0.999997,0.000203,-0.004406,0.008861,0.001540,0.009037,-0.004583,83.463106,0.009037,
840,550,1.595908,-15.396112,0.999996,0.000229,-0.005435,0.010393,-0.000518,0.010410,-0.005452,-88.128790,0.010414,
1070,1270,0.681539,-5.979426,0.999992,0.000340,-0.006858,0.010327,0.003799,0.011129,-0.007660,78.073431,0.011389,
1270,1870,-0.040719,-1.037475,0.999998,0.000156,-0.001050,0.006577,0.000065,0.006578,-0.001051,89.514876,0.007067,
900,310,0.802961,-17.889343,0.999998,0.000198,-0.003389,0.008806,0.000159,0.008808,-0.003391,89.250779,0.008885,
580,1260,3.767609,-8.046669,0.999997,0.000247,-0.004998,0.009231,-0.000133,0.009232,-0.004999,-89.463247,0.009243,
1850,1040,-4.084223,-9.968415,0.999997,0.000201,-0.004210,0.008836,0.000213,0.008840,-0.004214,89.063746,0.008843,
1450,800,-1.167943,-13.442617,0.999994,0.000297,-0.007732,0.012465,0.001998,0.012661,-0.007927,84.403387,0.012794,
1600,1990,-0.150469,-0.316950,0.999997,0.000201,-0.000812,0.007164,0.001593,0.007471,-0.001119,79.111143,0.008059,
910,1150,2.495579,-8.654955,0.999995,0.000291,-0.005568,0.012192,-0.001488,0.012315,-0.005692,-85.244523,0.012327,
1560,910,-2.558483,-11.430031,0.999996,0.000250,-0.005392,0.011988,-0.001468,0.012111,-0.005515,-85.204838,0.012127,
880,730,1.862390,-13.553384,0.999995,0.000232,-0.006696,0.011765,-0.000063,0.011765,-0.006696,-89.805305,0.011802,
1320,490,-0.229848,-16.923971,0.999998,0.000177,-0.002856,0.007231,0.000847,0.007302,-0.002927,85.232709,0.007350,
1490,140,-0.235057,-19.346503,0.999997,0.000198,-0.001382,0.007165,-0.000765,0.007233,-0.001450,-84.926233,0.007653,
1330,570,-0.264832,-16.323341,0.999997,0.000202,-0.003061,0.007123,0.001335,0.007295,-0.003233,82.653443,0.007311,
1820,760,-3.343040,-12.616064,0.999996,0.000252,-0.004978,0.009939,-0.000624,0.009965,-0.005004,-87.609971,0.009965,
1680,480,-1.722627,-15.927113,0.999996,0.000227,-0.005063,0.010144,0.000338,0.010152,-0.005070,88.725602,0.010152,
740,1450,2.295209,-5.673876,0.999997,0.000201,-0.005480,0.010537,-0.000046,0.010537,-0.005480,-89.836059,0.010540,
1050,1640,0.476042,-2.854011,0.999996,0.000222,-0.003213,0.008063,0.000725,0.008109,-0.003260,86.335292,0.008161,
850,1730,1.024915,-2.518266,0.999997,0.000201,-0.003780,0.009363,-0.000158,0.009365,-0.003782,-89.310495,0.009423,
830,1660,1.284497,-3.236783,0.999996,0.000216,-0.004475,0.009722,0.000205,0.009725,-0.004478,89.174734,0.009735,
1720,1120,-3.411408,-9.159325,0.999995,0.000261,-0.004563,0.009974,0.000849,0.010024,-0.004613,86.667624,0.010034,
840,670,1.915258,-14.097812,0.999997,0.000208,-0.006145,0.011098,-0.000140,0.011099,-0.006147,-89.535744,0.011121,
810,1550,1.648119,-4.400173,0.999995,0.000250,-0.005188,0.010228,0.000413,0.010239,-0.005199,88.467176,0.010240,
660,350,1.955373,-16.852156,0.999996,0.000231,-0.004960,0.010051,0.000028,0.010051,-0.004960,89.892033,0.010051,
1390,1900,-0.143895,-0.872679,0.999998,0.000159,-0.000999,0.006799,0.000425,0.006822,-0.001022,86.890953,0.007359,
620,530,2.697784,-14.891515,0.999995,0.000280,-0.005068,0.010174,-0.000046,0.010174,-0.005068,-89.828110,0.010174,
940,860,2.049738,-12.174349,0.999995,0.000267,-0.006900,0.012947,0.000812,0.012980,-0.006933,87.660452,0.012990,
690,510,2.280894,-15.318737,0.999996,0.000238,-0.005173,0.010291,-0.000139,0.010292,-0.005174,-89.485397,0.010292,
1550,1150,-2.478682,-8.647381,0.999995,0.000261,-0.005597,0.012283,0.001472,0.012403,-0.005718,85.324056,0.012416,
1850,450,-2.497932,-15.686608,0.999995,0.000247,-0.005006,0.010100,0.000129,0.010101,-0.005007,89.510979,0.010101,
1590,1360,-1.789393,-6.223029,0.999994,0.000274,-0.006480,0.011435,-0.000309,0.011441,-0.006485,-89.012834,0.011475,
1810,1040,-3.914187,-9.963762,0.999997,0.000220,-0.004325,0.009211,0.000222,0.009215,-0.004328,89.059997,0.009221,
1580,470,-1.204916,-16.352186,0.999995,0.000269,-0.004738,0.009753,0.000621,0.009779,-0.004764,87.551460,0.009780,
1410,580,-0.562069,-15.953419,0.999997,0.000198,-0.004328,0.008476,0.001917,0.008757,-0.004609,81.663318,0.008761,
1440,780,-1.008124,-13.779794,0.999995,0.000264,-0.007500,0.011898,0.002505,0.012216,-0.007818,82.760211,0.012374,
980,1100,2.400925,-9.089218,0.999992,0.000328,-0.005197,0.013796,-0.000827,0.013832,-0.005233,-87.512104,0.013968,
1470,670,-0.954848,-14.793987,0.999994,0.000283,-0.006063,0.010458,0.002033,0.010705,-0.006309,83.087492,0.010761,
640,1840,1.509253,-1.998246,0.999995,0.000283,-0.004716,0.010224,-0.000731,0.010260,-0.004752,-87.207257,0.010269,
1170,1310,0.137824,-4.740997,0.999996,0.000235,-0.002936,0.004621,0.002872,0.005589,-0.003903,71.378757,0.005734,
1450,480,-0.657546,-16.669967,0.999995,0.000242,-0.004006,0.008699,0.001123,0.008797,-0.004104,84.985588,0.008804,
1470,140,-0.212864,-19.355080,0.999997,0.000189,-0.001061,0.007045,-0.000730,0.007110,-0.001126,-84.896362,0.007643,
1890,1170,-4.058931,-8.881503,0.999997,0.000191,-0.004299,0.008438,0.000117,0.008439,-0.004300,89.472224,0.008440,
880,750,1.936245,-13.318147,0.999996,0.000232,-0.006739,0.011885,0.000122,0.011886,-0.006739,89.625944,0.011921,
1330,550,-0.266442,-16.469005,0.999997,0.000183,-0.002986,0.007158,0.001167,0.007290,-0.003119,83.522696,0.007316,
1270,1850,-0.051270,-1.172577,0.999998,0.000175,-0.001193,0.006733,0.000050,0.006734,-0.001194,89.641325,0.007186,
770,940,3.299792,-10.963436,0.999995,0.000266,-0.004519,0.010128,0.000906,0.010183,-0.004575,86.471882,0.010201,
570,1260,3.818059,-8.076627,0.999975,0.000647,-0.005146,0.009143,-0.000013,0.009143,-0.005146,-89.949654,0.009167,
1150,880,0.927042,-14.664365,0.999977,0.000000,-0.004391,0.003004,-0.002238,0.003628,-0.005015,-74.405743,0.005180,
1120,270,0.188337,-18.507057,0.999998,0.000185,-0.001885,0.007166,-0.000044,0.007166,-0.001885,-89.723045,0.007430,
860,2000,0.120784,-0.244065,0.999998,0.000170,-0.000582,0.007009,-0.001544,0.007311,-0.000884,-78.930414,0.007981,
600,230,1.777698,-17.833962,0.999996,0.000288,-0.004888,0.009934,0.000248,0.009938,-0.004893,89.040977,0.009939,
910,1130,2.595692,-8.896890,0.999995,0.000274,-0.005167,0.011970,-0.001450,0.012092,-0.005289,-85.196319,0.012123,
1430,1900,-0.193128,-0.893141,0.999997,0.000199,-0.001305,0.007003,0.000523,0.007036,-0.001337,86.415346,0.007473,
850,1710,1.079032,-2.709732,0.999997,0.000176,-0.003852,0.009402,-0.000140,0.009403,-0.003853,-89.396729,0.009454,
1020,1480,0.704129,-4.300709,0.999996,0.000224,-0.004589,0.009044,0.001699,0.009252,-0.004798,83.000607,0.009255,
970,1960,0.143119,-0.497835,0.999998,0.000184,-0.000946,0.006874,-0.000852,0.006966,-0.001038,-83.852111,0.007517,
1130,1870,0.111555,-1.052088,0.999998,0.000165,-0.001287,0.006740,-0.000126,0.006742,-0.001289,-89.103013,0.007158,
830,80,0.234551,-19.723284,0.999996,0.000214,-0.000854,0.007537,0.001895,0.007945,-0.001262,77.843607,0.008540,
1070,770,0.645511,-14.334127,0.999993,0.000300,-0.006627,0.010096,-0.003772,0.010907,-0.007438,-77.858823,0.011145,
770,640,2.236512,-14.202810,0.999995,0.000271,-0.005729,0.010727,0.000076,0.010727,-0.005730,89.734488,0.010736,
1670,1780,-1.098705,-2.177414,0.999995,0.000243,-0.004183,0.009521,0.000505,0.009539,-0.004202,87.892214,0.009562,
1320,470,-0.226480,-17.067831,0.999998,0.000194,-0.002789,0.007247,0.000778,0.007306,-0.002849,85.595048,0.007365,
810,1770,1.060268,-2.227755,0.999997,0.000190,-0.003884,0.009437,-0.000499,0.009455,-0.003903,-87.856870,0.009503,
1470,700,-1.004987,-14.475393,0.999996,0.000266,-0.006519,0.010971,0.002070,0.011212,-0.006761,83.342051,0.011291,
770,1010,3.406977,-10.254836,0.999996,0.000226,-0.004192,0.009972,0.000327,0.009980,-0.004200,88.678113,0.010021,
1510,790,-1.583710,-13.153953,0.999992,0.000329,-0.007515,0.012657,0.000490,0.012669,-0.007527,88.609603,0.012743,
690,490,2.222456,-15.526890,0.999997,0.000209,-0.005115,0.010233,-0.000177,0.010235,-0.005117,-89.340983,0.010235,
1680,680,-2.293502,-13.805681,0.999995,0.000262,-0.005915,0.010937,-0.000271,0.010942,-0.005919,-89.077765,0.010954,
1410,720,-0.660809,-14.687130,0.999994,0.000272,-0.006088,0.009858,0.003128,0.010449,-0.006679,79.289937,0.010583,
940,840,1.934572,-12.441437,0.999995,0.000252,-0.007159,0.012987,0.000519,0.013000,-0.007173,88.524385,0.013023,
1550,1170,-2.367828,-8.401716,0.999994,0.000266,-0.006066,0.012406,0.001332,0.012501,-0.006162,85.896325,0.012502,
1850,840,-3.755552,-11.773563,0.999996,0.000218,-0.004650,0.009404,-0.000555,0.009426,-0.004672,-87.744169,0.009426,
1820,740,-3.270795,-12.815810,0.999997,0.000215,-0.005006,0.010009,-0.000558,0.010029,-0.005027,-87.872851,0.010029,
1760,1500,-2.344426,-5.265545,0.999996,0.000234,-0.005271,0.010348,-0.000071,0.010348,-0.005271,-89.741262,0.010349,
680,1390,2.816707,-6.479571,0.999995,0.000260,-0.005285,0.010399,-0.000349,0.010407,-0.005293,-88.725513,0.010407,
1520,1290,-1.552758,-6.745005,0.999994,0.000256,-0.007301,0.012329,-0.000629,0.012350,-0.007321,-88.167400,0.012420,
730,810,3.076430,-12.275055,0.999997,0.000252,-0.005249,0.010490,0.001046,0.010559,-0.005318,86.216076,0.010559,
1410,560,-0.552331,-16.124970,0.999996,0.000255,-0.004151,0.008411,0.001743,0.008648,-0.004388,82.246347,0.008648,
1440,760,-0.942722,-14.013104,0.999995,0.000279,-0.007221,0.011442,0.002606,0.011799,-0.007578,82.199337,0.011957,
640,1800,1.698566,-2.408007,0.999995,0.000253,-0.004803,0.010208,-0.000408,0.010219,-0.004814,-88.443746,0.010225,
1860,530,-2.783800,-14.838742,0.999996,0.000237,-0.005042,0.010137,0.000025,0.010137,-0.005042,89.905336,0.010137,
880,2000,0.107384,-0.243036,0.999998,0.000183,-0.000734,0.006919,-0.001372,0.007158,-0.000972,-80.139042,0.007765,
1150,870,0.808125,-14.694591,0.999996,0.000000,-0.004261,0.003254,-0.001770,0.003650,-0.004657,-77.390820,0.004901,
1720,1230,-3.062879,-8.023275,0.999997,0.000243,-0.005312,0.010556,0.001125,0.010636,-0.005391,85.963387,0.010636,
1850,430,-2.438940,-15.887256,0.999996,0.000242,-0.004988,0.010017,0.000138,0.010018,-0.004990,89.473926,0.010018,
980,1080,2.503719,-9.356258,0.999994,0.000314,-0.004720,0.013598,-0.000671,0.013623,-0.004744,-87.904191,0.013830,
1110,140,0.095102,-19.400223,0.999998,0.000143,-0.000869,0.006592,0.000291,0.006604,-0.000880,87.768259,0.007171,
1330,530,-0.265913,-16.608966,0.999997,0.000191,-0.002943,0.007247,0.001041,0.007352,-0.003048,84.224435,0.007388,
1450,460,-0.638245,-16.847404,0.999997,0.000211,-0.003827,0.008561,0.000997,0.008641,-0.003907,85.427212,0.008654,
990,940,2.249807,-11.345312,0.999995,0.000247,-0.005755,0.014292,0.000525,0.014306,-0.005769,88.499710,0.014395,
770,1200,3.035246,-8.307361,0.999997,0.000204,-0.005232,0.010726,-0.001225,0.010820,-0.005325,-85.636542,0.010820,
1470,650,-0.923144,-15.005989,0.999995,0.000239,-0.005788,0.010127,0.001979,0.010369,-0.006031,83.018303,0.010415,
820,550,1.703741,-15.329984,0.999997,0.000212,-0.005420,0.010426,-0.000457,0.010439,-0.005433,-88.351124,0.010442,
1170,1290,0.142234,-4.832720,0.999996,0.000239,-0.003103,0.004293,0.003110,0.005427,-0.004237,69.967416,0.005705,
910,1110,2.688771,-9.135676,0.999994,0.000290,-0.004635,0.011782,-0.001379,0.011897,-0.004750,-85.230256,0.011977,
1880,2020,-0.295469,-0.257300,0.999979,0.000000,0.000646,0.012796,0.007118,0.016078,-0.002637,65.240591,0.017246,
1860,1670,-2.352383,-3.854135,0.999996,0.000229,-0.004970,0.009971,-0.000090,0.009972,-0.004971,-89.655745,0.009972,
1020,1460,0.718527,-4.483850,0.999996,0.000241,-0.004852,0.009202,0.001884,0.009450,-0.005100,82.496748,0.009460,
1130,1850,0.126386,-1.191150,0.999998,0.000169,-0.001421,0.006842,-0.000091,0.006843,-0.001422,-89.366143,0.007222,
810,1530,1.693853,-4.605516,0.999997,0.000196,-0.005242,0.010321,0.000425,0.010332,-0.005254,88.437581,0.010333,
1300,470,-0.170410,-17.101576,0.999998,0.000181,-0.002666,0.007123,0.000537,0.007152,-0.002696,86.869280,0.007224,
1070,730,0.575526,-14.723799,0.999994,0.000275,-0.005892,0.009375,-0.003521,0.010148,-0.006665,-77.619102,0.010313,
980,270,0.482158,-18.359502,0.999996,0.000218,-0.002502,0.008022,0.000248,0.008027,-0.002507,88.651065,0.008214,
1000,1830,0.360751,-1.425230,0.999998,0.000178,-0.001808,0.007597,-0.000435,0.007617,-0.001828,-87.356398,0.007953,
1470,680,-0.970531,-14.690671,0.999993,0.000309,-0.006211,0.010623,0.002050,0.010869,-0.006457,83.156160,0.010933,
1280,100,-0.023363,-19.669625,0.999998,0.000174,-0.000424,0.006221,-0.000128,0.006223,-0.000426,-88.899510,0.006953,
1550,1190,-2.260318,-8.148100,0.999995,0.000266,-0.006397,0.012520,0.001181,0.012593,-0.006470,86.442345,0.012595,
1820,310,-1.904773,-17.199294,0.999997,0.000215,-0.004855,0.010025,-0.000124,0.010026,-0.004856,-89.522752,0.010028,
1410,1900,-0.167627,-0.881084,0.999997,0.000191,-0.001234,0.006880,0.000423,0.006902,-0.001256,87.022524,0.007353,
690,470,2.167497,-15.731062,0.999997,0.000206,-0.005052,0.010174,-0.000176,0.010176,-0.005054,-89.337259,0.010177,
1820,720,-3.201246,-13.018430,0.999997,0.000195,-0.005048,0.010085,-0.000495,0.010101,-0.005065,-88.127162,0.010101,
710,200,1.117530,-18.520701,0.999997,0.000200,-0.004393,0.009916,0.001094,0.009999,-0.004476,85.652383,0.010018,
1510,1230,-1.757938,-7.461341,0.999995,0.000274,-0.007442,0.013031,0.000050,0.013031,-0.007442,89.861055,0.013075,
1010,580,0.753927,-15.769140,0.999997,0.000250,-0.004822,0.009205,-0.001755,0.009421,-0.005039,-82.974926,0.009429,
1440,740,-0.891231,-14.242664,0.999995,0.000296,-0.006895,0.011101,0.002667,0.011488,-0.007282,81.745868,0.011625,
1150,30,0.004997,-20.095953,0.999998,0.000000,-0.000116,0.005979,0.000175,0.005984,-0.000121,88.361058,0.006841,
1660,1290,-2.489214,-7.248992,0.999994,0.000288,-0.006026,0.011266,0.000792,0.011302,-0.006062,87.384204,0.011312,
730,790,3.003744,-12.483614,0.999997,0.000244,-0.005338,0.010534,0.000988,0.010595,-0.005400,86.450040,0.010596,
770,990,3.388863,-10.455227,0.999995,0.000266,-0.004244,0.009952,0.000355,0.009961,-0.004253,88.567293,0.009997,
1670,1910,-0.575367,-0.984011,0.999995,0.000266,-0.002771,0.008593,0.001641,0.008825,-0.003003,81.944764,0.008974,
1870,530,-2.833202,-14.808203,0.999997,0.000210,-0.005049,0.010143,0.000014,0.010143,-0.005049,89.947649,0.010143,
840,810,2.449604,-12.484666,0.999994,0.000280,-0.006209,0.011638,0.001043,0.011699,-0.006270,86.667327,0.011709,
840,470,1.412420,-16.211391,0.999996,0.000218,-0.004874,0.009926,-0.000473,0.009941,-0.004889,-88.171481,0.009942,
990,340,0.572435,-17.805441,0.999997,0.000201,-0.002909,0.008235,-0.000159,0.008237,-0.002911,-89.182083,0.008354,
640,1780,1.785175,-2.614372,0.999996,0.000237,-0.004813,0.010106,-0.000276,0.010111,-0.004818,-88.939362,0.010115,
940,820,1.828347,-12.699040,0.999995,0.000256,-0.007332,0.012863,0.000200,0.012865,-0.007334,89.431392,0.012907,
1700,1230,-2.956332,-7.991933,0.999998,0.000188,-0.005407,0.010707,0.001153,0.010789,-0.005489,85.929629,0.010790,
990,920,2.113708,-11.625503,0.999993,0.000316,-0.006314,0.014061,0.000437,0.014070,-0.006323,88.771615,0.014094,
980,1060,2.579179,-9.627009,0.999993,0.000348,-0.004359,0.014044,-0.000393,0.014053,-0.004368,-88.775972,0.014384,
1330,510,-0.262354,-16.757036,0.999997,0.000196,-0.002903,0.007317,0.000924,0.007400,-0.002985,84.874056,0.007446,
1790,1040,-3.827615,-9.960879,0.999997,0.000203,-0.004357,0.009363,0.000227,0.009367,-0.004361,89.051522,0.009375,
1470,630,-0.894655,-15.207842,0.999996,0.000232,-0.005507,0.009869,0.001869,0.010093,-0.005731,83.169055,0.010124,
1170,1270,0.167519,-4.915698,0.999997,0.000216,-0.003368,0.004026,0.003293,0.005280,-0.004622,69.154730,0.005754,
800,550,1.811788,-15.258998,0.999995,0.000261,-0.005395,0.010454,-0.000374,0.010463,-0.005404,-88.647326,0.010465,
850,1910,0.451105,-0.931070,0.999996,0.000222,-0.001921,0.008073,-0.001460,0.008282,-0.002130,-81.854599,0.008601,
750,1200,3.137498,-8.332350,0.999996,0.000260,-0.005130,0.010490,-0.001139,0.010573,-0.005213,-85.851854,0.010573,
910,1090,2.765233,-9.369042,0.999995,0.000275,-0.004250,0.011533,-0.001129,0.011614,-0.004330,-85.929974,0.011738,
1050,140,0.148901,-19.381209,0.999998,0.000157,-0.001141,0.006814,0.000446,0.006839,-0.001166,86.801640,0.007318,
1260,1250,-0.094350,-4.761625,0.999995,0.000269,-0.003422,0.002348,-0.001540,0.002733,-0.003808,-75.953485,0.003926,
1020,1440,0.736613,-4.673160,0.999995,0.000271,-0.005120,0.009341,0.002064,0.009629,-0.005409,82.033966,0.009654,
1070,710,0.549682,-14.913732,0.999994,0.000285,-0.005560,0.009059,-0.003281,0.009762,-0.006262,-77.912744,0.009891,
1890,1670,-2.499295,-3.957782,0.999995,0.000246,-0.004908,0.009791,-0.000125,0.009792,-0.004909,-89.514145,0.009792,
1130,1830,0.138876,-1.327683,0.999998,0.000187,-0.001579,0.006928,-0.000042,0.006928,-0.001579,-89.715750,0.007262,
980,1830,0.396636,-1.443553,0.999996,0.000207,-0.002124,0.007718,-0.000455,0.007739,-0.002145,-87.361476,0.007991,
1840,850,-3.739385,-11.698417,0.999996,0.000246,-0.004675,0.009520,-0.000644,0.009549,-0.004704,-87.406358,0.009549,
1900,1000,-4.276041,-10.307347,0.999996,0.000000,-0.004037,0.008085,-0.000213,0.008088,-0.004040,-88.992847,0.008088,
1760,1460,-2.465042,-5.682102,0.999996,0.000238,-0.005387,0.010392,0.000056,0.010392,-0.005387,89.796276,0.010394,
1110,1900,0.109664,-0.859986,0.999998,0.000155,-0.000976,0.006692,-0.000282,0.006702,-0.000987,-87.895470,0.007237,
1550,1630,-0.990408,-3.288441,0.999997,0.000196,-0.004291,0.009318,-0.000540,0.009339,-0.004312,-87.732867,0.009349,
1880,190,-1.652735,-18.154909,0.999996,0.000243,-0.004891,0.009940,-0.000510,0.009958,-0.004909,-88.033270,0.009958,
1780,510,-2.315843,-15.296672,0.999995,0.000255,-0.005154,0.010266,0.000138,0.010267,-0.005155,89.486309,0.010267,
1140,2020,0.008462,-0.092394,0.999998,0.000000,-0.000224,0.006021,-0.000165,0.006026,-0.000228,-88.492046,0.006830,
870,2000,0.113932,-0.242586,0.999997,0.000209,-0.000677,0.006964,-0.001452,0.007230,-0.000944,-79.596470,0.007861,
1820,700,-3.129884,-13.219810,0.999997,0.000207,-0.005100,0.010121,-0.000440,0.010134,-0.005113,-88.346472,0.010134,
1440,720,-0.851609,-14.459872,0.999994,0.000293,-0.006556,0.010714,0.002601,0.011097,-0.006940,81.617199,0.011213,
680,50,0.249471,-19.899341,0.999997,0.000219,-0.000833,0.008612,0.003636,0.009849,-0.002071,71.204001,0.010386,
900,390,0.976593,-17.162284,0.999997,0.000203,-0.004123,0.009214,-0.000316,0.009222,-0.004130,-88.645136,0.009239,
1270,1330,-0.077124,-4.547832,0.999997,0.000214,-0.002314,0.004115,-0.001749,0.004560,-0.002759,-75.724964,0.004594,
810,1490,1.795850,-5.024019,0.999996,0.000219,-0.005479,0.010473,0.000365,0.010482,-0.005488,88.691054,0.010486,
1320,670,-0.223415,-15.686821,0.999996,0.000226,-0.003302,0.006375,0.002454,0.006962,-0.003888,76.554546,0.006977,
1580,410,-1.090797,-16.926460,0.999996,0.000251,-0.004263,0.009390,0.000371,0.009400,-0.004273,88.444339,0.009413,
1850,410,-2.377562,-16.088016,0.999996,0.000229,-0.004986,0.010010,0.000136,0.010011,-0.004988,89.480245,0.010012,
1890,1230,-3.891208,-8.342105,0.999996,0.000226,-0.004497,0.009243,0.000240,0.009247,-0.004501,88.999334,0.009248,
1010,560,0.738748,-15.951784,0.999997,0.000212,-0.004565,0.009042,-0.001554,0.009218,-0.004741,-83.566632,0.009219,
1020,1420,0.758081,-4.863437,0.999994,0.000286,-0.005345,0.009459,0.002196,0.009778,-0.005664,81.737708,0.009819,
940,1040,2.767838,-9.932712,0.999996,0.000243,-0.003600,0.011823,-0.000266,0.011828,-0.003605,-89.012863,0.012125,
1450,500,-0.677147,-16.496479,0.999996,0.000210,-0.004123,0.008746,0.001219,0.008861,-0.004238,84.635499,0.008864,
690,450,2.110345,-15.933583,0.999996,0.000247,-0.004989,0.010129,-0.000174,0.010131,-0.004991,-89.339030,0.010131,
910,1070,2.828644,-9.598774,0.999996,0.000265,-0.003883,0.011487,-0.000886,0.011537,-0.003934,-86.710527,0.011730,
1890,480,-2.786169,-15.253532,0.999995,0.000271,-0.004924,0.010102,0.000021,0.010102,-0.004924,89.921083,0.010103,
1370,1900,-0.125541,-0.865904,0.999998,0.000169,-0.000924,0.006744,0.000370,0.006762,-0.000941,87.240784,0.007325,
640,1070,3.945922,-9.689749,0.999997,0.000231,-0.004298,0.009047,-0.000217,0.009051,-0.004301,-89.070715,0.009054,
740,930,3.412949,-11.047859,0.999995,0.000238,-0.004559,0.009928,0.000856,0.009978,-0.004609,86.630454,0.009988,
850,1190,2.638779,-8.298128,0.999994,0.000305,-0.005708,0.011544,-0.001375,0.011652,-0.005816,-85.472839,0.011652,
840,790,2.363686,-12.716620,0.999993,0.000292,-0.006315,0.011625,0.000860,0.011666,-0.006357,87.261195,0.011682,
1070,690,0.532848,-15.093719,0.999993,0.000306,-0.005217,0.008863,-0.003043,0.009493,-0.005847,-78.311587,0.009578,
1550,1610,-1.025504,-3.476723,0.999998,0.000191,-0.004408,0.009423,-0.000643,0.009453,-0.004438,-87.342412,0.009459,
1880,180,-1.593085,-18.256533,0.999995,0.000254,-0.004897,0.010073,-0.000638,0.010100,-0.004924,-87.562241,0.010102,
960,1830,0.443739,-1.464040,0.999996,0.000217,-0.002445,0.007853,-0.000445,0.007873,-0.002465,-87.530993,0.008054,
1300,1770,-0.118477,-1.732126,0.999998,0.000166,-0.001664,0.007054,0.000038,0.007054,-0.001664,89.747720,0.007375,
1680,1960,-0.359826,-0.573766,0.999996,0.000251,-0.001736,0.008019,0.002098,0.008451,-0.002168,78.363578,0.008779,
640,1760,1.863389,-2.818860,0.999996,0.000239,-0.004819,0.010065,-0.000165,0.010067,-0.004821,-89.365965,0.010070,
1130,1810,0.154299,-1.468885,0.999998,0.000177,-0.001720,0.007016,0.000006,0.007016,-0.001720,89.957578,0.007313,
1170,1490,0.155605,-3.707888,0.999997,0.000204,-0.002778,0.006669,0.001012,0.006776,-0.002886,83.951219,0.006801,
1240,1250,-0.029095,-4.698346,0.999997,0.000227,-0.003529,0.002016,-0.000476,0.002056,-0.003570,-85.130926,0.003583,
1780,1170,-3.565700,-8.716612,0.999995,0.000245,-0.004770,0.009831,0.000913,0.009888,-0.004827,86.435747,0.009889,
1470,850,-1.597442,-12.617202,0.999991,0.000370,-0.007764,0.013577,0.000621,0.013595,-0.007782,88.335146,0.013643,
1330,490,-0.257787,-16.905954,0.999997,0.000193,-0.002864,0.007295,0.000854,0.007366,-0.002935,85.229662,0.007416,
1140,1180,0.912961,-5.648984,0.999997,0.000000,-0.003282,0.003782,0.002444,0.004546,-0.004045,72.658822,0.004985,
1170,140,0.046791,-19.413755,0.999998,0.000146,-0.000664,0.006427,0.000157,0.006431,-0.000668,88.734321,0.007072,
980,1040,2.614464,-9.919364,0.999994,0.000338,-0.004216,0.013758,-0.000122,0.013759,-0.004217,-89.611887,0.014098,
720,870,3.337789,-11.637523,0.999996,0.000258,-0.004959,0.010152,0.001058,0.010226,-0.005033,86.013244,0.010226,
1880,1670,-2.451985,-3.923058,0.999997,0.000181,-0.004924,0.009838,-0.000107,0.009839,-0.004924,-89.583579,0.009839,
1440,700,-0.813843,-14.670230,0.999994,0.000308,-0.006228,0.010362,0.002578,0.010754,-0.006620,81.368707,0.010849,
840,650,1.856125,-14.323177,0.999997,0.000193,-0.006070,0.011105,-0.000266,0.011109,-0.006074,-89.113404,0.011126,
850,2000,0.125190,-0.247537,0.999998,0.000156,-0.000483,0.007044,-0.001612,0.007374,-0.000814,-78.407868,0.008086,
1820,680,-3.059264,-13.424496,0.999997,0.000220,-0.005117,0.010156,-0.000373,0.010165,-0.005126,-88.602779,0.010165,
1280,1760,-0.090739,-1.796801,0.999998,0.000147,-0.001736,0.007031,-0.000009,0.007031,-0.001736,-89.940658,0.007325,
1520,590,-1.114865,-15.377008,0.999997,0.000194,-0.005501,0.010167,0.001296,0.010274,-0.005608,85.301789,0.010288,
700,430,2.003283,-16.171118,0.999997,0.000214,-0.004960,0.010119,-0.000161,0.010120,-0.004962,-89.388956,0.010121,
810,80,0.252428,-19.719519,0.999997,0.000212,-0.001220,0.007659,0.001956,0.008071,-0.001632,78.110014,0.008535,
1010,500,0.689725,-16.484827,0.999995,0.000262,-0.004130,0.008778,-0.001230,0.008894,-0.004246,-84.605741,0.008897,
1880,1230,-3.846925,-8.316590,0.999997,0.000212,-0.004539,0.009255,0.000283,0.009261,-0.004544,88.823892,0.009262,
1020,1400,0.776133,-5.052714,0.999995,0.000284,-0.005576,0.009738,0.002280,0.010070,-0.005909,81.707499,0.010121,
930,1880,0.392097,-1.107750,0.999997,0.000238,-0.001748,0.007660,-0.000874,0.007741,-0.001828,-84.739679,0.008092,
810,1470,1.849869,-5.236960,0.999995,0.000247,-0.005602,0.010619,0.000312,0.010625,-0.005608,88.898510,0.010630,
690,430,2.052769,-16.138107,0.999996,0.000221,-0.004967,0.010127,-0.000163,0.010129,-0.004969,-89.381323,0.010130,
990,1320,1.111435,-6.100216,0.999995,0.000282,-0.007099,0.011561,0.001891,0.011751,-0.007289,84.271299,0.011863,
1510,1210,-1.870062,-7.726492,0.999995,0.000303,-0.007279,0.013149,0.000346,0.013154,-0.007285,89.030883,0.013180,
1450,600,-0.759524,-15.593892,0.999997,0.000186,-0.005034,0.009369,0.001926,0.009622,-0.005287,82.514376,0.009637,
770,970,3.368655,-10.657000,0.999995,0.000253,-0.004357,0.010115,0.000664,0.010146,-0.004387,87.378316,0.010176,
1880,170,-1.530286,-18.359116,0.999995,0.000255,-0.004904,0.010160,-0.000735,0.010195,-0.004939,-87.211643,0.010197,
1550,1590,-1.062101,-3.668104,0.999998,0.000195,-0.004489,0.009480,-0.000703,0.009516,-0.004524,-87.127714,0.009519,
1070,670,0.522057,-15.268219,0.999995,0.000249,-0.004925,0.008685,-0.002787,0.009234,-0.005473,-78.865644,0.009287,
1050,920,1.720923,-12.241736,0.999987,0.000398,-0.006357,0.014228,-0.003949,0.014960,-0.007088,-79.504256,0.014966,
1900,1020,-4.293275,-10.142482,0.999998,0.000000,-0.004032,0.008297,-0.000113,0.008298,-0.004033,-89.475689,0.008299,
1690,70,-0.255832,-19.776497,0.999997,0.000203,-0.001213,0.007748,-0.002253,0.008283,-0.001748,-76.652324,0.008732,
1240,470,-0.021356,-17.143353,0.999997,0.000217,-0.002520,0.006892,0.000155,0.006895,-0.002522,89.055137,0.006977,
730,770,2.927173,-12.698393,0.999996,0.000265,-0.005448,0.010654,0.000890,0.010703,-0.005498,86.844870,0.010704,
1370,1300,-0.474710,-5.456367,0.999993,0.000339,-0.005706,0.008675,-0.003994,0.009710,-0.006741,-75.474015,0.009951,
1130,1790,0.164162,-1.608212,0.999997,0.000183,-0.001879,0.007104,0.000062,0.007105,-0.001880,89.603511,0.007362,
900,810,2.059583,-12.660199,0.999995,0.000294,-0.006839,0.012364,0.000616,0.012384,-0.006859,88.163248,0.012408,
1470,1480,-0.835047,-4.421954,0.999997,0.000212,-0.004953,0.009462,-0.001647,0.009648,-0.005139,-83.562407,0.009655,
840,450,1.369258,-16.411243,0.999996,0.000259,-0.004804,0.009909,-0.000424,0.009921,-0.004816,-88.350977,0.009923,
1850,630,-3.043586,-13.848152,0.999996,0.000244,-0.005047,0.010165,-0.000134,0.010166,-0.005048,-89.493695,0.010166,
1880,1000,-4.196118,-10.313959,0.999996,0.000224,-0.004074,0.008424,-0.000215,0.008427,-0.004077,-89.013265,0.008429,
1140,1170,1.039619,-5.687066,0.999996,0.000000,-0.002829,0.003514,0.002886,0.004631,-0.003946,68.852280,0.004999,
910,1050,2.862058,-9.830551,0.999996,0.000235,-0.003691,0.011282,-0.000517,0.011300,-0.003709,-88.023816,0.011520,
940,800,1.727294,-12.957438,0.999993,0.000292,-0.007406,0.012689,-0.000133,0.012690,-0.007407,-89.620518,0.012749,
1870,1670,-2.402049,-3.888751,0.999997,0.000206,-0.004951,0.009908,-0.000097,0.009909,-0.004951,-89.626623,0.009909,
860,1240,2.349964,-7.687326,0.999993,0.000297,-0.006356,0.011892,-0.000991,0.011945,-0.006410,-86.901479,0.011956,
1440,680,-0.785767,-14.875730,0.999993,0.000322,-0.005888,0.010003,0.002479,0.010381,-0.006266,81.336858,0.010455,
720,930,3.503632,-11.034468,0.999996,0.000227,-0.004587,0.009816,0.000815,0.009862,-0.004633,86.772818,0.009868,
590,110,1.066326,-19.024789,0.999997,0.000210,-0.004642,0.010837,0.001877,0.011062,-0.004866,83.184819,0.011088,
1220,1880,0.010849,-0.968322,0.999998,0.000156,-0.001086,0.006516,0.000025,0.006516,-0.001086,89.815187,0.006982,
790,680,2.252790,-13.827565,0.999997,0.000226,-0.005923,0.010971,0.000236,0.010974,-0.005926,89.200183,0.010986,
1070,650,0.515461,-15.439324,0.999996,0.000244,-0.004700,0.008536,-0.002615,0.009034,-0.005198,-79.219313,0.009068,
660,1790,1.647834,-2.447634,0.999997,0.000202,-0.004711,0.010153,-0.000549,0.010174,-0.004732,-87.886071,0.010182,
1330,470,-0.254592,-17.048670,0.999998,0.000179,-0.002804,0.007315,0.000778,0.007375,-0.002864,85.628269,0.007436,
1170,1250,0.200574,-4.995111,0.999995,0.000243,-0.003832,0.003732,0.003167,0.004882,-0.004983,70.030870,0.005697,
900,1830,0.586630,-1.536906,0.999996,0.000235,-0.002551,0.008291,-0.000754,0.008343,-0.002603,-86.043055,0.008537,
1220,1370,0.023471,-4.325489,0.999998,0.000172,-0.002092,0.004597,0.000487,0.004632,-0.002127,85.861566,0.004637,
760,1450,2.185654,-5.613422,0.999996,0.000262,-0.005554,0.010618,0.000043,0.010618,-0.005554,89.846940,0.010622,
1550,1570,-1.093896,-3.857733,0.999997,0.000221,-0.004577,0.009550,-0.000754,0.009590,-0.004617,-86.955146,0.009592,
1870,1230,-3.801542,-8.291065,0.999997,0.000209,-0.004583,0.009283,0.000352,0.009292,-0.004592,88.546657,0.009292,
1760,1440,-2.526982,-5.890709,0.999995,0.000261,-0.005388,0.010412,0.000133,0.010413,-0.005389,89.517500,0.010415,
940,1570,0.970122,-3.769421,0.999997,0.000166,-0.004535,0.009422,0.000929,0.009483,-0.004597,86.207157,0.009485,
980,1020,2.620742,-10.178374,0.999994,0.000308,-0.004191,0.013602,0.000092,0.013603,-0.004191,89.702884,0.013933,
640,1740,1.939400,-3.020252,0.999995,0.000266,-0.004854,0.010016,-0.000079,0.010017,-0.004855,-89.694941,0.010018,
1140,880,0.967599,-14.494138,0.999977,0.000000,-0.003474,0.003553,-0.003022,0.004674,-0.004595,-69.648836,0.005352,
930,1860,0.440148,-1.262731,0.999996,0.000220,-0.001978,0.007920,-0.000842,0.007991,-0.002050,-85.173500,0.008301,
910,1030,2.884670,-10.052584,0.999996,0.000235,-0.003569,0.011167,-0.000066,0.011167,-0.003569,-89.742819,0.011407,
1380,280,-0.265326,-18.405748,0.999997,0.000190,-0.001855,0.007411,-0.000093,0.007412,-0.001856,-89.422064,0.007713,
1020,1380,0.797938,-5.251894,0.999994,0.000307,-0.005861,0.009997,0.002412,0.010356,-0.006220,81.539068,0.010425,
1550,80,-0.155931,-19.749245,0.999998,0.000165,-0.000620,0.006979,-0.001247,0.007178,-0.000819,-80.914013,0.007859,
630,1680,2.186879,-3.661396,0.999996,0.000247,-0.004948,0.010073,0.000077,0.010073,-0.004949,89.705642,0.010074,
660,330,1.890383,-17.052903,0.999997,0.000226,-0.004912,0.010022,0.000049,0.010022,-0.004912,89.810926,0.010023,
630,40,0.240307,-19.933036,0.999998,0.000186,-0.003652,0.008862,0.002992,0.009541,-0.004330,77.219837,0.009554,
670,1540,2.397680,-4.955774,0.999995,0.000244,-0.005158,0.010213,0.000121,0.010214,-0.005159,89.549067,0.010214,
1470,610,-0.873050,-15.402771,0.999997,0.000207,-0.005262,0.009759,0.001770,0.009965,-0.005468,83.369194,0.009980,
1690,1510,-1.944033,-4.936969,0.999995,0.000264,-0.005350,0.010395,-0.000258,0.010399,-0.005354,-89.059724,0.010400,
690,410,1.994117,-16.341361,0.999997,0.000198,-0.004958,0.010124,-0.000157,0.010125,-0.004959,-89.401907,0.010126,
1510,1190,-1.989414,-7.992350,0.999994,0.000305,-0.006993,0.013187,0.000662,0.013208,-0.007015,88.121826,0.013217,
1280,1770,-0.085899,-1.726777,0.999998,0.000142,-0.001685,0.007010,0.000035,0.007010,-0.001686,89.767385,0.007318,
1820,660,-2.991800,-13.628115,0.999997,0.000215,-0.005116,0.010221,-0.000282,0.010226,-0.005121,-88.947821,0.010226,
1330,690,-0.258446,-15.496055,0.999997,0.000204,-0.003655,0.006598,0.002891,0.007357,-0.004415,75.289538,0.007406,
1010,1640,0.601852,-2.938473,0.999996,0.000211,-0.003362,0.008348,0.000607,0.008380,-0.003393,87.043061,0.008430,
1170,830,0.299627,-15.079648,0.999993,0.000314,-0.004507,0.003586,-0.002166,0.004130,-0.005050,-75.918637,0.005380,
770,950,3.323961,-10.860718,0.999996,0.000247,-0.004476,0.010172,0.000920,0.010229,-0.004534,86.419872,0.010251,
860,1280,2.173179,-7.209353,0.999995,0.000250,-0.006543,0.011821,-0.000584,0.011839,-0.006562,-88.179164,0.011863,
580,130,1.271730,-18.758710,0.999992,0.000356,-0.004755,0.010748,0.001553,0.010902,-0.004909,84.336980,0.010920,
1440,660,-0.766072,-15.074750,0.999995,0.000297,-0.005581,0.009755,0.002355,0.010109,-0.005934,81.464600,0.010160,
1720,1340,-2.649884,-6.844320,0.999995,0.000313,-0.005640,0.010735,0.000587,0.010756,-0.005661,87.950491,0.010761,
1280,1800,-0.077574,-1.518428,0.999998,0.000171,-0.001491,0.006900,0.000031,0.006900,-0.001491,89.786264,0.007262,
1760,1170,-3.469266,-8.693559,0.999996,0.000251,-0.004812,0.010001,0.001010,0.010070,-0.004881,86.118499,0.010071,
880,1830,0.643498,-1.565964,0.999997,0.000197,-0.003037,0.008468,-0.000717,0.008513,-0.003081,-86.448892,0.008620,
1200,1370,0.066045,-4.353592,0.999998,0.000149,-0.002284,0.004849,0.001084,0.005010,-0.002445,81.546188,0.005010,
1520,210,-0.454813,-18.788111,0.999997,0.000205,-0.002218,0.007833,-0.000637,0.007873,-0.002259,-86.388046,0.008108,
1610,630,-1.719803,-14.592836,0.999995,0.000272,-0.005988,0.010919,0.000467,0.010932,-0.006001,88.420217,0.010949,
1850,390,-2.317201,-16.288601,0.999996,0.000213,-0.004956,0.010024,0.000134,0.010025,-0.004957,89.486160,0.010025,
810,1480,1.822679,-5.130125,0.999996,0.000230,-0.005543,0.010539,0.000336,0.010546,-0.005550,88.802028,0.010551,
1220,1640,0.027015,-2.630911,0.999998,0.000187,-0.002350,0.007052,0.000160,0.007054,-0.002352,89.026724,0.007183,
940,760,1.555585,-13.457852,0.999994,0.000268,-0.007266,0.012272,-0.000660,0.012294,-0.007288,-88.066380,0.012365,
1900,1740,-2.309903,-3.306462,0.999995,0.000000,-0.004841,0.009752,-0.000074,0.009752,-0.004841,-89.709157,0.009752,
1550,1550,-1.125146,-4.047432,0.999997,0.000215,-0.004787,0.009680,-0.000853,0.009730,-0.004837,-86.635867,0.009730,
920,1570,1.061600,-3.834721,0.999997,0.000237,-0.004574,0.009492,0.000798,0.009538,-0.004619,86.763251,0.009539,
600,1320,3.467188,-7.406448,0.999997,0.000226,-0.004921,0.009802,-0.000334,0.009810,-0.004929,-88.701076,0.009810,
1120,1450,0.307625,-4.126169,0.999997,0.000218,-0.003525,0.007223,0.001929,0.007558,-0.003861,80.128001,0.007559,
1720,1690,-1.601528,-3.192703,0.999995,0.000242,-0.004733,0.009983,0.000066,0.009983,-0.004733,89.742817,0.009987,
1410,760,-0.734319,-14.276475,0.999995,0.000268,-0.006848,0.010577,0.003350,0.011199,-0.007469,79.485151,0.011405,
1630,1950,-0.326517,-0.624572,0.999997,0.000206,-0.001246,0.007812,0.001730,0.008131,-0.001566,79.545198,0.008628,
980,1000,2.593351,-10.455824,0.999993,0.000316,-0.004300,0.014033,0.000368,0.014040,-0.004307,88.851288,0.014385,
910,1010,2.866805,-10.275218,0.999998,0.000201,-0.003642,0.011237,0.000433,0.011250,-0.003655,88.335250,0.011478,
1140,30,0.007225,-20.095139,0.999998,0.000000,-0.000134,0.005979,0.000185,0.005984,-0.000139,88.265830,0.006831,
1250,140,-0.014243,-19.417290,0.999998,0.000179,-0.000818,0.006412,-0.000023,0.006412,-0.000818,-89.818705,0.006980,
680,430,2.102049,-16.104839,0.999996,0.000219,-0.005004,0.010141,-0.000157,0.010142,-0.005005,-89.407123,0.010143,
1350,1900,-0.106869,-0.860051,0.999998,0.000161,-0.001011,0.006664,0.000281,0.006674,-0.001022,87.908030,0.007189,
1120,1250,0.431151,-5.565976,0.999994,0.000325,-0.005434,0.007377,0.004530,0.008817,-0.006873,72.366945,0.009265,
1760,650,-2.641814,-13.902461,0.999995,0.000268,-0.005425,0.010437,-0.000301,0.010443,-0.005430,-88.911782,0.010445,
620,40,0.285826,-19.898614,0.999993,0.000314,-0.003629,0.009267,0.003282,0.010055,-0.004416,76.511830,0.010079,
1890,1290,-3.701048,-7.782865,0.999995,0.000251,-0.004780,0.009712,0.000216,0.009715,-0.004783,89.146310,0.009715,
570,1120,4.174912,-9.321645,0.999987,0.000460,-0.003959,0.008416,-0.000281,0.008423,-0.003965,-88.701616,0.008427,
1020,1580,0.623318,-3.421387,0.999996,0.000244,-0.003850,0.008578,0.001083,0.008671,-0.003944,85.055534,0.008683,
1450,620,-0.780808,-15.401629,0.999997,0.000208,-0.005235,0.009487,0.002046,0.009766,-0.005514,82.231293,0.009793,
990,80,0.102192,-19.769268,0.999998,0.000165,-0.000457,0.006662,0.000834,0.006758,-0.000553,83.403174,0.007505,
1380,260,-0.247754,-18.551312,0.999997,0.000188,-0.001731,0.007248,-0.000126,0.007250,-0.001732,-89.196899,0.007572,
1650,500,-1.618909,-15.823128,0.999994,0.000269,-0.005171,0.010233,0.000411,0.010244,-0.005182,88.474445,0.010245,
1410,1380,-0.614294,-5.041417,0.999994,0.000271,-0.005363,0.009155,-0.002760,0.009662,-0.005870,-79.592189,0.009736,
1400,270,-0.293711,-18.461083,0.999997,0.000212,-0.002084,0.007412,-0.000057,0.007412,-0.002084,-89.656767,0.007645,
1510,1170,-2.115134,-8.258294,0.999995,0.000277,-0.006567,0.013217,0.000960,0.013264,-0.006614,87.229317,0.013264,
730,750,2.851565,-12.912460,0.999996,0.000249,-0.005534,0.010599,0.000796,0.010638,-0.005573,87.182229,0.010642,
1050,930,1.802702,-12.094583,0.999985,0.000449,-0.006392,0.014873,-0.004362,0.015733,-0.007252,-78.846950,0.015749,
1880,140,-1.332933,-18.665566,0.999995,0.000285,-0.004833,0.010497,-0.001227,0.010594,-0.004930,-85.452924,0.010603,
1130,1770,0.180750,-1.753811,0.999998,0.000181,-0.001997,0.007181,0.000097,0.007182,-0.001998,89.394864,0.007414,
1070,630,0.510320,-15.608477,0.999995,0.000250,-0.004537,0.008349,-0.002439,0.008795,-0.004983,-79.634405,0.008821,
710,1740,1.599854,-2.793650,0.999996,0.000225,-0.004842,0.010009,-0.000151,0.010010,-0.004843,-89.416335,0.010012,
1470,570,-0.831014,-15.785349,0.999996,0.000242,-0.004917,0.009385,0.001580,0.009558,-0.005090,83.770560,0.009564,
1310,680,-0.188847,-15.672666,0.999996,0.000237,-0.003093,0.006023,0.002358,0.006596,-0.003666,76.324128,0.006610,
1610,610,-1.666607,-14.809258,0.999995,0.000279,-0.005839,0.010674,0.000552,0.010693,-0.005858,88.087174,0.010709,
1870,780,-3.657566,-12.291694,0.999995,0.000245,-0.004747,0.009643,-0.000332,0.009650,-0.004755,-88.677160,0.009651,
570,1680,2.492320,-3.865056,0.999593,0.002638,-0.007199,0.009926,-0.000675,0.009953,-0.007226,-87.746586,0.010286,
770,930,3.275952,-11.065664,0.999995,0.000257,-0.004604,0.010145,0.000923,0.010202,-0.004661,86.433001,0.010215,
870,790,2.169854,-12.803844,0.999995,0.000273,-0.006599,0.011977,0.000677,0.012001,-0.006624,87.914094,0.012023,
810,1450,1.902404,-5.450094,0.999996,0.000215,-0.005712,0.010705,0.000256,0.010709,-0.005716,89.106323,0.010717,
1080,1510,0.443582,-3.817890,0.999995,0.000242,-0.003605,0.007923,0.001502,0.008115,-0.003798,82.695165,0.008121,
1440,640,-0.747028,-15.267923,0.999995,0.000280,-0.005364,0.009476,0.002247,0.009809,-0.005697,81.577630,0.009852,
1690,1490,-1.996896,-5.144390,0.999995,0.000266,-0.005457,0.010465,-0.000207,0.010468,-0.005459,-89.256852,0.010471,
940,740,1.480610,-13.702809,0.999994,0.000276,-0.007103,0.011970,-0.000839,0.012007,-0.007140,-87.487210,0.012078,
610,1820,1.754989,-2.331441,0.999996,0.000209,-0.004848,0.009959,-0.000237,0.009963,-0.004851,-89.083507,0.009964,
580,120,1.191761,-18.868052,0.999994,0.000318,-0.004586,0.010882,0.001738,0.011075,-0.004779,83.669021,0.011109,
1260,1370,-0.060284,-4.347834,0.999998,0.000172,-0.002229,0.004798,-0.001009,0.004940,-0.002371,-81.986614,0.004941,
1760,1420,-2.591268,-6.100904,0.999995,0.000272,-0.005408,0.010415,0.000227,0.010418,-0.005412,89.179314,0.010420,
640,1720,2.005727,-3.222158,0.999996,0.000269,-0.004912,0.010054,0.000011,0.010054,-0.004912,89.957083,0.010055,
1900,1730,-2.344703,-3.406220,0.999996,0.000000,-0.004879,0.009782,-0.000067,0.009782,-0.004879,-89.736341,0.009782,
1550,1530,-1.158856,-4.244479,0.999996,0.000246,-0.005039,0.009882,-0.000945,0.009941,-0.005099,-86.389579,0.009942,
860,1070,3.022354,-9.629166,0.999997,0.000231,-0.003962,0.010698,-0.000715,0.010733,-0.003996,-87.212910,0.010849,
1500,210,-0.405701,-18.813059,0.999997,0.000224,-0.002271,0.007696,-0.000506,0.007722,-0.002297,-87.100401,0.007930,
690,390,1.936955,-16.544395,0.999997,0.000193,-0.004922,0.010122,-0.000107,0.010123,-0.004923,-89.590625,0.010124,
1030,1640,0.539996,-2.896434,0.999997,0.000197,-0.003169,0.008142,0.000603,0.008174,-0.003201,86.958080,0.008238,
1630,1970,-0.255273,-0.476346,0.999997,0.000193,-0.000925,0.007548,0.001828,0.007926,-0.001303,78.329371,0.008500,
600,1300,3.537050,-7.602851,0.999996,0.000250,-0.004892,0.009824,-0.000351,0.009832,-0.004900,-88.635827,0.009832,
1040,1430,0.643119,-4.660818,0.999995,0.000275,-0.004907,0.008973,0.002194,0.009312,-0.005245,81.228221,0.009337,
1850,350,-2.186650,-16.691875,0.999997,0.000220,-0.004877,0.009964,0.000126,0.009965,-0.004878,89.513119,0.009966,
1540,1550,-1.081013,-4.015829,0.999998,0.000190,-0.004683,0.009583,-0.000871,0.009636,-0.004736,-86.518219,0.009636,
1000,1250,1.288698,-6.885557,0.999991,0.000346,-0.007823,0.012679,0.001504,0.012789,-0.007933,85.827897,0.012912,
1410,740,-0.693399,-14.484806,0.999994,0.000271,-0.006448,0.010196,0.003290,0.010823,-0.007075,79.213953,0.010992,
1170,810,0.221797,-15.148570,0.999995,0.000273,-0.003975,0.003711,-0.003092,0.004800,-0.005065,-70.588528,0.005702,
1330,450,-0.249223,-17.197199,0.999998,0.000170,-0.002787,0.007371,0.000694,0.007418,-0.002834,86.111245,0.007487,
1380,240,-0.225413,-18.696299,0.999997,0.000193,-0.001572,0.007210,-0.000198,0.007214,-0.001577,-88.707234,0.007586,
1030,1900,0.196785,-0.893763,0.999997,0.000225,-0.001304,0.007014,-0.000566,0.007052,-0.001342,-86.127392,0.007489,
690,1700,1.827066,-3.261277,0.999996,0.000250,-0.004806,0.010065,-0.000021,0.010065,-0.004806,-89.917979,0.010069,
840,40,0.081283,-20.015049,0.999998,0.000180,-0.000126,0.006918,0.001709,0.007311,-0.000519,77.055258,0.008159,
1130,2020,0.011789,-0.094092,0.999998,0.000000,-0.000248,0.006004,-0.000154,0.006008,-0.000252,-88.587292,0.006797,
980,980,2.525336,-10.736226,0.999994,0.000283,-0.004596,0.013616,0.000610,0.013637,-0.004617,88.083335,0.013872,
1740,1690,-1.699531,-3.254027,0.999995,0.000287,-0.004888,0.010074,-0.000015,0.010074,-0.004888,-89.943803,0.010075,
1700,650,-2.308873,-14.072633,0.999993,0.000311,-0.005701,0.010698,-0.000171,0.010700,-0.005703,-89.401289,0.010708,
570,1670,2.529982,-3.969925,0.999709,0.002392,-0.008234,0.010232,-0.000414,0.010242,-0.008244,-88.715889,0.010858,
1020,860,1.447985,-12.725367,0.999991,0.000351,-0.007776,0.013657,-0.001361,0.013743,-0.007862,-86.380267,0.013790,
870,770,2.084191,-13.042153,0.999995,0.000252,-0.006639,0.011892,0.000452,0.011903,-0.006650,88.604737,0.011930,
1510,1150,-2.243193,-8.521673,0.999995,0.000265,-0.006107,0.013105,0.001122,0.013170,-0.006172,86.668941,0.013179,
1820,640,-2.924201,-13.835008,0.999997,0.000215,-0.005114,0.010229,-0.000216,0.010232,-0.005117,-89.193168,0.010232,
1470,550,-0.806719,-15.978161,0.999996,0.000244,-0.004692,0.009258,0.001464,0.009410,-0.004844,84.075045,0.009411,
1720,1100,-3.457145,-9.362746,0.999995,0.000262,-0.004469,0.010069,0.000823,0.010116,-0.004515,86.770674,0.010135,
580,1000,4.208008,-10.313214,0.999997,0.000190,-0.003534,0.008286,0.000124,0.008287,-0.003535,89.397729,0.008317,
1100,1510,0.371820,-3.750074,0.999996,0.000205,-0.003516,0.007678,0.001549,0.007889,-0.003726,82.263213,0.007893,
1130,1750,0.191184,-1.895977,0.999998,0.000169,-0.002123,0.007186,0.000205,0.007191,-0.002127,88.737211,0.007388,
1070,610,0.500180,-15.777011,0.999996,0.000236,-0.004361,0.008277,-0.002238,0.008662,-0.004746,-80.247098,0.008675,
1290,1690,-0.125797,-2.299202,0.999998,0.000178,-0.002123,0.007139,-0.000106,0.007140,-0.002124,-89.342762,0.007333,
940,720,1.418956,-13.938476,0.999993,0.000311,-0.006942,0.011706,-0.001004,0.011760,-0.006996,-86.928565,0.011830,
910,990,2.841943,-10.501618,0.999997,0.000242,-0.003834,0.011452,0.000790,0.011493,-0.003875,87.049130,0.011694,
1900,1720,-2.381839,-3.505805,0.999995,0.000000,-0.004936,0.009718,-0.000039,0.009718,-0.004936,-89.848751,0.009719,
920,270,0.650641,-18.269639,0.999996,0.000246,-0.002677,0.008411,0.000430,0.008428,-0.002694,87.782068,0.008609,
1440,620,-0.725644,-15.456532,0.999996,0.000257,-0.005140,0.009300,0.002137,0.009610,-0.005450,81.754766,0.009639,
1230,140,0.000324,-19.419717,0.999998,0.000146,-0.000822,0.006412,-0.000020,0.006412,-0.000822,-89.841297,0.006977,
1330,520,-0.263821,-16.684130,0.999997,0.000200,-0.002926,0.007273,0.000979,0.007366,-0.003019,84.568640,0.007406,
610,1800,1.843964,-2.530016,0.999997,0.000228,-0.004821,0.010018,-0.000177,0.010020,-0.004823,-89.317505,0.010022,
1880,1290,-3.652876,-7.751171,0.999994,0.000272,-0.004804,0.009738,0.000253,0.009743,-0.004809,89.003550,0.009743,
590,260,1.962070,-17.496457,0.999997,0.000202,-0.004813,0.009856,0.000102,0.009856,-0.004814,89.600505,0.009857,
1400,930,-1.722811,-12.352097,0.999988,0.000376,-0.005472,0.014494,0.006474,0.016410,-0.007387,73.518139,0.016437,
1630,500,-1.513775,-15.888174,0.999995,0.000269,-0.005132,0.010147,0.000493,0.010163,-0.005148,88.152012,0.010163,
1690,1470,-2.053705,-5.357464,0.999996,0.000231,-0.005547,0.010555,-0.000160,0.010557,-0.005549,-89.432278,0.010561,
770,910,3.226415,-11.269107,0.999996,0.000259,-0.004804,0.010396,0.001139,0.010481,-0.004889,85.739954,0.010488,
880,210,0.599161,-18.719109,0.999998,0.000186,-0.002842,0.008349,0.000820,0.008409,-0.002902,85.833960,0.008543,
1220,1600,0.028133,-2.913167,0.999997,0.000202,-0.002490,0.006944,0.000185,0.006947,-0.002494,88.876129,0.007039,
1550,1510,-1.197918,-4.449259,0.999996,0.000235,-0.005228,0.010052,-0.001000,0.010118,-0.005293,-86.272314,0.010121,
1240,1370,-0.016704,-4.320080,0.999998,0.000187,-0.002071,0.004581,-0.000355,0.004600,-0.002090,-86.957411,0.004606,
580,110,1.112961,-18.977052,0.999996,0.000242,-0.004428,0.011029,0.001926,0.011265,-0.004665,83.004212,0.011320,
980,1250,1.445657,-7.029416,0.999991,0.000368,-0.007778,0.012844,0.000955,0.012888,-0.007822,87.352983,0.012986,
640,1700,2.073730,-3.425373,0.999996,0.000229,-0.004931,0.010078,0.000002,0.010078,-0.004931,89.993606,0.010079,
1760,1400,-2.659983,-6.309474,0.999995,0.000286,-0.005428,0.010466,0.000328,0.010473,-0.005435,88.817284,0.010475,
1380,440,-0.384995,-17.187607,0.999997,0.000216,-0.003091,0.007790,0.000821,0.007851,-0.003152,85.711562,0.007902,
1430,80,-0.083216,-19.774589,0.999998,0.000164,-0.000548,0.006496,-0.000596,0.006547,-0.000598,-85.195889,0.007239,
1390,1380,-0.512394,-4.917983,0.999995,0.000263,-0.004952,0.008583,-0.002840,0.009155,-0.005523,-78.617736,0.009220,
710,1700,1.730953,-3.195560,0.999996,0.000231,-0.004849,0.010055,-0.000001,0.010055,-0.004849,-89.996258,0.010058,
1170,1580,0.152256,-3.086657,0.999998,0.000180,-0.002607,0.007050,0.000456,0.007072,-0.002628,87.302435,0.007149,
1850,330,-2.121429,-16.891033,0.999998,0.000208,-0.004870,0.009929,0.000119,0.009930,-0.004871,89.539920,0.009931,
660,1450,2.722023,-5.915521,0.999996,0.000235,-0.005216,0.010239,-0.000121,0.010240,-0.005217,-89.551731,0.010240,
1090,1900,0.127758,-0.865810,0.999998,0.000158,-0.000904,0.006763,-0.000371,0.006781,-0.000922,-87.235122,0.007356,
1720,790,-2.932379,-12.507083,0.999996,0.000238,-0.005481,0.010670,-0.000992,0.010730,-0.005542,-86.497771,0.010732,
790,1900,0.633541,-1.079215,0.999995,0.000278,-0.002953,0.008789,-0.001631,0.009011,-0.003175,-82.237718,0.009141,
690,370,1.875700,-16.747779,0.999997,0.000177,-0.004854,0.010107,-0.000027,0.010107,-0.004854,-89.895168,0.010109,
1660,40,-0.091555,-20.010796,0.999998,0.000196,-0.000703,0.007078,-0.001895,0.007515,-0.001140,-77.015227,0.008100,
980,1180,1.863628,-7.977193,0.999994,0.000292,-0.007237,0.013611,-0.000246,0.013614,-0.007240,-89.324648,0.013623,
1030,780,0.957647,-13.840433,0.999994,0.000286,-0.007477,0.011752,-0.002719,0.012130,-0.007854,-82.103820,0.012304,
1330,410,-0.236697,-17.495508,0.999998,0.000190,-0.002668,0.007364,0.000601,0.007399,-0.002704,86.584255,0.007488,
1510,1130,-2.366324,-8.783574,0.999995,0.000277,-0.005555,0.013001,0.001255,0.013086,-0.005640,86.148222,0.013127,
1170,790,0.170560,-15.221960,0.999995,0.000294,-0.003483,0.003980,-0.003275,0.005213,-0.004717,-69.364106,0.005755,
1650,1700,-1.254632,-2.893588,0.999995,0.000260,-0.004466,0.009618,0.000010,0.009618,-0.004466,89.959028,0.009626,
1030,930,1.933000,-11.815476,0.999994,0.000281,-0.006517,0.014928,-0.001879,0.015091,-0.006680,-85.029585,0.015124,
1820,620,-2.857718,-14.039871,0.999996,0.000242,-0.005150,0.010195,-0.000167,0.010197,-0.005151,-89.377627,0.010197,
870,750,2.002885,-13.280295,0.999996,0.000246,-0.006639,0.011806,0.000216,0.011808,-0.006642,89.330153,0.011839,
590,1820,1.849979,-2.419126,0.999996,0.000217,-0.004846,0.009833,-0.000196,0.009836,-0.004849,-89.234761,0.009836,
1900,1710,-2.416510,-3.600009,0.999995,0.000000,-0.005008,0.009644,-0.000004,0.009644,-0.005008,-89.982873,0.009646,
770,1110,3.311790,-9.247135,0.999996,0.000253,-0.004488,0.010170,-0.000909,0.010226,-0.004544,-86.463412,0.010247,
1130,1170,1.070135,-5.870310,0.999996,0.000000,-0.002375,0.004409,0.003764,0.006083,-0.004050,66.012195,0.006194,
1650,1440,-1.913298,-5.548506,0.999997,0.000191,-0.005761,0.010776,-0.000220,0.010779,-0.005764,-89.238330,0.010787,
1290,1670,-0.130073,-2.442749,0.999998,0.000184,-0.002212,0.007142,-0.000136,0.007144,-0.002214,-89.166690,0.007314,
1400,920,-1.643092,-12.487550,0.999987,0.000408,-0.005480,0.013596,0.005830,0.015237,-0.007120,74.281280,0.015247,
940,700,1.358525,-14.174234,0.999993,0.000288,-0.006749,0.011425,-0.001132,0.011495,-0.006819,-86.449271,0.011561,
1580,310,-0.864681,-17.854515,0.999996,0.000250,-0.003725,0.008972,-0.000136,0.008973,-0.003727,-89.386551,0.009016,
620,110,0.923573,-19.169174,0.999996,0.000230,-0.004746,0.010609,0.001694,0.010793,-0.004931,83.780262,0.010807,
1440,600,-0.708671,-15.644466,0.999996,0.000232,-0.004885,0.009186,0.001950,0.009452,-0.005150,82.255821,0.009464,
1720,1060,-3.509476,-9.759274,0.999995,0.000253,-0.004255,0.009765,0.000314,0.009772,-0.004262,88.716456,0.009798,
1690,1450,-2.111213,-5.569862,0.999996,0.000249,-0.005613,0.010647,-0.000120,0.010648,-0.005614,-89.578547,0.010653,
1550,1490,-1.233046,-4.651670,0.999996,0.000238,-0.005334,0.010179,-0.001014,0.010245,-0.005400,-86.276460,0.010250,
910,970,2.780138,-10.734900,0.999995,0.000278,-0.004169,0.011487,0.001065,0.011559,-0.004241,86.127737,0.011695,
1370,1220,-0.750763,-6.194121,0.999987,0.000505,-0.006606,0.009702,-0.004346,0.010788,-0.007692,-75.972679,0.011109,
1110,80,0.047275,-19.786559,0.999998,0.000164,-0.000406,0.006270,0.000339,0.006287,-0.000424,87.100288,0.007028,
1180,1390,0.117658,-4.302264,0.999998,0.000200,-0.002631,0.005488,0.001605,0.005793,-0.002937,79.215040,0.005794,
680,1950,0.660911,-0.771523,0.999993,0.000326,-0.002975,0.009532,-0.002772,0.010119,-0.003562,-78.046255,0.010266,
1370,1670,-0.328655,-2.535692,0.999997,0.000216,-0.002519,0.007613,-0.000332,0.007624,-0.002530,-88.127706,0.007766,
1000,1410,0.875859,-5.065247,0.999995,0.000238,-0.005637,0.009922,0.001988,0.010172,-0.005887,82.833303,0.010214,
1330,1900,-0.086107,-0.852836,0.999998,0.000147,-0.001029,0.006595,0.000185,0.006599,-0.001033,88.610750,0.007099,
850,1620,1.286127,-3.568654,0.999995,0.000248,-0.004699,0.009797,0.000415,0.009808,-0.004711,88.359780,0.009811,
1720,770,-2.855587,-12.724898,0.999997,0.000224,-0.005560,0.010759,-0.000905,0.010809,-0.005610,-86.836999,0.010812,
1150,1580,0.207560,-3.115304,0.999997,0.000218,-0.002825,0.007188,0.000743,0.007243,-0.002880,85.779240,0.007293,
1760,1380,-2.729456,-6.520119,0.999996,0.000265,-0.005398,0.010514,0.000412,0.010525,-0.005409,88.517358,0.010526,
640,1680,2.136451,-3.627429,0.999997,0.000241,-0.004948,0.010076,0.000076,0.010077,-0.004949,89.710411,0.010077,
1220,1580,0.029423,-3.051206,0.999998,0.000190,-0.002531,0.006873,0.000214,0.006878,-0.002536,88.697636,0.006957,
1850,310,-2.051088,-17.089900,0.999997,0.000206,-0.004834,0.009990,-0.000003,0.009990,-0.004834,-89.987025,0.009991,
690,350,1.810369,-16.951078,0.999997,0.000199,-0.004813,0.010001,0.000026,0.010002,-0.004813,89.899767,0.010004,
900,270,0.704627,-18.240335,0.999997,0.000196,-0.003007,0.008584,0.000459,0.008602,-0.003026,87.736649,0.008728,
980,460,0.769168,-16.744539,0.999997,0.000215,-0.003965,0.008825,-0.000845,0.008881,-0.004021,-86.236216,0.008894,
1650,1980,-0.226857,-0.401808,0.999996,0.000249,-0.001026,0.007588,0.001959,0.008012,-0.001450,77.773107,0.008538,
840,1010,3.125046,-10.261846,0.999997,0.000223,-0.003857,0.010422,0.000336,0.010430,-0.003865,88.653265,0.010546,
1330,390,-0.229802,-17.643259,0.999998,0.000170,-0.002586,0.007345,0.000519,0.007372,-0.002613,87.014158,0.007475,
1050,1700,0.418415,-2.368285,0.999996,0.000232,-0.002912,0.007917,0.000424,0.007933,-0.002928,87.763124,0.008023,
1010,780,1.110056,-13.666933,0.999990,0.000393,-0.007598,0.012140,-0.002098,0.012361,-0.007818,-83.997788,0.012505,
1170,770,0.147590,-15.308939,0.999997,0.000256,-0.003162,0.004240,-0.003179,0.005417,-0.004340,-69.670757,0.005735,
1130,1730,0.205532,-2.042175,0.999998,0.000181,-0.002244,0.007269,0.000262,0.007276,-0.002251,88.424015,0.007450,
770,390,1.549864,-16.797246,0.999997,0.000228,-0.004672,0.009905,-0.000083,0.009905,-0.004673,-89.672525,0.009910,
1030,970,2.206950,-11.158939,0.999986,0.000459,-0.006877,0.017474,-0.002225,0.017676,-0.007078,-84.822395,0.017792,
1900,1700,-2.451262,-3.697075,0.999995,0.000000,-0.005036,0.009638,-0.000023,0.009638,-0.005036,-89.909078,0.009641,
1510,1110,-2.478931,-9.038008,0.999994,0.000292,-0.005064,0.012822,0.001255,0.012910,-0.005151,86.005126,0.012998,
1650,1680,-1.309955,-3.089275,0.999997,0.000234,-0.004553,0.009718,-0.000065,0.009719,-0.004554,-89.737200,0.009725,
940,680,1.307615,-14.402458,0.999994,0.000290,-0.006499,0.011191,-0.001235,0.011277,-0.006585,-86.026858,0.011330,
870,730,1.930863,-13.515861,0.999996,0.000232,-0.006607,0.011721,0.000037,0.011721,-0.006607,89.883208,0.011753,
1650,1460,-1.859120,-5.331190,0.999996,0.000213,-0.005649,0.010661,-0.000285,0.010666,-0.005654,-88.999672,0.010672,
1670,1720,-1.287154,-2.758157,0.999998,0.000201,-0.004462,0.009766,0.000097,0.009766,-0.004463,89.610897,0.009778,
600,110,1.018589,-19.072658,0.999997,0.000205,-0.004718,0.010715,0.001799,0.010922,-0.004925,83.438087,0.010940,
1580,290,-0.814668,-18.031055,0.999996,0.000235,-0.003545,0.008870,-0.000304,0.008877,-0.003553,-88.598671,0.008936,
1130,1160,1.194899,-5.921701,0.999990,0.000000,-0.001765,0.004085,0.004498,0.006525,-0.004206,61.517648,0.006615,
1440,1020,-2.408260,-10.210264,0.999983,0.000498,-0.007043,0.018431,0.000255,0.018434,-0.007045,89.427386,0.018603,
1650,40,-0.084431,-20.014139,0.999998,0.000175,-0.000500,0.007043,-0.001878,0.007485,-0.000941,-76.765724,0.008154,
1290,1650,-0.135688,-2.586080,0.999998,0.000199,-0.002303,0.007173,-0.000171,0.007176,-0.002306,-88.968379,0.007327,
1690,1430,-2.171528,-5.786794,0.999995,0.000264,-0.005675,0.010736,-0.000015,0.010736,-0.005675,-89.946100,0.010741,
1370,1200,-0.884947,-6.395289,0.999991,0.000408,-0.005881,0.009409,-0.004582,0.010678,-0.007149,-74.530527,0.010880,
1550,1470,-1.267722,-4.856400,0.999995,0.000252,-0.005515,0.010301,-0.000997,0.010363,-0.005578,-86.405638,0.010373,
1470,530,-0.787392,-16.162142,0.999996,0.000232,-0.004415,0.009101,0.001312,0.009227,-0.004541,84.508113,0.009227,
1590,80,-0.194753,-19.735923,0.999998,0.000169,-0.001135,0.007208,-0.001442,0.007450,-0.001377,-80.463355,0.007929,
690,1960,0.565982,-0.666262,0.999997,0.000215,-0.002819,0.009052,-0.002712,0.009642,-0.003409,-77.720863,0.009779,
1870,1290,-3.604648,-7.720305,0.999995,0.000272,-0.004840,0.009769,0.000326,0.009776,-0.004847,88.723043,0.009776,
1390,70,-0.047469,-19.847431,0.999998,0.000173,-0.000340,0.006332,-0.000472,0.006365,-0.000373,-85.975046,0.007145,
620,170,1.348718,-18.537743,0.999996,0.000279,-0.004893,0.010398,0.000822,0.010442,-0.004937,86.932120,0.010447,
590,870,3.951701,-11.444564,0.999995,0.000262,-0.004373,0.008939,0.000291,0.008946,-0.004379,88.749830,0.008946,
1160,1390,0.173777,-4.374486,0.999998,0.000180,-0.002889,0.005968,0.001960,0.006382,-0.003303,78.065394,0.006384,
1190,1900,0.037577,-0.842118,0.999998,0.000163,-0.000855,0.006500,-0.000093,0.006502,-0.000856,-89.273639,0.007065,
1870,1420,-3.161162,-6.425162,0.999995,0.000290,-0.005017,0.010133,0.000118,0.010133,-0.005017,89.555237,0.010134,
910,950,2.712090,-10.964673,0.999995,0.000275,-0.004536,0.011687,0.001331,0.011795,-0.004645,85.339304,0.011884,
690,330,1.745245,-17.150595,0.999997,0.000190,-0.004803,0.010028,0.000036,0.010028,-0.004803,89.859123,0.010031,
780,1550,1.800972,-4.498116,0.999995,0.000238,-0.005189,0.010287,0.000327,0.010294,-0.005196,88.788496,0.010294,
1850,290,-1.975470,-17.293383,0.999996,0.000235,-0.004833,0.009945,-0.000048,0.009946,-0.004833,-89.815008,0.009947,
1900,1690,-2.486831,-3.795014,0.999996,0.000000,-0.004995,0.009716,-0.000054,0.009717,-0.004995,-89.790474,0.009718,
1650,1960,-0.313600,-0.556782,0.999997,0.000236,-0.001411,0.007802,0.001875,0.008169,-0.001778,78.925609,0.008592,
1450,1720,-0.504093,-2.277975,0.999996,0.000224,-0.002733,0.008055,-0.000151,0.008057,-0.002735,-89.197869,0.008194,
1820,600,-2.793161,-14.244681,0.999996,0.000221,-0.005171,0.010195,-0.000100,0.010195,-0.005172,-89.626192,0.010196,
1510,1090,-2.584096,-9.298827,0.999994,0.000263,-0.004538,0.012629,0.001043,0.012692,-0.004601,86.535424,0.012851,
870,710,1.856272,-13.752418,0.999995,0.000257,-0.006538,0.011579,-0.000120,0.011580,-0.006539,-89.619237,0.011612,
990,530,0.800030,-16.150832,0.999996,0.000251,-0.004480,0.009150,-0.001291,0.009271,-0.004601,-84.637768,0.009271,
1410,1160,-1.487450,-7.514887,0.999992,0.000361,-0.006685,0.013178,-0.003362,0.013731,-0.007238,-80.649582,0.013738,
1720,1040,-3.525792,-9.955758,0.999995,0.000249,-0.004247,0.009830,0.000273,0.009836,-0.004253,88.887801,0.009866,
1220,1560,0.030378,-3.188102,0.999998,0.000178,-0.002555,0.006843,0.000243,0.006849,-0.002561,88.518001,0.006921,
1760,1360,-2.796719,-6.733297,0.999997,0.000225,-0.005371,0.010464,0.000499,0.010479,-0.005387,88.197539,0.010481,
900,210,0.543756,-18.745948,0.999997,0.000187,-0.002396,0.008214,0.000814,0.008276,-0.002458,85.636341,0.008501,
1330,370,-0.220998,-17.789650,0.999997,0.000179,-0.002480,0.007409,0.000391,0.007424,-0.002496,87.736640,0.007556,
940,1510,1.057619,-4.341908,0.999995,0.000246,-0.004978,0.009798,0.001135,0.009885,-0.005064,85.633939,0.009886,
1620,670,-1.897775,-14.110211,0.999995,0.000252,-0.006194,0.011125,0.000172,0.011126,-0.006196,89.432513,0.011150,
1040,560,0.610587,-16.069439,0.999996,0.000229,-0.004326,0.008646,-0.001719,0.008870,-0.004549,-82.579726,0.008871,
780,440,1.632946,-16.326391,0.999996,0.000245,-0.004965,0.010069,-0.000288,0.010074,-0.004971,-88.901441,0.010075,
1060,1830,0.244614,-1.370220,0.999998,0.000193,-0.001775,0.007237,-0.000200,0.007241,-0.001780,-88.727374,0.007547,
640,1660,2.196377,-3.831396,0.999996,0.000256,-0.004965,0.010077,0.000111,0.010078,-0.004965,89.577197,0.010078,
940,660,1.261693,-14.627242,0.999995,0.000259,-0.006257,0.010955,-0.001284,0.011050,-0.006352,-85.758152,0.011091,
1520,570,-1.081350,-15.579352,0.999997,0.000199,-0.005281,0.009991,0.001230,0.010089,-0.005379,85.425062,0.010096,
1590,680,-1.741992,-14.106629,0.999995,0.000269,-0.006390,0.011311,0.000366,0.011318,-0.006398,88.815006,0.011350,
1130,890,1.129898,-14.260664,0.999994,0.000000,-0.002458,0.004596,-0.004143,0.006510,-0.004372,-65.202171,0.006637,
1550,1450,-1.306443,-5.062534,0.999995,0.000276,-0.005755,0.010400,-0.001010,0.010463,-0.005818,-86.436063,0.010485,
1140,200,0.108380,-19.009191,0.999998,0.000182,-0.001324,0.006775,0.000129,0.006778,-0.001326,89.087587,0.007184,
1300,1710,-0.141891,-2.161139,0.999997,0.000168,-0.002043,0.007156,-0.000069,0.007156,-0.002044,-89.572035,0.007372,
1440,1040,-2.404868,-9.861963,0.999982,0.000557,-0.007027,0.018572,-0.000468,0.018581,-0.007035,-88.952184,0.018762,
1470,510,-0.768639,-16.341077,0.999996,0.000235,-0.004214,0.008975,0.001146,0.009074,-0.004313,85.070166,0.009078,
1170,750,0.136995,-15.396848,0.999997,0.000223,-0.002964,0.004507,-0.002978,0.005549,-0.004005,-70.720260,0.005728,
1570,80,-0.170044,-19.742791,0.999998,0.000155,-0.000922,0.007071,-0.001319,0.007283,-0.001134,-80.865573,0.007838,
1390,110,-0.090186,-19.590551,0.999998,0.000172,-0.000635,0.006555,-0.000471,0.006586,-0.000666,-86.266980,0.007251,
1690,1410,-2.236000,-6.001754,0.999994,0.000276,-0.005761,0.010730,0.000116,0.010731,-0.005762,89.596476,0.010741,
1610,1480,-1.584333,-4.978688,0.999995,0.000245,-0.005543,0.010474,-0.000592,0.010496,-0.005565,-87.887213,0.010503,
1290,1630,-0.137884,-2.728930,0.999998,0.000192,-0.002358,0.007144,-0.000226,0.007150,-0.002364,-88.636097,0.007285,
850,1600,1.332843,-3.767451,0.999996,0.000265,-0.004800,0.009867,0.000471,0.009882,-0.004815,88.162657,0.009883,
630,680,3.126538,-13.388321,0.999997,0.000208,-0.005103,0.010077,0.000342,0.010084,-0.005111,88.711610,0.010085,
580,870,3.994795,-11.424209,0.999997,0.000196,-0.004316,0.008785,0.000161,0.008787,-0.004318,89.294812,0.008788,
910,930,2.619622,-11.202670,0.999995,0.000277,-0.005007,0.011930,0.001468,0.012057,-0.005133,85.081405,0.012101,
690,550,2.398020,-14.905908,0.999995,0.000231,-0.005243,0.010267,-0.000050,0.010267,-0.005243,-89.813471,0.010268,
920,1010,2.831641,-10.277880,0.999998,0.000198,-0.003612,0.011439,0.000434,0.011451,-0.003624,88.349692,0.011705,
1900,1680,-2.517675,-3.892652,0.999994,0.000000,-0.004947,0.009769,-0.000115,0.009770,-0.004948,-89.553788,0.009770,
1820,580,-2.730850,-14.449291,0.999996,0.000217,-0.005147,0.010245,-0.000015,0.010245,-0.005147,-89.945422,0.010245,
1850,270,-1.896021,-17.487451,0.999996,0.000248,-0.004845,0.009977,-0.000143,0.009978,-0.004846,-89.447236,0.009980,
980,1770,0.507732,-1.920011,0.999997,0.000252,-0.002647,0.008058,-0.000173,0.008061,-0.002650,-89.073978,0.008217,
1860,1550,-2.708771,-5.065844,0.999996,0.000245,-0.005033,0.010132,-0.000057,0.010132,-0.005034,-89.786332,0.010132,
870,2010,0.086308,-0.175810,0.999997,0.000206,-0.000555,0.006816,-0.001400,0.007073,-0.000812,-79.599213,0.007742,
1800,650,-2.854489,-13.790259,0.999996,0.000226,-0.005230,0.010320,-0.000284,0.010325,-0.005235,-88.955661,0.010325,
1100,1250,0.551759,-5.820082,0.999991,0.000369,-0.006198,0.008939,0.004486,0.010168,-0.007427,74.670629,0.010522,
1790,1420,-2.751663,-6.186680,0.999996,0.000274,-0.005273,0.010307,0.000228,0.010310,-0.005276,89.161295,0.010311,
990,570,0.845295,-15.772963,0.999997,0.000234,-0.004942,0.009449,-0.001585,0.009621,-0.005115,-83.787802,0.009628,
1690,1390,-2.301480,-6.216348,0.999995,0.000265,-0.005798,0.010813,0.000211,0.010816,-0.005800,89.270716,0.010826,
1320,210,-0.109805,-18.942890,0.999998,0.000197,-0.001379,0.006777,-0.000086,0.006778,-0.001380,-89.399411,0.007163,
1070,1900,0.145557,-0.872713,0.999997,0.000213,-0.000995,0.006831,-0.000415,0.006853,-0.001017,-86.969601,0.007396,
1510,1070,-2.655193,-9.544188,0.999996,0.000218,-0.004096,0.012643,0.000765,0.012677,-0.004131,87.389682,0.012931,
1640,1810,-0.882455,-1.834355,0.999997,0.000215,-0.003233,0.009131,0.000900,0.009196,-0.003298,85.856227,0.009318,
870,690,1.792766,-13.981097,0.999995,0.000242,-0.006462,0.011342,-0.000291,0.011347,-0.006467,-89.062263,0.011384,
660,310,1.822916,-17.254356,0.999996,0.000244,-0.004808,0.010082,0.000180,0.010084,-0.004810,89.308576,0.010088,
940,640,1.217178,-14.844265,0.999995,0.000252,-0.006022,0.010602,-0.001286,0.010701,-0.006121,-85.603800,0.010738,
1110,1320,0.363755,-5.139389,0.999996,0.000302,-0.004803,0.007613,0.003782,0.008674,-0.005864,74.323586,0.008851,
1040,540,0.594245,-16.246856,0.999997,0.000210,-0.004192,0.008581,-0.001566,0.008770,-0.004381,-83.112968,0.008770,
1060,1140,1.614334,-7.675502,0.999990,0.000345,-0.005789,0.013486,0.005072,0.014739,-0.007042,76.121080,0.014744,
1850,250,-1.806245,-17.694509,0.999997,0.000221,-0.004848,0.009992,-0.000183,0.009995,-0.004850,-89.292832,0.009996,
1600,2010,-0.089605,-0.177540,0.999998,0.000157,-0.000546,0.006877,0.001431,0.007144,-0.000813,79.456196,0.007822,
1520,550,-1.050404,-15.779587,0.999996,0.000239,-0.005003,0.009803,0.001159,0.009893,-0.005093,85.552831,0.009895,
1130,880,1.016391,-14.312588,0.999997,0.000000,-0.003006,0.004625,-0.003530,0.006007,-0.004388,-68.611932,0.006217,
1900,1670,-2.547510,-3.990340,0.999995,0.000000,-0.004888,0.009772,-0.000157,0.009773,-0.004889,-89.385381,0.009773,
1260,1310,-0.056358,-4.590122,0.999997,0.000200,-0.002206,0.003467,-0.001485,0.003832,-0.002571,-76.188132,0.003906,
840,1070,3.100015,-9.636912,0.999996,0.000232,-0.004036,0.010491,-0.000646,0.010520,-0.004064,-87.459847,0.010610,
780,480,1.737538,-15.918703,0.999996,0.000228,-0.005092,0.010149,-0.000321,0.010155,-0.005098,-88.792754,0.010155,
890,1500,1.335605,-4.633474,0.999995,0.000253,-0.005340,0.010227,0.000828,0.010271,-0.005384,86.965621,0.010275,
1130,80,0.038765,-19.789829,0.999999,0.000157,-0.000436,0.006207,0.000262,0.006218,-0.000446,87.742594,0.006936,
1220,1540,0.029015,-3.324218,0.999998,0.000197,-0.002543,0.006717,0.000257,0.006724,-0.002550,88.413246,0.006789,
1760,1340,-2.869407,-6.942604,0.999996,0.000232,-0.005386,0.010372,0.000618,0.010396,-0.005410,87.758189,0.010399,
900,1010,2.901964,-10.275124,0.999998,0.000203,-0.003629,0.011061,0.000419,0.011073,-0.003641,88.366081,0.011288,
1550,1670,-0.913455,-2.916342,0.999997,0.000196,-0.003832,0.009037,-0.000265,0.009043,-0.003837,-88.819579,0.009077,
1720,1020,-3.531504,-10.154238,0.999996,0.000219,-0.004246,0.009814,-0.000155,0.009816,-0.004248,-89.369853,0.009845,
600,1280,3.605369,-7.802209,0.999995,0.000261,-0.004820,0.009705,-0.000413,0.009717,-0.004831,-88.371615,0.009717,
1330,350,-0.208306,-17.939202,0.999997,0.000209,-0.002394,0.007270,0.000330,0.007281,-0.002405,88.047175,0.007420,
1410,480,-0.512354,-16.788359,0.999995,0.000264,-0.003447,0.008147,0.001021,0.008237,-0.003536,85.003982,0.008264,
1140,1710,0.189337,-2.176101,0.999998,0.000177,-0.002315,0.007253,0.000264,0.007261,-0.002323,88.423333,0.007416,
1070,590,0.491950,-15.945647,0.999995,0.000263,-0.004173,0.008224,-0.002000,0.008539,-0.004488,-81.058112,0.008543,
1500,1550,-0.893556,-3.877335,0.999997,0.000235,-0.004529,0.009337,-0.001091,0.009422,-0.004615,-85.529383,0.009423,
1170,730,0.135481,-15.484587,0.999997,0.000238,-0.002862,0.004851,-0.002673,0.005687,-0.003697,-72.637980,0.005772,
960,1250,1.601948,-7.158216,0.999990,0.000378,-0.007595,0.012834,0.000445,0.012844,-0.007605,88.753800,0.012917,
1690,1370,-2.367346,-6.437327,0.999995,0.000268,-0.005853,0.010928,0.000340,0.010935,-0.005860,88.840468,0.010945,
730,730,2.775375,-13.122555,0.999996,0.000256,-0.005573,0.010572,0.000716,0.010603,-0.005605,87.466183,0.010609,
1540,690,-1.446772,-14.205903,0.999995,0.000313,-0.006629,0.011382,0.000938,0.011431,-0.006678,87.027933,0.011485,
690,310,1.680259,-17.354324,0.999997,0.000200,-0.004810,0.010099,0.000133,0.010100,-0.004812,89.487157,0.010103,
850,1940,0.344478,-0.696940,0.999997,0.000211,-0.001498,0.007824,-0.001596,0.008090,-0.001763,-80.546730,0.008508,
1510,1050,-2.709040,-9.807960,0.999995,0.000244,-0.003827,0.012565,0.000457,0.012578,-0.003839,88.404796,0.012892,
1290,1610,-0.142239,-2.871769,0.999998,0.000189,-0.002430,0.007103,-0.000314,0.007114,-0.002441,-88.114120,0.007230,
810,1430,1.960304,-5.665273,0.999996,0.000236,-0.005814,0.010786,0.000162,0.010787,-0.005816,89.441042,0.010798,
1090,620,0.418830,-15.794140,0.999997,0.000226,-0.004007,0.007861,-0.002206,0.008258,-0.004404,-79.805460,0.008264,
1580,370,-1.004347,-17.301197,0.999996,0.000242,-0.004170,0.009230,0.000249,0.009235,-0.004174,88.936564,0.009249,
1050,1900,0.170078,-0.883372,0.999997,0.000280,-0.001301,0.006906,-0.000447,0.006930,-0.001325,-86.893772,0.007357,
1030,140,0.171956,-19.372309,0.999998,0.000144,-0.001142,0.006907,0.000553,0.006945,-0.001179,86.089430,0.007433,
800,1750,1.166563,-2.446881,0.999997,0.000205,-0.004243,0.009547,-0.000291,0.009553,-0.004249,-88.791605,0.009573,
940,620,1.180537,-15.053620,0.999996,0.000245,-0.005765,0.010417,-0.001284,0.010518,-0.005867,-85.489813,0.010542,
1880,130,-1.256053,-18.773164,0.999996,0.000261,-0.004795,0.010680,-0.001443,0.010814,-0.004928,-84.719435,0.010828,
1000,60,0.064331,-19.901511,0.999998,0.000178,-0.000227,0.006460,0.000792,0.006553,-0.000320,83.337538,0.007389,
870,670,1.731484,-14.208024,0.999996,0.000236,-0.006328,0.011201,-0.000417,0.011211,-0.006338,-88.639251,0.011243,
1520,1390,-1.254052,-5.575424,0.999994,0.000284,-0.006288,0.010997,-0.001325,0.011098,-0.006389,-85.641490,0.011140,
930,1840,0.494455,-1.424347,0.999996,0.000227,-0.002219,0.007988,-0.000691,0.008034,-0.002266,-86.142781,0.008285,
910,910,2.521870,-11.443240,0.999995,0.000272,-0.005452,0.012177,0.001467,0.012298,-0.005573,85.275573,0.012316,
1850,780,-3.561229,-12.345240,0.999996,0.000207,-0.004874,0.009797,-0.000501,0.009814,-0.004891,-88.045373,0.009814,
1040,520,0.581822,-16.418702,0.999996,0.000245,-0.003977,0.008492,-0.001389,0.008645,-0.004130,-83.720155,0.008648,
680,290,1.654768,-17.524228,0.999997,0.000215,-0.004767,0.010104,0.000295,0.010110,-0.004772,88.862148,0.010115,
1200,1290,0.068813,-4.670608,0.999996,0.000248,-0.002377,0.003084,0.001767,0.003606,-0.002899,73.545386,0.003821,
1660,810,-2.673120,-12.401304,0.999995,0.000309,-0.005859,0.011275,-0.001111,0.011347,-0.005931,-86.305031,0.011351,
1450,520,-0.695759,-16.317708,0.999995,0.000248,-0.004215,0.008799,0.001305,0.008928,-0.004344,84.331091,0.008929,
1130,30,0.008660,-20.094467,0.999999,0.000000,-0.000146,0.005964,0.000207,0.005971,-0.000153,88.063555,0.006808,
1610,590,-1.618338,-15.021155,0.999994,0.000291,-0.005675,0.010571,0.000578,0.010591,-0.005696,87.966424,0.010601,
910,820,2.039399,-12.572228,0.999994,0.000293,-0.006893,0.012514,0.000646,0.012536,-0.006914,88.094690,0.012558,
1440,1060,-2.355808,-9.463732,0.999989,0.000381,-0.006792,0.018063,-0.001040,0.018106,-0.006835,-87.609143,0.018286,
1900,1660,-2.577151,-4.089588,0.999996,0.000000,-0.004836,0.009767,-0.000132,0.009768,-0.004837,-89.483368,0.009768,
760,1130,3.311287,-9.050731,0.999998,0.000190,-0.004632,0.010109,-0.000927,0.010167,-0.004690,-86.414583,0.010177,
1850,230,-1.718579,-17.890486,0.999996,0.000217,-0.004866,0.010015,-0.000294,0.010021,-0.004872,-88.870014,0.010022,
1600,2000,-0.116740,-0.246414,0.999998,0.000148,-0.000657,0.007002,0.001508,0.007288,-0.000943,79.255527,0.007928,
1060,1130,1.701125,-7.804206,0.999990,0.000338,-0.005768,0.014348,0.005652,0.015827,-0.007247,75.334106,0.015846,
1260,270,-0.046725,-18.545879,0.999997,0.000196,-0.001664,0.006953,0.000047,0.006954,-0.001665,89.686343,0.007262,
870,1500,1.442715,-4.707913,0.999996,0.000253,-0.005454,0.010349,0.000722,0.010382,-0.005486,87.388790,0.010387,
1690,1350,-2.440229,-6.656456,0.999995,0.000302,-0.005890,0.010949,0.000477,0.010962,-0.005903,88.378659,0.010973,
1150,80,0.028356,-19.792414,0.999999,0.000142,-0.000376,0.006182,0.000226,0.006190,-0.000384,88.024579,0.006936,
730,1260,3.021855,-7.729230,0.999996,0.000260,-0.005360,0.010477,-0.000977,0.010537,-0.005420,-86.484163,0.010539,
780,1920,0.566493,-0.913812,0.999997,0.000221,-0.002549,0.008530,-0.001845,0.008829,-0.002848,-80.787953,0.009013,
880,1010,2.974562,-10.269525,0.999997,0.000243,-0.003706,0.010799,0.000362,0.010808,-0.003715,88.570944,0.010982,
1170,710,0.135689,-15.581539,0.999997,0.000202,-0.002799,0.005175,-0.002365,0.005823,-0.003448,-74.661068,0.005856,
1550,1430,-1.349581,-5.275527,0.999994,0.000267,-0.005969,0.010702,-0.001021,0.010764,-0.006031,-86.508616,0.010790,
640,690,3.109254,-13.314948,0.999996,0.000227,-0.005099,0.010111,0.000397,0.010121,-0.005110,88.507144,0.010121,
840,350,1.128813,-17.379016,0.999997,0.000202,-0.003908,0.009488,0.000158,0.009490,-0.003910,89.324504,0.009539,
1720,1000,-3.512456,-10.350146,0.999996,0.000224,-0.004256,0.009808,-0.000357,0.009817,-0.004265,-88.545591,0.009845,
1760,1890,-0.963636,-1.314896,0.999997,0.000216,-0.004185,0.009819,0.001580,0.009995,-0.004361,83.643472,0.010022,
1330,330,-0.201683,-18.084406,0.999998,0.000177,-0.002274,0.007249,0.000252,0.007255,-0.002281,88.486082,0.007420,
750,1580,1.875290,-4.286840,0.999996,0.000237,-0.005085,0.010188,0.000261,0.010193,-0.005090,89.022531,0.010193,
940,600,1.149192,-15.259362,0.999996,0.000260,-0.005584,0.010263,-0.001270,0.010364,-0.005685,-85.447198,0.010381,
1100,1710,0.285554,-2.225712,0.999997,0.000215,-0.002307,0.007433,0.000237,0.007439,-0.002313,88.604998,0.007614,
1070,570,0.485608,-16.107733,0.999995,0.000265,-0.003946,0.008133,-0.001759,0.008383,-0.004197,-81.881990,0.008383,
1170,1860,0.070684,-1.108363,0.999998,0.000206,-0.001059,0.006700,-0.000159,0.006703,-0.001062,-88.822818,0.007206,
870,650,1.672550,-14.431860,0.999995,0.000266,-0.006155,0.011111,-0.000518,0.011126,-0.006171,-88.282080,0.011149,
1290,1590,-0.142582,-3.012158,0.999997,0.000207,-0.002520,0.007059,-0.000388,0.007075,-0.002536,-87.682796,0.007169,
730,950,3.503356,-10.841329,0.999995,0.000263,-0.004483,0.009930,0.000831,0.009978,-0.004531,86.710127,0.009992,
1310,1900,-0.066553,-0.844773,0.999998,0.000154,-0.000836,0.006562,0.000179,0.006566,-0.000840,88.617022,0.007147,
1510,1270,-1.564580,-6.945216,0.999993,0.000301,-0.007478,0.012605,-0.000552,0.012620,-0.007493,-88.427222,0.012694,
1040,500,0.566563,-16.589391,0.999996,0.000245,-0.003776,0.008386,-0.001179,0.008499,-0.003889,-84.515097,0.008509,
1880,780,-3.704856,-12.263234,0.999995,0.000279,-0.004731,0.009542,-0.000249,0.009546,-0.004735,-89.002689,0.009547,
910,890,2.413414,-11.693370,0.999995,0.000252,-0.005955,0.012311,0.001374,0.012414,-0.006058,85.721336,0.012415,
1350,140,-0.092835,-19.400681,0.999998,0.000151,-0.000890,0.006595,-0.000267,0.006605,-0.000899,-87.961861,0.007164,
1350,480,-0.314380,-16.939861,0.999997,0.000193,-0.002938,0.007469,0.000828,0.007535,-0.003003,85.481018,0.007586,
590,330,2.230824,-16.805253,0.999995,0.000236,-0.004838,0.009839,-0.000127,0.009840,-0.004839,-89.505039,0.009841,
990,1990,0.075186,-0.289683,0.999998,0.000142,-0.000369,0.006564,-0.000818,0.006659,-0.000464,-83.357910,0.007436,
640,1640,2.258672,-4.032710,0.999995,0.000269,-0.004995,0.010089,0.000114,0.010089,-0.004996,89.568421,0.010090,
1900,1650,-2.607326,-4.186434,0.999995,0.000000,-0.004811,0.009773,-0.000110,0.009774,-0.004811,-89.566612,0.009775,
1260,1290,-0.058650,-4.655681,0.999997,0.000208,-0.002372,0.003031,-0.001588,0.003463,-0.002804,-74.775172,0.003678,
720,1070,3.599178,-9.667256,0.999997,0.000201,-0.004347,0.009656,-0.000300,0.009662,-0.004353,-88.774692,0.009678,
1850,210,-1.611439,-18.096325,0.999995,0.000240,-0.004885,0.010110,-0.000414,0.010122,-0.004896,-88.420538,0.010123,
1120,2020,0.015647,-0.096753,0.999998,0.000000,-0.000161,0.005994,-0.000196,0.006000,-0.000168,-88.176150,0.006834,
690,270,1.528131,-17.758757,0.999997,0.000242,-0.004745,0.010021,0.000476,0.010036,-0.004760,88.155810,0.010040,
810,1410,2.019810,-5.885396,0.999996,0.000237,-0.005892,0.010902,0.000053,0.010902,-0.005892,89.819334,0.010914,
710,260,1.390226,-17.921854,0.999997,0.000261,-0.004687,0.009972,0.000555,0.009993,-0.004708,87.835588,0.009998,
1590,2010,-0.082607,-0.176836,0.999998,0.000169,-0.000631,0.006827,0.001376,0.007072,-0.000876,79.871249,0.007711,
1560,1290,-1.840268,-6.935011,0.999994,0.000274,-0.006979,0.012130,-0.000001,0.012130,-0.006979,-89.996352,0.012176,
1550,1390,-1.443360,-5.717534,0.999995,0.000258,-0.006360,0.011158,-0.000913,0.011206,-0.006408,-87.023526,0.011244,
800,1770,1.102769,-2.255793,0.999998,0.000189,-0.004111,0.009499,-0.000452,0.009514,-0.004126,-88.099244,0.009542,
820,1010,3.204932,-10.260208,0.999998,0.000188,-0.003954,0.010298,0.000343,0.010306,-0.003962,88.623632,0.010397,
1440,1080,-2.271838,-9.147897,0.999988,0.000406,-0.006414,0.016864,-0.001436,0.016952,-0.006502,-86.484417,0.017105,
1170,690,0.141678,-15.682156,0.999998,0.000190,-0.002742,0.005398,-0.002098,0.005907,-0.003251,-76.363676,0.005917,
1040,1100,2.061983,-8.614217,0.999989,0.000549,-0.007063,0.017172,0.003624,0.017702,-0.007593,81.673971,0.017762,
1690,1330,-2.511888,-6.875631,0.999994,0.000293,-0.005873,0.010972,0.000621,0.010995,-0.005896,87.892321,0.011005,
890,80,0.173244,-19.742727,0.999998,0.000165,-0.000975,0.007094,0.001321,0.007304,-0.001185,80.937076,0.007840,
940,580,1.113367,-15.462859,0.999996,0.000253,-0.005417,0.010097,-0.001255,0.010198,-0.005517,-85.405276,0.010209,
750,1560,1.929051,-4.492653,0.999996,0.000225,-0.005139,0.010250,0.000264,0.010254,-0.005144,89.018323,0.010254,
740,1130,3.402746,-9.062174,0.999997,0.000232,-0.004594,0.009940,-0.000863,0.009992,-0.004645,-86.613047,0.010000,
750,1260,2.913821,-7.692809,0.999996,0.000237,-0.005492,0.010695,-0.001017,0.010758,-0.005556,-86.420507,0.010760,
1070,550,0.481506,-16.269473,0.999996,0.000229,-0.003762,0.008102,-0.001538,0.008298,-0.003958,-82.732970,0.008301,
1890,320,-2.279507,-16.840832,0.999997,0.000215,-0.004843,0.009799,0.000077,0.009800,-0.004843,89.697136,0.009800,
1720,1770,-1.341233,-2.396782,0.999997,0.000244,-0.004180,0.009897,0.000603,0.009922,-0.004205,87.550509,0.009961,
1580,450,-1.166582,-16.546274,0.999997,0.000227,-0.004513,0.009624,0.000525,0.009643,-0.004532,87.875732,0.009649,
1820,1610,-2.332461,-4.328006,0.999995,0.000249,-0.005063,0.010134,-0.000137,0.010135,-0.005064,-89.483281,0.010135,
1760,1870,-1.071337,-1.508578,0.999997,0.000191,-0.004391,0.009848,0.001270,0.009960,-0.004503,84.942266,0.009975,
870,630,1.617229,-14.655730,0.999995,0.000264,-0.005976,0.010900,-0.000604,0.010921,-0.005998,-87.953819,0.010939,
1080,1710,0.332586,-2.247107,0.999997,0.000196,-0.002358,0.007582,0.000169,0.007585,-0.002360,89.023956,0.007763,
830,940,3.033738,-10.997385,0.999996,0.000264,-0.004522,0.010667,0.001101,0.010747,-0.004602,85.874107,0.010784,
1520,470,-0.934788,-16.543327,0.999996,0.000233,-0.004417,0.009312,0.000858,0.009366,-0.004470,86.437990,0.009369,
1290,1570,-0.145917,-3.151764,0.999998,0.000182,-0.002598,0.007023,-0.000440,0.007043,-0.002618,-87.388314,0.007120,
910,870,2.307475,-11.937508,0.999994,0.000275,-0.006271,0.012383,0.001264,0.012468,-0.006357,86.139962,0.012469,
1170,1900,0.053705,-0.845160,0.999998,0.000178,-0.000764,0.006494,-0.000164,0.006498,-0.000768,-88.707477,0.007101,
700,1510,2.330427,-5.170109,0.999996,0.000237,-0.005233,0.010285,0.000084,0.010286,-0.005233,89.691406,0.010286,
1510,1030,-2.730398,-10.049867,0.999996,0.000251,-0.003687,0.012158,0.000047,0.012158,-0.003687,89.830971,0.012468,
1040,480,0.555791,-16.754466,0.999996,0.000233,-0.003561,0.008317,-0.001010,0.008402,-0.003646,-85.175129,0.008427,
1900,1640,-2.638779,-4.284921,0.999995,0.000000,-0.004842,0.009811,-0.000065,0.009811,-0.004843,-89.745473,0.009811,
730,710,2.703174,-13.336577,0.999995,0.000285,-0.005619,0.010685,0.000590,0.010707,-0.005640,87.931021,0.010712,
1310,140,-0.057023,-19.409805,0.999998,0.000157,-0.000739,0.006531,-0.000177,0.006535,-0.000744,-88.604382,0.007156,
1850,190,-1.506484,-18.295785,0.999995,0.000262,-0.004894,0.010159,-0.000582,0.010182,-0.004916,-87.789938,0.010184,
1350,460,-0.307540,-17.090872,0.999997,0.000182,-0.002839,0.007473,0.000720,0.007523,-0.002889,86.024703,0.007591,
1120,330,0.230524,-18.067702,0.999998,0.000174,-0.002310,0.007324,-0.000241,0.007330,-0.002316,-88.569306,0.007494,
880,2010,0.078813,-0.175652,0.999998,0.000168,-0.000592,0.006796,-0.001352,0.007035,-0.000831,-79.947278,0.007689,
1120,1160,1.214570,-6.133801,0.999990,0.000000,-0.001760,0.005629,0.004888,0.008062,-0.004192,63.542795,0.008064,
1690,1310,-2.588569,-7.097295,0.999995,0.000258,-0.005837,0.010944,0.000742,0.010977,-0.005870,87.471625,0.010986,
990,1970,0.110886,-0.425216,0.999998,0.000155,-0.000552,0.006719,-0.000810,0.006808,-0.000641,-83.716978,0.007518,
710,280,1.472439,-17.721603,0.999997,0.000256,-0.004745,0.010015,0.000416,0.010027,-0.004757,88.384960,0.010031,
800,1010,3.284569,-10.258316,0.999997,0.000199,-0.004031,0.010155,0.000339,0.010163,-0.004039,88.632871,0.010235,
940,780,1.637628,-13.208800,0.999993,0.000282,-0.007385,0.012545,-0.000432,0.012554,-0.007394,-88.758607,0.012620,
1800,1610,-2.230614,-4.264277,0.999997,0.000184,-0.005040,0.010132,-0.000151,0.010133,-0.005042,-89.428436,0.010133,
730,1580,1.978076,-4.351823,0.999997,0.000212,-0.005103,0.010237,0.000238,0.010241,-0.005107,89.112446,0.010241,
570,1470,3.116323,-5.985534,0.999991,0.000316,-0.004714,0.010264,0.000118,0.010265,-0.004715,89.549204,0.010276,
1550,1370,-1.499173,-5.945467,0.999995,0.000267,-0.006568,0.011323,-0.000812,0.011360,-0.006604,-87.408155,0.011410,
1880,120,-1.177179,-18.881995,0.999996,0.000238,-0.004722,0.010818,-0.001636,0.010989,-0.004892,-84.056124,0.011011,
1010,80,0.096309,-19.770106,0.999998,0.000193,-0.000476,0.006576,0.000739,0.006653,-0.000553,84.077984,0.007384,
1880,1170,-4.016049,-8.860603,0.999995,0.000259,-0.004292,0.008598,0.000165,0.008600,-0.004294,89.268422,0.008600,
1760,1230,-3.271895,-8.087079,0.999997,0.000216,-0.005094,0.010200,0.001034,0.010269,-0.005164,86.151466,0.010269,
570,870,4.037558,-11.400295,0.999995,0.000257,-0.004295,0.008605,0.000078,0.008606,-0.004295,89.651597,0.008606,
840,330,1.078995,-17.569604,0.999996,0.000258,-0.003819,0.009444,0.000178,0.009446,-0.003822,89.232925,0.009503,
1170,670,0.144864,-15.791719,0.999998,0.000189,-0.002727,0.005617,-0.001855,0.006011,-0.003121,-78.013713,0.006013,
860,1710,1.040607,-2.687124,0.999997,0.000186,-0.003905,0.009337,-0.000082,0.009338,-0.003905,-89.646876,0.009379,
1070,750,0.599023,-14.536478,0.999993,0.000310,-0.006252,0.009726,-0.003661,0.010525,-0.007051,-77.690510,0.010725,
590,690,3.361660,-13.169822,0.999996,0.000279,-0.005011,0.009972,0.000216,0.009975,-0.005014,89.172381,0.009975,
1610,570,-1.570584,-15.231406,0.999995,0.000269,-0.005523,0.010486,0.000592,0.010508,-0.005545,87.885055,0.010513,
780,1900,0.663796,-1.091921,0.999996,0.000229,-0.002930,0.008889,-0.001722,0.009135,-0.003176,-81.877296,0.009275,
580,780,3.719535,-12.254189,0.999994,0.000287,-0.005157,0.009507,0.000115,0.009508,-0.005158,89.549865,0.009519,
870,610,1.567558,-14.872785,0.999994,0.000278,-0.005801,0.010632,-0.000659,0.010658,-0.005827,-87.707316,0.010674,
910,850,2.194711,-12.191935,0.999995,0.000269,-0.006579,0.012507,0.001014,0.012561,-0.006633,86.968443,0.012567,
1900,1630,-2.667885,-4.384013,0.999996,0.000000,-0.004914,0.009916,-0.000013,0.009916,-0.004914,-89.950728,0.009916,
1040,460,0.542394,-16.917768,0.999996,0.000226,-0.003404,0.008193,-0.000877,0.008259,-0.003469,-85.700639,0.008294,
1560,1930,-0.292805,-0.741416,0.999997,0.000187,-0.001309,0.007535,0.001233,0.007704,-0.001478,82.210617,0.008177,
1010,1900,0.218732,-0.902034,0.999998,0.000187,-0.001141,0.007107,-0.000682,0.007163,-0.001197,-85.304890,0.007673,
1510,990,-2.673093,-10.550429,0.999995,0.000303,-0.003978,0.012700,-0.000701,0.012730,-0.004007,-87.598301,0.013017,
1720,1750,-1.413600,-2.595920,0.999997,0.000250,-0.004303,0.009871,0.000411,0.009883,-0.004315,88.338813,0.009909,
810,1390,2.083344,-6.103583,0.999996,0.000243,-0.005989,0.010976,-0.000041,0.010976,-0.005989,-89.860354,0.010991,
690,250,1.442650,-17.958092,0.999996,0.000276,-0.004691,0.010051,0.000622,0.010078,-0.004718,87.588467,0.010084,
1690,1290,-2.666412,-7.316368,0.999996,0.000225,-0.005803,0.010977,0.000870,0.011022,-0.005848,87.038732,0.011029,
1720,980,-3.496080,-10.548908,0.999996,0.000228,-0.004308,0.009813,-0.000399,0.009824,-0.004319,-88.384544,0.009848,
1520,310,-0.668843,-17.968216,0.999997,0.000228,-0.003148,0.008448,-0.000040,0.008448,-0.003148,-89.801191,0.008539,
1330,310,-0.186434,-18.231426,0.999998,0.000167,-0.002157,0.007231,0.000211,0.007236,-0.002161,88.715275,0.007428,
860,2010,0.092102,-0.176480,0.999998,0.000175,-0.000462,0.006853,-0.001473,0.007139,-0.000748,-79.029852,0.007847,
1210,720,0.041701,-15.671623,0.999998,0.000162,-0.002048,0.003966,-0.000988,0.004124,-0.002207,-80.903803,0.004128,
1150,140,0.060612,-19.410959,0.999998,0.000149,-0.000784,0.006475,0.000173,0.006479,-0.000788,88.638149,0.007071,
1120,900,1.267373,-13.989352,0.999994,0.000000,-0.001849,0.005828,-0.005507,0.008703,-0.004723,-62.438574,0.008713,
1380,790,-0.611073,-14.275112,0.999992,0.000336,-0.006620,0.009744,0.004125,0.010725,-0.007600,76.622323,0.011032,
1280,330,-0.097516,-18.114205,0.999998,0.000185,-0.001958,0.007117,0.000059,0.007118,-0.001958,89.624779,0.007354,
820,1770,1.023633,-2.208271,0.999998,0.000165,-0.003648,0.009372,-0.000554,0.009396,-0.003672,-87.568715,0.009470,
940,60,0.087453,-19.894026,0.999998,0.000175,-0.000463,0.006681,0.001031,0.006827,-0.000609,81.948804,0.007556,
1640,1290,-2.366792,-7.197225,0.999994,0.000292,-0.006261,0.011441,0.000717,0.011470,-0.006290,87.684994,0.011488,
730,670,2.562393,-13.766287,0.999994,0.000296,-0.005595,0.010593,0.000374,0.010602,-0.005604,88.678501,0.010608,
1170,650,0.148347,-15.908652,0.999997,0.000204,-0.002745,0.005872,-0.001674,0.006186,-0.003059,-79.385989,0.006186,
1810,780,-3.364307,-12.438116,0.999996,0.000238,-0.004992,0.009987,-0.000698,0.010020,-0.005024,-87.339270,0.010020,
1840,1230,-3.662358,-8.224891,0.999996,0.000233,-0.004694,0.009437,0.000594,0.009462,-0.004719,87.596024,0.009462,
1050,1580,0.520600,-3.339244,0.999997,0.000229,-0.003433,0.008203,0.000998,0.008288,-0.003518,85.132244,0.008320,
1550,1160,-2.421016,-8.521712,0.999995,0.000236,-0.005846,0.012356,0.001419,0.012466,-0.005956,85.569531,0.012470,
1440,1520,-0.662908,-3.938348,0.999996,0.000243,-0.004252,0.008746,-0.001479,0.008912,-0.004418,-83.591257,0.008912,
1290,1550,-0.148245,-3.292342,0.999997,0.000185,-0.002657,0.006985,-0.000552,0.007016,-0.002688,-86.733175,0.007080,
990,1950,0.147021,-0.559550,0.999998,0.000182,-0.000722,0.006864,-0.000795,0.006946,-0.000805,-84.079096,0.007599,
1740,1390,-2.583032,-6.359749,0.999993,0.000299,-0.005546,0.010563,0.000384,0.010572,-0.005555,88.635567,0.010576,
680,1130,3.675282,-9.106099,0.999996,0.000212,-0.004535,0.009538,-0.000708,0.009574,-0.004570,-87.125438,0.009577,
870,590,1.522166,-15.080977,0.999994,0.000286,-0.005665,0.010517,-0.000687,0.010547,-0.005694,-87.572256,0.010558,
1680,90,-0.339177,-19.624305,0.999997,0.000186,-0.001595,0.007931,-0.002084,0.008367,-0.002031,-78.184735,0.008728,
1490,80,-0.112715,-19.763921,0.999998,0.000138,-0.000705,0.006721,-0.000851,0.006817,-0.000801,-83.547850,0.007452,
1240,210,-0.011038,-18.959270,0.999998,0.000183,-0.001319,0.006653,0.000030,0.006653,-0.001319,89.785346,0.007045,
1610,550,-1.525562,-15.440712,0.999995,0.000281,-0.005420,0.010365,0.000602,0.010388,-0.005443,87.818030,0.010392,
1800,1590,-2.289257,-4.466425,0.999997,0.000217,-0.005062,0.010176,-0.000155,0.010178,-0.005064,-89.416553,0.010178,
910,740,1.692545,-13.561258,0.999993,0.000327,-0.007006,0.011968,-0.000366,0.011975,-0.007013,-88.894019,0.012034,
910,830,2.093654,-12.442498,0.999994,0.000281,-0.006789,0.012540,0.000774,0.012571,-0.006820,87.709901,0.012586,
1900,1620,-2.700430,-4.483754,0.999995,0.000000,-0.004971,0.009993,-0.000010,0.009993,-0.004971,-89.963078,0.009993,
730,640,2.460668,-14.085356,0.999995,0.000276,-0.005519,0.010548,0.000191,0.010550,-0.005522,89.318666,0.010554,
930,1960,0.182837,-0.512288,0.999997,0.000208,-0.000817,0.007002,-0.001083,0.007149,-0.000965,-82.259776,0.007759,
990,1900,0.243264,-0.912296,0.999998,0.000188,-0.001245,0.007205,-0.000731,0.007268,-0.001308,-85.093239,0.007749,
1420,1770,-0.359331,-1.838631,0.999995,0.000250,-0.002472,0.007644,-0.000026,0.007644,-0.002472,-89.855342,0.007801,
1690,1270,-2.744094,-7.537998,0.999997,0.000216,-0.005722,0.011017,0.000987,0.011075,-0.005780,86.635796,0.011079,
1510,970,-2.601829,-10.801777,0.999995,0.000294,-0.004382,0.012612,-0.001015,0.012673,-0.004442,-86.592500,0.012860,
1040,440,0.528279,-17.082584,0.999997,0.000218,-0.003291,0.008114,-0.000767,0.008166,-0.003342,-86.169271,0.008211,
780,1880,0.753184,-1.271505,0.999996,0.000215,-0.003201,0.008971,-0.001480,0.009149,-0.003379,-83.164654,0.009252,
1130,140,0.077649,-19.406461,0.999998,0.000133,-0.000933,0.006519,0.000189,0.006524,-0.000938,88.551855,0.007054,
850,2010,0.095048,-0.180051,0.999998,0.000165,-0.000331,0.006886,-0.001541,0.007202,-0.000647,-78.439247,0.007969,
1330,440,-0.246714,-17.270623,0.999998,0.000183,-0.002762,0.007374,0.000647,0.007415,-0.002803,86.361520,0.007488,
690,230,1.354087,-18.161604,0.999996,0.000243,-0.004619,0.010012,0.000800,0.010056,-0.004663,86.881669,0.010065,
810,1370,2.148886,-6.323877,0.999995,0.000279,-0.006055,0.011128,-0.000147,0.011129,-0.006056,-89.511347,0.011144,
1520,450,-0.903158,-16.730745,0.999997,0.000199,-0.004194,0.009177,0.000711,0.009214,-0.004231,86.964800,0.009225,
1790,720,-3.045375,-13.093735,0.999996,0.000257,-0.005243,0.010242,-0.000606,0.010265,-0.005267,-87.763361,0.010266,
1550,1350,-1.555084,-6.170512,0.999994,0.000276,-0.006731,0.011570,-0.000680,0.011595,-0.006756,-87.876061,0.011648,
1890,370,-2.453510,-16.349144,0.999997,0.000236,-0.004993,0.009798,0.000057,0.009798,-0.004993,89.778052,0.009799,
1670,1660,-1.455621,-3.345726,0.999995,0.000247,-0.004658,0.009849,-0.000125,0.009850,-0.004659,-89.506223,0.009855,
1840,1970,-0.687270,-0.711190,0.999996,0.000234,-0.004586,0.010757,0.002491,0.011151,-0.004980,81.006881,0.011172,
1120,890,1.153937,-14.054020,0.999994,0.000000,-0.002297,0.005686,-0.004661,0.007831,-0.004442,-65.288588,0.007855,
1330,290,-0.176928,-18.374177,0.999998,0.000163,-0.001990,0.007182,0.000152,0.007184,-0.001993,89.053824,0.007418,
1720,960,-3.468234,-10.746904,0.999996,0.000215,-0.004428,0.009976,-0.000749,0.010015,-0.004467,-87.031944,0.010034,
1030,1580,0.587011,-3.391491,0.999995,0.000259,-0.003648,0.008437,0.001031,0.008525,-0.003736,85.157926,0.008546,
1060,1960,0.081022,-0.474982,0.999998,0.000164,-0.000665,0.006496,-0.000476,0.006527,-0.000697,-86.214130,0.007168,
840,1710,1.116175,-2.732653,0.999997,0.000182,-0.003884,0.009450,-0.000167,0.009452,-0.003886,-89.283801,0.009501,
600,1210,3.831624,-8.460522,0.999998,0.000166,-0.004559,0.009369,-0.000471,0.009385,-0.004575,-88.064973,0.009386,
1480,950,-2.352013,-11.158401,0.999991,0.000335,-0.005393,0.014003,-0.000788,0.014035,-0.005425,-87.676721,0.014155,
1220,1520,0.028345,-3.458155,0.999998,0.000188,-0.002525,0.006600,0.000283,0.006608,-0.002534,88.228265,0.006668,
1850,170,-1.382743,-18.505954,0.999996,0.000238,-0.004892,0.010361,-0.000748,0.010398,-0.004929,-87.199373,0.010403,
1760,1320,-2.942619,-7.148862,0.999996,0.000254,-0.005368,0.010427,0.000688,0.010457,-0.005398,87.510454,0.010459,
1170,1230,0.277625,-5.061616,0.999993,0.000281,-0.004232,0.003620,0.002552,0.004377,-0.004989,73.486825,0.005442,
730,650,2.492775,-13.976831,0.999994,0.000286,-0.005540,0.010567,0.000269,0.010571,-0.005544,89.044988,0.010575,
890,1260,2.060801,-7.350754,0.999995,0.000269,-0.006798,0.012205,-0.000534,0.012220,-0.006813,-88.391609,0.012247,
910,810,1.989422,-12.699552,0.999995,0.000272,-0.006951,0.012448,0.000526,0.012463,-0.006965,88.447563,0.012491,
1620,1570,-1.431637,-4.086139,0.999997,0.000189,-0.004952,0.009975,-0.000485,0.009991,-0.004968,-88.142603,0.009991,
1900,1610,-2.733973,-4.585275,0.999996,0.000000,-0.004985,0.010044,-0.000038,0.010045,-0.004985,-89.856858,0.010045,
830,260,0.912490,-18.198311,0.999996,0.000243,-0.003260,0.009089,0.000756,0.009135,-0.003306,86.511370,0.009251,
1220,330,0.022742,-18.128426,0.999998,0.000158,-0.002054,0.007039,-0.000098,0.007040,-0.002055,-89.385417,0.007241,
1670,400,-1.468948,-16.765165,0.999996,0.000283,-0.004682,0.009905,0.000144,0.009906,-0.004683,89.433753,0.009911,
990,1930,0.187119,-0.700660,0.999998,0.000184,-0.000939,0.006957,-0.000771,0.007031,-0.001013,-84.476927,0.007602,
870,570,1.477243,-15.294414,0.999994,0.000270,-0.005561,0.010449,-0.000704,0.010479,-0.005592,-87.486542,0.010487,
950,130,0.248368,-19.403120,0.999997,0.000205,-0.001359,0.007211,0.000871,0.007298,-0.001447,84.253263,0.007729,
1040,420,0.512956,-17.242708,0.999997,0.000233,-0.003222,0.008102,-0.000681,0.008143,-0.003263,-86.570416,0.008196,
1470,1900,-0.240703,-0.911382,0.999997,0.000209,-0.001174,0.007143,0.000733,0.007207,-0.001238,85.001824,0.007708,
910,1960,0.199911,-0.517451,0.999997,0.000211,-0.000820,0.007122,-0.001217,0.007305,-0.001002,-81.479797,0.007920,
1610,530,-1.479564,-15.649902,0.999995,0.000254,-0.005284,0.010246,0.000606,0.010270,-0.005308,87.769546,0.010272,
820,1850,0.747580,-1.476792,0.999998,0.000183,-0.002855,0.008879,-0.001206,0.009001,-0.002977,-84.194132,0.009171,
1690,1250,-2.824760,-7.760438,0.999997,0.000215,-0.005610,0.010901,0.001068,0.010970,-0.005678,86.314701,0.010972,
1570,780,-1.972477,-13.002863,0.999994,0.000296,-0.006844,0.012119,-0.000330,0.012125,-0.006850,-89.004027,0.012159,
1290,1530,-0.146563,-3.429345,0.999997,0.000188,-0.002706,0.006891,-0.000655,0.006935,-0.002751,-86.114026,0.006984,
1640,910,-2.963772,-11.319238,0.999995,0.000267,-0.004879,0.010920,-0.001336,0.011033,-0.004991,-85.200450,0.011049,
1290,140,-0.045188,-19.413181,0.999998,0.000158,-0.000666,0.006461,-0.000143,0.006464,-0.000669,-88.847944,0.007110,
1310,440,-0.190479,-17.306068,0.999998,0.000157,-0.002646,0.007239,0.000535,0.007268,-0.002675,86.908901,0.007352,
1510,950,-2.504745,-11.057853,0.999992,0.000338,-0.004862,0.012740,-0.001239,0.012826,-0.004949,-85.993099,0.012937,
740,50,0.182314,-19.916905,0.999996,0.000220,-0.000664,0.007781,0.002711,0.008577,-0.001459,73.647675,0.009178,
710,640,2.568920,-14.027281,0.999995,0.000284,-0.005456,0.010438,0.000253,0.010442,-0.005460,89.089311,0.010446,
840,2010,0.099264,-0.180172,0.999998,0.000175,-0.000228,0.006948,-0.001650,0.007309,-0.000589,-77.655360,0.008121,
1550,1330,-1.621207,-6.407165,0.999994,0.000293,-0.006891,0.011811,-0.000550,0.011827,-0.006907,-88.317099,0.011883,
1770,720,-2.940715,-13.140785,0.999997,0.000231,-0.005292,0.010328,-0.000631,0.010354,-0.005317,-87.692242,0.010355,
1620,1550,-1.475377,-4.288675,0.999996,0.000264,-0.005120,0.010124,-0.000524,0.010142,-0.005138,-88.033378,0.010142,
1330,1580,-0.257649,-3.143171,0.999998,0.000149,-0.002876,0.007326,-0.000798,0.007388,-0.002938,-85.555874,0.007440,
1120,30,0.009697,-20.094793,0.999998,0.000000,-0.000143,0.005966,0.000236,0.005975,-0.000152,87.786583,0.006813,
1620,1290,-2.238725,-7.140008,0.999993,0.000290,-0.006412,0.011619,0.000627,0.011640,-0.006434,88.011896,0.011662,
870,1260,2.191715,-7.415076,0.999993,0.000296,-0.006580,0.011992,-0.000715,0.012019,-0.006607,-87.799226,0.012039,
880,70,0.153298,-19.808956,0.999997,0.000188,-0.000952,0.007111,0.001427,0.007356,-0.001197,80.253612,0.007894,
1720,940,-3.422613,-10.948020,0.999997,0.000216,-0.004548,0.009967,-0.000874,0.010019,-0.004601,-86.565719,0.010030,
1330,270,-0.163271,-18.519122,0.999998,0.000172,-0.001879,0.007123,0.000089,0.007124,-0.001879,89.435350,0.007384,
830,200,0.700920,-18.740573,0.999998,0.000201,-0.002614,0.008760,0.001266,0.008899,-0.002753,83.726020,0.009112,
1900,1600,-2.762459,-4.686034,0.999996,0.000000,-0.005006,0.010047,-0.000089,0.010048,-0.005007,-89.661701,0.010048,
990,1910,0.224028,-0.839710,0.999997,0.000196,-0.001151,0.007092,-0.000725,0.007155,-0.001215,-85.012014,0.007658,
950,170,0.344093,-19.105665,0.999997,0.000215,-0.001841,0.007521,0.000768,0.007584,-0.001904,85.338701,0.007891,
730,630,2.430908,-14.191589,0.999996,0.000247,-0.005501,0.010537,0.000138,0.010538,-0.005502,89.506899,0.010542,
670,700,2.991159,-13.292346,0.999997,0.000212,-0.005231,0.010245,0.000510,0.010262,-0.005248,88.113869,0.010263,
1080,340,0.328095,-17.949756,0.999997,0.000215,-0.002303,0.007572,-0.000159,0.007574,-0.002305,-89.079925,0.007765,
1500,970,-2.557839,-10.825055,0.999995,0.000316,-0.004514,0.012897,-0.000955,0.012949,-0.004566,-86.868817,0.013135,
1440,1500,-0.679686,-4.113569,0.999996,0.000241,-0.004344,0.008827,-0.001560,0.009009,-0.004526,-83.337285,0.009009,
870,550,1.431657,-15.504114,0.999995,0.000274,-0.005382,0.010306,-0.000715,0.010338,-0.005415,-87.396604,0.010342,
1850,370,-2.253804,-16.490276,0.999996,0.000237,-0.004899,0.010008,0.000100,0.010009,-0.004899,89.615782,0.010010,
1070,380,0.383709,-17.629840,0.999996,0.000222,-0.002813,0.007809,-0.000451,0.007828,-0.002832,-87.571469,0.007927,
1810,1180,-3.678787,-8.654966,0.999997,0.000241,-0.004672,0.009624,0.000800,0.009669,-0.004716,86.806499,0.009670,
1170,130,0.044744,-19.476725,0.999998,0.000165,-0.000623,0.006412,0.000166,0.006415,-0.000627,88.649815,0.007074,
910,790,1.898605,-12.946641,0.999994,0.000288,-0.007025,0.012324,0.000257,0.012327,-0.007029,89.239759,0.012368,
590,1900,1.401901,-1.614461,0.999995,0.000245,-0.004984,0.010280,-0.000916,0.010334,-0.005039,-86.578214,0.010335,
1040,400,0.493286,-17.407881,0.999997,0.000240,-0.003140,0.008081,-0.000598,0.008113,-0.003172,-86.957537,0.008177,
1400,1710,-0.370590,-2.268414,0.999997,0.000230,-0.002644,0.007705,-0.000291,0.007714,-0.002653,-88.391603,0.007838,
1610,510,-1.434033,-15.854207,0.999995,0.000290,-0.005099,0.010091,0.000571,0.010112,-0.005120,87.849464,0.010112,
780,1860,0.840721,-1.453027,0.999996,0.000216,-0.003470,0.009241,-0.001306,0.009374,-0.003602,-84.195082,0.009457,
1550,1940,-0.251138,-0.662096,0.999997,0.000223,-0.001026,0.007396,0.001257,0.007580,-0.001210,81.689492,0.008144,
1510,930,-2.398212,-11.311395,0.999992,0.000339,-0.005423,0.012952,-0.001259,0.013038,-0.005509,-86.098079,0.013090,
1290,1510,-0.147814,-3.567567,0.999998,0.000177,-0.002743,0.006760,-0.000778,0.006823,-0.002806,-85.348026,0.006859,
740,40,0.123317,-19.996666,0.999998,0.000160,-0.000356,0.007735,0.002804,0.008612,-0.001233,72.633835,0.009314,
1470,490,-0.748755,-16.517668,0.999997,0.000195,-0.004096,0.008875,0.001055,0.008961,-0.004181,85.381818,0.008967,
1450,1900,-0.217895,-0.902352,0.999997,0.000207,-0.001221,0.007079,0.000635,0.007127,-0.001269,85.653325,0.007603,
870,940,2.854080,-11.030937,0.999997,0.000247,-0.004608,0.011180,0.001313,0.011288,-0.004716,85.278985,0.011339,
1670,1640,-1.508373,-3.544188,0.999996,0.000259,-0.004721,0.009927,-0.000197,0.009930,-0.004724,-89.230835,0.009934,
1390,1810,-0.245638,-1.504686,0.999997,0.000200,-0.001684,0.007290,0.000194,0.007294,-0.001688,88.762254,0.007637,
570,130,1.316604,-18.709389,0.999943,0.000954,-0.004735,0.010814,0.001682,0.010994,-0.004915,83.896091,0.011014,
1630,1990,-0.169213,-0.320680,0.999997,0.000213,-0.000569,0.007352,0.001855,0.007765,-0.000982,77.451377,0.008456,
1820,560,-2.670380,-14.655891,0.999996,0.000228,-0.005112,0.010263,0.000044,0.010263,-0.005112,89.835550,0.010264,
690,210,1.258464,-18.360532,0.999995,0.000251,-0.004512,0.010055,0.001047,0.010130,-0.004586,85.910059,0.010145,
620,1830,1.658345,-2.188058,0.999995,0.000261,-0.004875,0.010098,-0.000349,0.010106,-0.004883,-88.664371,0.010108,
1900,1590,-2.790401,-4.787155,0.999996,0.000000,-0.005014,0.010022,-0.000104,0.010023,-0.005015,-89.603306,0.010023,
1760,1300,-3.014771,-7.359171,0.999996,0.000230,-0.005320,0.010472,0.000783,0.010510,-0.005359,87.169661,0.010511,
1140,220,0.118981,-18.873586,0.999998,0.000169,-0.001474,0.006841,0.000066,0.006841,-0.001475,89.546879,0.007201,
900,450,1.092302,-16.597443,0.999996,0.000237,-0.004418,0.009474,-0.000586,0.009499,-0.004442,-87.589668,0.009506,
1610,1420,-1.734308,-5.623686,0.999994,0.000286,-0.006060,0.010956,-0.000441,0.010967,-0.006072,-88.515243,0.010988,
790,1320,2.449618,-6.944894,0.999994,0.000307,-0.006001,0.011108,-0.000614,0.011130,-0.006023,-87.946221,0.011142,
730,610,2.365566,-14.401093,0.999996,0.000256,-0.005475,0.010537,0.000080,0.010537,-0.005476,89.715357,0.010540,
1870,1550,-2.759363,-5.097353,0.999996,0.000246,-0.005051,0.010134,-0.000049,0.010134,-0.005051,-89.815856,0.010134,
650,700,3.093560,-13.240677,0.999996,0.000237,-0.005113,0.010167,0.000447,0.010180,-0.005126,88.325019,0.010180,
1600,370,-1.087824,-17.248614,0.999998,0.000161,-0.004113,0.009308,0.000140,0.009310,-0.004114,89.400300,0.009331,
1360,70,-0.040545,-19.850211,0.999998,0.000157,-0.000302,0.006254,-0.000386,0.006276,-0.000325,-86.641643,0.007067,
670,740,3.134918,-12.879551,0.999995,0.000260,-0.005138,0.010198,0.000662,0.010226,-0.005166,87.534058,0.010226,
810,1350,2.216141,-6.551851,0.999996,0.000284,-0.006101,0.011231,-0.000314,0.011236,-0.006107,-88.964013,0.011250,
1780,1570,-2.245385,-4.607492,0.999998,0.000171,-0.005147,0.010205,-0.000168,0.010207,-0.005149,-89.372148,0.010207,
1440,1480,-0.692721,-4.290477,0.999996,0.000243,-0.004517,0.008992,-0.001696,0.009202,-0.004726,-82.952195,0.009203,
1690,1230,-2.901513,-7.974670,0.999997,0.000210,-0.005478,0.010787,0.001164,0.010870,-0.005561,85.927882,0.010870,
1250,720,-0.036701,-15.676280,0.999998,0.000155,-0.002027,0.003945,0.000844,0.004062,-0.002144,82.105691,0.004064,
1770,980,-3.712497,-10.534107,0.999997,0.000220,-0.004386,0.009468,-0.000292,0.009474,-0.004393,-88.794074,0.009483,
1080,380,0.357479,-17.645642,0.999997,0.000210,-0.002628,0.007723,-0.000364,0.007736,-0.002641,-87.989400,0.007864,
1720,920,-3.376916,-11.147624,0.999996,0.000249,-0.004683,0.010023,-0.000896,0.010077,-0.004737,-86.527596,0.010083,
870,530,1.389642,-15.709018,0.999996,0.000278,-0.005168,0.010145,-0.000690,0.010176,-0.005199,-87.424572,0.010177,
1840,1580,-2.520009,-4.699280,0.999996,0.000261,-0.005054,0.010131,-0.000111,0.010132,-0.005055,-89.579901,0.010132,
1620,1230,-2.499806,-7.846912,0.999995,0.000252,-0.006091,0.011657,0.001159,0.011733,-0.006167,86.279502,0.011738,
1160,30,0.004840,-20.096863,0.999999,0.000000,-0.000073,0.005992,0.000178,0.005998,-0.000078,88.319168,0.006880,
1550,1310,-1.690173,-6.645959,0.999993,0.000301,-0.007037,0.012055,-0.000341,0.012062,-0.007043,-88.976330,0.012118,
1130,1520,0.273193,-3.592675,0.999997,0.000194,-0.002998,0.007269,0.001085,0.007383,-0.003112,84.032298,0.007413,
1410,640,-0.588636,-15.430992,0.999995,0.000255,-0.004868,0.008820,0.002392,0.009226,-0.005274,80.368564,0.009258,
1610,490,-1.392977,-16.055215,0.999994,0.000306,-0.004940,0.009953,0.000562,0.009974,-0.004962,87.842695,0.009974,
910,1210,2.168799,-7.905202,0.999994,0.000283,-0.006692,0.012450,-0.000936,0.012496,-0.006738,-87.207832,0.012509,
1600,1930,-0.360783,-0.770450,0.999997,0.000206,-0.001711,0.007772,0.001410,0.007978,-0.001916,81.721181,0.008329,
1800,1190,-3.598933,-8.543381,0.999995,0.000254,-0.004780,0.009773,0.000894,0.009828,-0.004834,86.495964,0.009828,
1380,1710,-0.323712,-2.244413,0.999997,0.000206,-0.002293,0.007564,-0.000191,0.007568,-0.002297,-88.887894,0.007761,
1560,770,-1.860658,-13.166500,0.999995,0.000254,-0.006959,0.012153,-0.000081,0.012153,-0.006960,-89.757252,0.012196,
670,1520,2.456978,-5.161739,0.999995,0.000254,-0.005188,0.010230,0.000075,0.010230,-0.005188,89.720585,0.010231,
700,370,1.827217,-16.780083,0.999996,0.000202,-0.004860,0.010099,-0.000040,0.010099,-0.004861,-89.847307,0.010101,
1040,380,0.474818,-17.566200,0.999997,0.000242,-0.003054,0.008122,-0.000493,0.008144,-0.003076,-87.480388,0.008225,
1470,470,-0.730080,-16.696207,0.999997,0.000208,-0.004027,0.008798,0.000989,0.008873,-0.004103,85.617308,0.008882,
1390,1790,-0.268357,-1.652667,0.999997,0.000220,-0.001857,0.007345,0.000111,0.007346,-0.001858,89.310929,0.007640,
850,940,2.944624,-11.012637,0.999996,0.000237,-0.004557,0.010903,0.001205,0.010996,-0.004650,85.569322,0.011040,
1760,1280,-3.089960,-7.570975,0.999997,0.000226,-0.005253,0.010339,0.000875,0.010388,-0.005302,86.796935,0.010389,
1510,910,-2.273540,-11.573169,0.999994,0.000314,-0.006010,0.013087,-0.001189,0.013161,-0.006084,-86.450685,0.013174,
1180,560,0.129814,-16.504353,0.999998,0.000179,-0.002682,0.006590,-0.000721,0.006646,-0.002737,-85.581398,0.006680,
780,1840,0.927620,-1.639974,0.999997,0.000211,-0.003668,0.009251,-0.001091,0.009342,-0.003760,-85.206209,0.009401,
1140,240,0.134278,-18.734838,0.999998,0.000175,-0.001597,0.006960,0.000018,0.006960,-0.001597,89.876178,0.007292,
1870,1750,-2.129496,-3.093408,0.999996,0.000220,-0.004849,0.009884,-0.000016,0.009884,-0.004849,-89.938396,0.009885,
690,190,1.155600,-18.566675,0.999997,0.000211,-0.004388,0.009980,0.001274,0.010092,-0.004500,84.972824,0.010111,
1900,1580,-2.819720,-4.887496,0.999996,0.000000,-0.004967,0.010024,-0.000085,0.010024,-0.004968,-89.674874,0.010024,
1820,540,-2.610100,-14.861498,0.999995,0.000248,-0.005124,0.010193,0.000057,0.010193,-0.005124,89.787580,0.010193,
1040,1770,0.366891,-1.842672,0.999997,0.000206,-0.002455,0.007680,0.000031,0.007680,-0.002455,89.823802,0.007844,
730,590,2.303897,-14.612874,0.999994,0.000284,-0.005427,0.010507,-0.000007,0.010507,-0.005427,-89.974599,0.010509,
1590,1420,-1.611985,-5.550506,0.999997,0.000224,-0.006046,0.010929,-0.000612,0.010951,-0.006068,-87.939460,0.010973,
810,1330,2.291373,-6.777747,0.999995,0.000303,-0.006128,0.011235,-0.000461,0.011247,-0.006141,-88.479625,0.011263,
1600,1290,-2.110411,-7.080583,0.999993,0.000289,-0.006579,0.011798,0.000465,0.011810,-0.006591,88.553048,0.011837,
1890,1550,-2.860243,-5.158313,0.999997,0.000208,-0.005015,0.010105,-0.000030,0.010105,-0.005015,-89.888015,0.010105,
1440,1460,-0.705504,-4.466432,0.999996,0.000249,-0.004777,0.009146,-0.001880,0.009395,-0.005027,-82.445140,0.009403,
1600,350,-1.041352,-17.433653,0.999997,0.000200,-0.003957,0.009309,0.000001,0.009309,-0.003957,89.997062,0.009343,
690,340,1.777060,-17.050722,0.999997,0.000213,-0.004804,0.010005,0.000016,0.010005,-0.004804,89.938335,0.010007,
1690,1210,-2.979451,-8.194542,0.999996,0.000222,-0.005346,0.010799,0.001241,0.010893,-0.005440,85.630679,0.010893,
790,1640,1.522647,-3.552511,0.999995,0.000263,-0.004750,0.009937,0.000187,0.009939,-0.004752,89.270519,0.009942,
630,700,3.195861,-13.185749,0.999997,0.000213,-0.005070,0.010093,0.000380,0.010103,-0.005079,88.565110,0.010103,
1160,870,0.756212,-14.831567,0.999997,0.000000,-0.004809,0.002535,-0.001103,0.002697,-0.004970,-81.642813,0.004976,
1090,170,0.146460,-19.187962,0.999998,0.000168,-0.001017,0.006786,0.000341,0.006800,-0.001032,87.502979,0.007330,
1720,900,-3.324562,-11.351442,0.999996,0.000232,-0.004813,0.010278,-0.001118,0.010360,-0.004896,-85.786837,0.010365,
1500,950,-2.456048,-11.088067,0.999993,0.000324,-0.005020,0.013095,-0.001152,0.013168,-0.005093,-86.377282,0.013280,
1850,1650,-2.362845,-4.024026,0.999996,0.000246,-0.005009,0.009998,-0.000124,0.009999,-0.005010,-89.524846,0.009999,
1230,720,0.003613,-15.698591,0.999997,0.000211,-0.001968,0.003816,-0.000085,0.003817,-0.001969,-89.158585,0.003818,
1610,470,-1.352238,-16.253504,0.999995,0.000282,-0.004862,0.009919,0.000501,0.009936,-0.004879,88.062598,0.009936,
910,1230,2.066465,-7.654250,0.999995,0.000267,-0.006882,0.012539,-0.000706,0.012564,-0.006907,-87.920952,0.012585,
670,1500,2.517712,-5.367787,0.999995,0.000282,-0.005216,0.010260,0.000037,0.010260,-0.005216,89.861665,0.010260,
870,510,1.349699,-15.911136,0.999997,0.000267,-0.005014,0.010008,-0.000636,0.010035,-0.005041,-87.578492,0.010035,
1600,1230,-2.375283,-7.798015,0.999993,0.000311,-0.006318,0.011889,0.001085,0.011954,-0.006382,86.601424,0.011963,
1410,620,-0.581495,-15.604189,0.999996,0.000229,-0.004627,0.008710,0.002228,0.009073,-0.004990,80.762360,0.009088,
1360,330,-0.269785,-18.048989,0.999996,0.000225,-0.002253,0.007436,0.000177,0.007439,-0.002256,88.956488,0.007628,
600,1260,3.676031,-7.993406,0.999996,0.000263,-0.004706,0.009429,-0.000391,0.009439,-0.004717,-88.418620,0.009439,
660,1130,3.765790,-9.121573,0.999996,0.000212,-0.004549,0.009430,-0.000687,0.009463,-0.004582,-87.191885,0.009465,
1580,1930,-0.323057,-0.754415,0.999997,0.000220,-0.001711,0.007654,0.001262,0.007821,-0.001878,82.458126,0.008165,
1540,770,-1.719370,-13.251411,0.999993,0.000302,-0.007182,0.012309,0.000201,0.012311,-0.007184,89.409106,0.012368,
1140,260,0.143218,-18.595803,0.999998,0.000174,-0.001765,0.007040,-0.000033,0.007040,-0.001765,-89.787229,0.007326,
1820,520,-2.550265,-15.066258,0.999995,0.000255,-0.005127,0.010164,0.000095,0.010165,-0.005128,89.645738,0.010165,
590,320,2.198430,-16.903411,0.999996,0.000232,-0.004844,0.009849,-0.000082,0.009850,-0.004845,-89.681010,0.009850,
1530,1680,-0.825609,-2.781978,0.999998,0.000161,-0.003497,0.008750,-0.000250,0.008755,-0.003502,-88.832440,0.008814,
680,370,1.923340,-16.715681,0.999998,0.000167,-0.004862,0.010104,-0.000012,0.010104,-0.004862,-89.954050,0.010107,
1110,1520,0.335172,-3.638680,0.999996,0.000258,-0.003294,0.007563,0.001336,0.007725,-0.003456,83.085137,0.007739,
1550,1820,-0.581039,-1.605518,0.999997,0.000201,-0.002393,0.008305,0.000690,0.008349,-0.002437,86.322012,0.008587,
1760,1480,-2.403102,-5.473269,0.999995,0.000249,-0.005318,0.010374,-0.000013,0.010374,-0.005318,-89.952079,0.010375,
690,170,1.048356,-18.760843,0.999996,0.000221,-0.004166,0.009960,0.001591,0.010137,-0.004343,83.651612,0.010171,
990,1890,0.262546,-0.984525,0.999998,0.000176,-0.001357,0.007261,-0.000708,0.007318,-0.001415,-85.335411,0.007764,
1470,450,-0.705211,-16.871778,0.999997,0.000223,-0.003938,0.008749,0.000904,0.008813,-0.004002,85.945714,0.008826,
1390,1770,-0.289222,-1.801315,0.999997,0.000211,-0.001990,0.007466,0.000063,0.007466,-0.001991,89.616758,0.007732,
1900,1570,-2.850398,-4.988053,0.999996,0.000000,-0.004956,0.010047,-0.000058,0.010047,-0.004956,-89.778867,0.010048,
1580,1290,-1.977213,-7.012458,0.999995,0.000235,-0.006741,0.011957,0.000258,0.011960,-0.006745,89.208759,0.011993,
590,930,4.086823,-10.915274,0.999997,0.000215,-0.004239,0.008817,0.000370,0.008828,-0.004250,88.378880,0.008830,
1020,1770,0.415688,-1.869465,0.999997,0.000204,-0.002406,0.007825,-0.000090,0.007825,-0.002406,-89.497972,0.008016,
730,570,2.245450,-14.824666,0.999995,0.000253,-0.005384,0.010426,-0.000103,0.010426,-0.005384,-89.625761,0.010428,
1510,890,-2.147774,-11.837530,0.999994,0.000316,-0.006471,0.013180,-0.001019,0.013233,-0.006524,-87.040578,0.013233,
690,320,1.714309,-17.253080,0.999998,0.000152,-0.004815,0.010074,0.000074,0.010074,-0.004815,89.715416,0.010077,
820,270,0.977038,-18.090245,0.999997,0.000268,-0.003490,0.009207,0.000677,0.009243,-0.003526,86.956033,0.009329,
1090,1580,0.382970,-3.232104,0.999997,0.000209,-0.003219,0.007775,0.001036,0.007871,-0.003316,84.663151,0.007904,
1780,1550,-2.303503,-4.812524,0.999996,0.000250,-0.005160,0.010215,-0.000146,0.010216,-0.005162,-89.454822,0.010217,
1160,1180,0.834940,-5.334793,0.999993,0.000000,-0.005052,0.002572,0.001077,0.002721,-0.005201,82.108997,0.005203,
780,1820,1.005124,-1.827389,0.999997,0.000209,-0.003856,0.009455,-0.000896,0.009515,-0.003916,-86.167450,0.009565,
610,700,3.296329,-13.128920,0.999995,0.000253,-0.004997,0.010029,0.000298,0.010035,-0.005002,88.865053,0.010035,
1720,880,-3.255778,-11.560078,0.999996,0.000236,-0.004966,0.010347,-0.001156,0.010434,-0.005053,-85.708213,0.010436,
910,1250,1.965494,-7.399496,0.999993,0.000303,-0.006982,0.012478,-0.000433,0.012488,-0.006992,-88.727051,0.012518,
1690,1190,-3.056885,-8.411627,0.999996,0.000229,-0.005166,0.010653,0.001198,0.010744,-0.005256,85.694327,0.010744,
810,1310,2.365166,-7.002216,0.999995,0.000300,-0.006119,0.011281,-0.000608,0.011302,-0.006141,-88.000210,0.011316,
1090,150,0.121077,-19.328132,0.999998,0.000145,-0.000853,0.006748,0.000384,0.006768,-0.000873,87.115480,0.007363,
1420,810,-0.982852,-13.609902,0.999994,0.000342,-0.007787,0.011950,0.002831,0.012348,-0.008185,81.998055,0.012565,
1460,1230,-1.371235,-7.121369,0.999992,0.000359,-0.007837,0.013030,-0.001363,0.013119,-0.007926,-86.279838,0.013213,
1850,1690,-2.236402,-3.618225,0.999995,0.000266,-0.004893,0.009992,-0.000091,0.009993,-0.004893,-89.648542,0.009994,
1190,720,0.084605,-15.619337,0.999997,0.000210,-0.002402,0.004327,-0.001806,0.004782,-0.002856,-75.883839,0.004812,
1440,1440,-0.720988,-4.657334,0.999995,0.000263,-0.005062,0.009281,-0.002097,0.009582,-0.005362,-81.849072,0.009604,
1810,1420,-2.855557,-6.245349,0.999998,0.000193,-0.005181,0.010252,0.000206,0.010255,-0.005184,89.234785,0.010255,
1150,1900,0.068435,-0.847390,0.999998,0.000165,-0.000878,0.006534,-0.000203,0.006540,-0.000884,-88.436212,0.007096,
650,740,3.235876,-12.832926,0.999998,0.000164,-0.005046,0.010028,0.000595,0.010051,-0.005069,87.742414,0.010051,
1640,480,-1.519404,-16.059151,0.999995,0.000261,-0.005020,0.010038,0.000434,0.010051,-0.005032,88.348667,0.010051,
1820,500,-2.493362,-15.269383,0.999995,0.000264,-0.005104,0.010203,0.000124,0.010204,-0.005105,89.534293,0.010204,
760,450,1.760400,-16.158326,0.999996,0.000242,-0.005014,0.010099,-0.000273,0.010104,-0.005019,-88.966715,0.010104,
1840,1950,-0.866757,-0.922051,0.999994,0.000290,-0.004709,0.010565,0.001893,0.010796,-0.004940,83.038055,0.010809,
1140,700,0.231876,-15.477139,0.999997,0.000210,-0.003489,0.006315,-0.002966,0.007142,-0.004317,-74.411788,0.007194,
1870,1740,-2.166335,-3.195352,0.999997,0.000201,-0.004858,0.009930,-0.000061,0.009930,-0.004858,-89.764768,0.009931,
690,150,0.926341,-18.967531,0.999996,0.000221,-0.003964,0.009860,0.001891,0.010114,-0.004218,82.348508,0.010160,
1330,250,-0.151679,-18.659343,0.999998,0.000188,-0.001727,0.007020,0.000028,0.007020,-0.001728,89.815974,0.007316,
1610,450,-1.307864,-16.450987,0.999995,0.000282,-0.004762,0.009836,0.000466,0.009851,-0.004777,88.172616,0.009853,
660,1390,2.920700,-6.534530,0.999996,0.000235,-0.005166,0.010309,-0.000336,0.010317,-0.005174,-88.756318,0.010317,
730,550,2.187772,-15.032275,0.999995,0.000242,-0.005319,0.010344,-0.000136,0.010345,-0.005321,-89.500958,0.010346,
580,930,4.129358,-10.901382,0.999997,0.000217,-0.004079,0.008678,0.000278,0.008684,-0.004085,88.753257,0.008689,
1390,1960,-0.075366,-0.472800,0.999998,0.000192,-0.000514,0.006452,0.000448,0.006481,-0.000543,86.336151,0.007190,
570,770,3.736208,-12.321283,0.999897,0.001070,-0.005449,0.009534,0.000004,0.009534,-0.005449,89.983380,0.009566,
940,1770,0.628688,-1.987663,0.999997,0.000219,-0.002931,0.008427,-0.000238,0.008432,-0.002936,-88.801268,0.008561,
1510,870,-2.020486,-12.100016,0.999994,0.000320,-0.006904,0.013201,-0.000719,0.013227,-0.006929,-87.953285,0.013232,
1380,1290,-0.549730,-5.643366,0.999993,0.000312,-0.006215,0.009379,-0.003961,0.010328,-0.007164,-76.534316,0.010583,
870,490,1.309223,-16.108987,0.999996,0.000259,-0.004940,0.009925,-0.000631,0.009952,-0.004966,-87.573222,0.009952,
1650,80,-0.248419,-19.719839,0.999997,0.000210,-0.001130,0.007648,-0.001941,0.008058,-0.001540,-78.068805,0.008555,
950,1610,0.866789,-3.363322,0.999996,0.000234,-0.004012,0.009042,0.000677,0.009077,-0.004047,87.039115,0.009095,
1880,1550,-2.810175,-5.127492,0.999997,0.000193,-0.005033,0.010122,-0.000041,0.010122,-0.005033,-89.845568,0.010123,
590,1130,4.075564,-9.199956,0.999998,0.000195,-0.004203,0.008824,-0.000367,0.008834,-0.004213,-88.387575,0.008837,
1410,460,-0.499617,-16.949007,0.999996,0.000246,-0.003355,0.008081,0.000906,0.008152,-0.003426,85.499734,0.008187,
1900,1560,-2.879341,-5.089502,0.999997,0.000000,-0.004983,0.010074,-0.000028,0.010074,-0.004983,-89.892345,0.010074,
780,1800,1.081824,-2.019355,0.999997,0.000210,-0.004001,0.009489,-0.000715,0.009527,-0.004039,-86.974510,0.009563,
790,1620,1.571669,-3.752545,0.999994,0.000269,-0.004859,0.009998,0.000270,0.010003,-0.004864,88.959534,0.010004,
1760,760,-3.036322,-12.746342,0.999997,0.000234,-0.005310,0.010399,-0.000788,0.010438,-0.005350,-87.133878,0.010440,
820,250,0.908365,-18.274059,0.999996,0.000253,-0.003326,0.009190,0.000826,0.009244,-0.003380,86.240803,0.009355,
1400,810,-0.825971,-13.832316,0.999994,0.000327,-0.007441,0.011299,0.003537,0.011944,-0.008086,79.660460,0.012191,
910,1270,1.876397,-7.151317,0.999993,0.000322,-0.007068,0.012305,-0.000177,0.012307,-0.007069,-89.475407,0.012352,
1290,1490,-0.147555,-3.700556,0.999998,0.000162,-0.002753,0.006645,-0.000942,0.006739,-0.002847,-84.329982,0.006766,
1090,130,0.105077,-19.460379,0.999998,0.000137,-0.000704,0.006607,0.000389,0.006627,-0.000725,86.963216,0.007270,
810,1510,1.743555,-4.812941,0.999997,0.000208,-0.005365,0.010411,0.000405,0.010421,-0.005375,88.530905,0.010423,
1720,1080,-3.493434,-9.565002,0.999996,0.000241,-0.004349,0.009840,0.000467,0.009855,-0.004365,88.118779,0.009877,
1860,1180,-3.908466,-8.736502,0.999996,0.000248,-0.004420,0.009027,0.000396,0.009038,-0.004432,88.315708,0.009039,
1440,1230,-1.212756,-6.933700,0.999995,0.000277,-0.007862,0.012728,-0.002024,0.012925,-0.008059,-84.439653,0.013056,
1820,480,-2.434257,-15.475550,0.999996,0.000254,-0.005075,0.010193,0.000139,0.010194,-0.005077,89.479262,0.010194,
1140,680,0.232359,-15.605251,0.999996,0.000243,-0.003413,0.006395,-0.002668,0.007074,-0.004092,-75.725892,0.007103,
1440,1420,-0.741890,-4.846614,0.999995,0.000262,-0.005306,0.009363,-0.002253,0.009701,-0.005644,-81.463122,0.009744,
570,650,3.325044,-13.511709,0.999929,0.000962,-0.004428,0.009748,-0.000045,0.009749,-0.004428,-89.819499,0.009762,
800,490,1.660376,-15.880208,0.999996,0.000225,-0.005114,0.010150,-0.000366,0.010159,-0.005122,-88.628353,0.010159,
1180,600,0.126296,-16.246492,0.999997,0.000197,-0.002714,0.006272,-0.001026,0.006388,-0.002830,-83.568878,0.006402,
1870,1730,-2.199733,-3.294976,0.999997,0.000186,-0.004879,0.009903,-0.000100,0.009904,-0.004879,-89.611684,0.009904,
600,1240,3.738367,-8.179804,0.999996,0.000239,-0.004622,0.009294,-0.000376,0.009304,-0.004632,-88.452609,0.009304,
1340,330,-0.224048,-18.072052,0.999998,0.000184,-0.002301,0.007311,0.000260,0.007318,-0.002309,88.449302,0.007483,
1820,1950,-0.778018,-0.833925,0.999989,0.000405,-0.003641,0.010344,0.002558,0.010797,-0.004094,79.951610,0.010901,
690,130,0.804300,-19.153956,0.999995,0.000257,-0.003637,0.009657,0.002265,0.010032,-0.004013,80.590668,0.010099,
1330,230,-0.138219,-18.800359,0.999997,0.000213,-0.001600,0.006946,-0.000038,0.006946,-0.001600,-89.745927,0.007275,
990,1870,0.303026,-1.129537,0.999998,0.000193,-0.001559,0.007382,-0.000606,0.007423,-0.001600,-86.142106,0.007813,
570,780,3.771476,-12.221298,0.999950,0.000799,-0.005338,0.009390,-0.000013,0.009390,-0.005338,-89.949265,0.009419,
1530,1960,-0.179950,-0.511460,0.999997,0.000180,-0.000827,0.007031,0.001079,0.007176,-0.000973,82.318620,0.007786,
1610,430,-1.262440,-16.650796,0.999995,0.000245,-0.004606,0.009711,0.000416,0.009723,-0.004618,88.335564,0.009727,
1510,1680,-0.753256,-2.735589,0.999997,0.000191,-0.003632,0.008677,-0.000390,0.008689,-0.003645,-88.185454,0.008727,
970,1520,0.899708,-4.135127,0.999997,0.000219,-0.004777,0.009426,0.001300,0.009544,-0.004895,84.812404,0.009545,
870,470,1.267436,-16.309102,0.999997,0.000247,-0.004819,0.009826,-0.000596,0.009850,-0.004843,-87.673394,0.009850,
1900,1550,-2.910274,-5.191268,0.999997,0.000000,-0.005003,0.010080,-0.000021,0.010080,-0.005003,-89.920433,0.010081,
590,310,2.162832,-17.004128,0.999996,0.000232,-0.004830,0.009850,-0.000030,0.009850,-0.004830,-89.882359,0.009850,
1130,1580,0.264655,-3.151902,0.999997,0.000213,-0.002852,0.007331,0.000783,0.007391,-0.002912,85.630944,0.007446,
1160,1190,0.699315,-5.308601,0.999996,0.000000,-0.005083,0.002994,0.000934,0.003100,-0.005189,83.492078,0.005222,
1510,850,-1.902487,-12.366482,0.999994,0.000320,-0.007188,0.013184,-0.000439,0.013194,-0.007197,-88.767221,0.013212,
1380,1270,-0.595098,-5.837018,0.999993,0.000302,-0.006535,0.009639,-0.004084,0.010611,-0.007508,-76.603447,0.010912,
1390,1750,-0.310472,-1.950900,0.999997,0.000207,-0.002147,0.007481,-0.000036,0.007482,-0.002148,-89.786379,0.007704,
1470,430,-0.683564,-17.048058,0.999997,0.000207,-0.003811,0.008647,0.000787,0.008697,-0.003860,86.400926,0.008715,
1650,60,-0.163859,-19.871456,0.999997,0.000231,-0.000804,0.007339,-0.001903,0.007762,-0.001227,-77.474124,0.008345,
730,530,2.127250,-15.241550,0.999996,0.000215,-0.005257,0.010364,-0.000193,0.010367,-0.005260,-89.293532,0.010367,
790,1600,1.623680,-3.955125,0.999995,0.000282,-0.004973,0.010055,0.000318,0.010062,-0.004980,88.789718,0.010062,
780,1780,1.151968,-2.208219,0.999997,0.000201,-0.004185,0.009620,-0.000560,0.009642,-0.004207,-87.680583,0.009668,
1410,440,-0.484311,-17.112403,0.999994,0.000281,-0.003309,0.008058,0.000833,0.008118,-0.003370,85.830002,0.008157,
1770,830,-3.342490,-12.006376,0.999994,0.000281,-0.005002,0.010039,-0.000954,0.010099,-0.005062,-86.384168,0.010099,
570,930,4.168819,-10.886895,0.999976,0.000629,-0.003993,0.008543,0.000212,0.008547,-0.003996,89.030146,0.008553,
920,1770,0.685426,-2.019752,0.999998,0.000177,-0.002882,0.008584,-0.000364,0.008596,-0.002893,-88.184173,0.008747,
820,230,0.838613,-18.459057,0.999997,0.000223,-0.003116,0.009068,0.000993,0.009149,-0.003197,85.369395,0.009286,
910,1710,0.840471,-2.562341,0.999997,0.000226,-0.003501,0.008976,-0.000011,0.008976,-0.003501,-89.951017,0.009048,
1090,110,0.080690,-19.595298,0.999998,0.000168,-0.000544,0.006512,0.000423,0.006537,-0.000570,86.583091,0.007242,
1400,790,-0.748527,-14.052859,0.999991,0.000344,-0.007187,0.010760,0.003626,0.011465,-0.007892,78.997220,0.011733,
810,790,2.548926,-12.645671,0.999994,0.000302,-0.006006,0.011314,0.000956,0.011367,-0.006058,86.851529,0.011375,
580,1380,3.360325,-6.870558,0.999996,0.000248,-0.005188,0.010310,-0.000387,0.010320,-0.005197,-88.572230,0.010320,
1860,1160,-3.954050,-8.911901,0.999997,0.000210,-0.004347,0.008850,0.000336,0.008859,-0.004356,88.542050,0.008859,
1820,460,-2.374758,-15.681591,0.999996,0.000225,-0.005052,0.010158,0.000154,0.010159,-0.005053,89.418081,0.010159,
950,1590,0.895954,-3.544698,0.999996,0.000236,-0.004249,0.009208,0.000848,0.009261,-0.004302,86.410194,0.009269,
1210,1900,0.021904,-0.840161,0.999998,0.000165,-0.000909,0.006488,-0.000023,0.006488,-0.000909,-89.820883,0.007026,
1690,1100,-3.321641,-9.348831,0.999997,0.000218,-0.004444,0.010231,0.000936,0.010290,-0.004504,86.366063,0.010317,
780,490,1.762244,-15.817659,0.999996,0.000215,-0.005118,0.010202,-0.000320,0.010208,-0.005125,-88.803746,0.010208,
1440,1400,-0.758624,-5.034509,0.999995,0.000257,-0.005539,0.009672,-0.002350,0.010027,-0.005893,-81.415483,0.010078,
1550,1290,-1.768367,-6.891819,0.999994,0.000260,-0.007091,0.012193,-0.000126,0.012194,-0.007092,-89.624832,0.012248,
1140,660,0.233029,-15.740616,0.999997,0.000215,-0.003336,0.006512,-0.002343,0.007041,-0.003865,-77.276847,0.007052,
1870,1720,-2.233298,-3.393532,0.999997,0.000193,-0.004897,0.009873,-0.000120,0.009874,-0.004898,-89.534377,0.009874,
1740,670,-2.601177,-13.747075,0.999996,0.000244,-0.005547,0.010585,-0.000389,0.010594,-0.005557,-88.619035,0.010598,
570,640,3.289555,-13.609928,0.999941,0.000896,-0.004592,0.009910,-0.000057,0.009910,-0.004592,-89.774981,0.009919,
1720,360,-1.583326,-17.018185,0.999996,0.000235,-0.004727,0.009958,-0.000109,0.009958,-0.004728,-89.573192,0.009963,
790,1220,2.848374,-8.059510,0.999996,0.000232,-0.005500,0.010932,-0.001227,0.011023,-0.005591,-85.752687,0.011024,
1610,410,-1.218945,-16.843761,0.999997,0.000194,-0.004396,0.009570,0.000278,0.009575,-0.004402,88.858260,0.009586,
850,1920,0.418878,-0.855059,0.999998,0.000185,-0.001781,0.007917,-0.001471,0.008135,-0.002000,-81.561029,0.008478,
1500,1230,-1.683124,-7.404382,0.999993,0.000325,-0.007596,0.013108,-0.000199,0.013110,-0.007598,-89.450588,0.013165,
710,1980,0.383433,-0.469206,0.999994,0.000274,-0.002313,0.008627,-0.002807,0.009305,-0.002992,-76.415712,0.009501,
730,510,2.073933,-15.448446,0.999997,0.000213,-0.005181,0.010293,-0.000239,0.010297,-0.005185,-89.114544,0.010297,
1460,1610,-0.660671,-3.214053,0.999996,0.000251,-0.003808,0.008607,-0.000879,0.008669,-0.003870,-85.970654,0.008686,
1900,1540,-2.941323,-5.291874,0.999997,0.000000,-0.005015,0.010104,-0.000028,0.010104,-0.005015,-89.894446,0.010105,
1600,590,-1.562388,-15.057607,0.999992,0.000320,-0.005657,0.010530,0.000636,0.010555,-0.005682,87.754705,0.010566,
880,190,0.537018,-18.887974,0.999996,0.000249,-0.002633,0.008238,0.000955,0.008322,-0.002716,85.017111,0.008487,
1640,460,-1.473466,-16.259654,0.999995,0.000271,-0.004877,0.009941,0.000386,0.009951,-0.004887,88.510291,0.009951,
1630,60,-0.152400,-19.874187,0.999997,0.000201,-0.000497,0.007249,-0.001809,0.007651,-0.000899,-77.480526,0.008364,
1110,1580,0.321775,-3.187201,0.999998,0.000168,-0.002912,0.007516,0.000814,0.007579,-0.002975,85.562805,0.007637,
1420,1290,-0.813899,-6.030202,0.999993,0.000333,-0.007057,0.011052,-0.003105,0.011570,-0.007574,-80.535369,0.011753,
870,450,1.226580,-16.507658,0.999998,0.000234,-0.004635,0.009705,-0.000501,0.009723,-0.004652,-88.002537,0.009726,
990,1000,2.544986,-10.479524,0.999993,0.000333,-0.004634,0.014767,0.000199,0.014769,-0.004636,89.412517,0.015106,
1090,90,0.064655,-19.719424,0.999998,0.000165,-0.000424,0.006341,0.000383,0.006363,-0.000445,86.767887,0.007104,
1860,1140,-3.996716,-9.089451,0.999997,0.000190,-0.004353,0.008933,0.000424,0.008946,-0.004366,88.174211,0.008947,
910,1690,0.881816,-2.742164,0.999997,0.000217,-0.003678,0.009005,0.000088,0.009006,-0.003679,89.601399,0.009056,
1410,380,-0.434398,-17.595508,0.999997,0.000228,-0.003040,0.008001,0.000549,0.008029,-0.003067,87.161640,0.008103,
1510,830,-1.783509,-12.633006,0.999993,0.000329,-0.007401,0.013048,-0.000122,0.013049,-0.007401,-89.658340,0.013088,
690,110,0.663833,-19.356999,0.999995,0.000260,-0.003331,0.009547,0.002506,0.010017,-0.003801,79.367655,0.010114,
1190,490,0.103985,-16.983593,0.999997,0.000202,-0.002504,0.006895,-0.000323,0.006906,-0.002515,-88.035263,0.006991,
1040,360,0.453147,-17.733835,0.999997,0.000233,-0.002973,0.008011,-0.000428,0.008027,-0.002989,-87.772245,0.008114,
1290,1470,-0.146024,-3.832663,0.999997,0.000195,-0.002775,0.006487,-0.001076,0.006610,-0.002898,-83.460191,0.006627,
760,930,3.322713,-11.058934,0.999995,0.000274,-0.004588,0.010074,0.000900,0.010129,-0.004643,86.498644,0.010141,
1550,1740,-0.772984,-2.289901,0.999997,0.000222,-0.003167,0.008716,0.000125,0.008717,-0.003168,89.397066,0.008825,
1820,440,-2.317887,-15.882958,0.999996,0.000238,-0.005053,0.010097,0.000144,0.010099,-0.005055,89.455064,0.010099,
820,840,2.701259,-12.094801,0.999995,0.000275,-0.005726,0.011263,0.001249,0.011355,-0.005817,85.816692,0.011356,
780,1760,1.222989,-2.404030,0.999996,0.000216,-0.004296,0.009614,-0.000388,0.009625,-0.004307,-88.404065,0.009642,
1730,1820,-1.183933,-1.922495,0.999997,0.000207,-0.004017,0.009837,0.001030,0.009913,-0.004093,85.770208,0.009963,
1550,1270,-1.854563,-7.137912,0.999996,0.000225,-0.007107,0.012337,0.000137,0.012338,-0.007108,89.595987,0.012386,
570,630,3.252482,-13.701035,0.999954,0.000813,-0.004600,0.010316,0.000017,0.010316,-0.004600,89.935534,0.010336,
1730,430,-1.839198,-16.275182,0.999995,0.000261,-0.004968,0.010114,0.000205,0.010117,-0.004970,89.220557,0.010118,
1140,640,0.236161,-15.871594,0.999996,0.000227,-0.003255,0.006641,-0.002041,0.007046,-0.003659,-78.794690,0.007047,
1770,870,-3.469646,-11.607285,0.999996,0.000252,-0.004881,0.010004,-0.000994,0.010071,-0.004947,-86.195396,0.010071,
1480,1810,-0.429539,-1.595831,0.999997,0.000225,-0.002234,0.007874,0.000391,0.007889,-0.002250,87.789405,0.008128,
1660,350,-1.287406,-17.283946,0.999998,0.000165,-0.004547,0.009654,-0.000003,0.009654,-0.004547,-89.987009,0.009659,
1050,1260,0.861913,-6.300504,0.999994,0.000311,-0.007480,0.011392,0.003181,0.011914,-0.008002,80.684309,0.012146,
730,490,2.019212,-15.653454,0.999997,0.000196,-0.005167,0.010231,-0.000243,0.010235,-0.005171,-89.095946,0.010235,
710,1960,0.502111,-0.635134,0.999995,0.000248,-0.003049,0.008676,-0.002341,0.009126,-0.003499,-79.114641,0.009208,
1740,650,-2.532286,-13.957812,0.999993,0.000297,-0.005521,0.010537,-0.000266,0.010541,-0.005525,-89.050424,0.010545,
1860,1120,-4.041735,-9.268997,0.999998,0.000177,-0.004319,0.008937,0.000437,0.008951,-0.004333,88.112925,0.008953,
1010,1580,0.665524,-3.455613,0.999996,0.000238,-0.003988,0.008701,0.001087,0.008793,-0.004080,85.139065,0.008801,
1400,1290,-0.680316,-5.844265,0.999994,0.000283,-0.006712,0.010267,-0.003605,0.011001,-0.007445,-78.495112,0.011228,
1460,1590,-0.683671,-3.388747,0.999996,0.000248,-0.003971,0.008700,-0.001017,0.008781,-0.004053,-85.438292,0.008789,
1090,70,0.043074,-19.849401,0.999998,0.000172,-0.000316,0.006290,0.000423,0.006317,-0.000343,86.351592,0.007105,
1520,970,-2.644047,-10.779737,0.999996,0.000249,-0.004341,0.012338,-0.001039,0.012402,-0.004405,-86.448187,0.012575,
1550,220,-0.542729,-18.678707,0.999997,0.000213,-0.002277,0.008155,-0.000771,0.008212,-0.002334,-85.796428,0.008463,
770,1220,2.956107,-8.089047,0.999996,0.000214,-0.005401,0.010764,-0.001195,0.010852,-0.005489,-85.794449,0.010852,
1190,470,0.102921,-17.122976,0.999997,0.000211,-0.002464,0.006945,-0.000282,0.006953,-0.002472,-88.284215,0.007049,
1640,440,-1.427751,-16.457397,0.999995,0.000252,-0.004775,0.009882,0.000345,0.009891,-0.004783,88.652163,0.009892,
1290,1450,-0.146644,-3.962649,0.999997,0.000223,-0.002783,0.006310,-0.001240,0.006476,-0.002949,-82.371592,0.006485,
1890,420,-2.605706,-15.858678,0.999996,0.000262,-0.004917,0.009873,0.000045,0.009873,-0.004917,89.826666,0.009873,
1780,810,-3.319528,-12.193991,0.999996,0.000239,-0.005039,0.010144,-0.000929,0.010200,-0.005096,-86.511186,0.010200,
690,200,1.207894,-18.463281,0.999996,0.000235,-0.004454,0.010075,0.001165,0.010168,-0.004547,85.443540,0.010186,
910,1670,0.925917,-2.923291,0.999996,0.000233,-0.003904,0.009066,0.000269,0.009071,-0.003909,88.812508,0.009100,
1140,620,0.238662,-16.002799,0.999997,0.000225,-0.003154,0.006732,-0.001776,0.007041,-0.003463,-80.119909,0.007041,
1170,720,0.136439,-15.531748,0.999998,0.000179,-0.002821,0.005019,-0.002514,0.005755,-0.003558,-73.665764,0.005809,
690,90,0.538600,-19.535285,0.999995,0.000258,-0.002620,0.008997,0.002841,0.009655,-0.003277,76.967835,0.009819,
1820,420,-2.258557,-16.086464,0.999997,0.000229,-0.005018,0.010082,0.000143,0.010083,-0.005019,89.458517,0.010083,
640,1620,2.318845,-4.236256,0.999996,0.000238,-0.005039,0.010109,0.000136,0.010111,-0.005040,89.486040,0.010111,
1610,390,-1.173175,-17.033979,0.999997,0.000174,-0.004212,0.009455,0.000179,0.009457,-0.004214,89.251486,0.009476,
1040,340,0.435560,-17.889675,0.999998,0.000217,-0.002858,0.007808,-0.000348,0.007819,-0.002869,-88.133625,0.007911,
860,690,1.856049,-13.944083,0.999997,0.000215,-0.006356,0.011312,-0.000187,0.011314,-0.006358,-89.392875,0.011343,
1690,1170,-3.122811,-8.622447,0.999996,0.000248,-0.005025,0.010531,0.001223,0.010626,-0.005120,85.531370,0.010629,
1050,380,0.444971,-17.588409,0.999995,0.000268,-0.003048,0.008024,-0.000529,0.008049,-0.003074,-87.272153,0.008124,
1650,360,-1.269295,-17.217706,0.999997,0.000182,-0.004499,0.009588,-0.000008,0.009588,-0.004499,-89.967009,0.009594,
1670,480,-1.672573,-15.960834,0.999995,0.000271,-0.005079,0.010123,0.000380,0.010132,-0.005089,88.568967,0.010132,
820,880,2.867995,-11.642484,0.999996,0.000268,-0.005294,0.011049,0.001345,0.011159,-0.005404,85.327531,0.011161,
1800,150,-1.029632,-18.905329,0.999997,0.000251,-0.003783,0.010179,-0.002136,0.010499,-0.004103,-81.492441,0.010582,
1810,1820,-1.546918,-2.160420,0.999996,0.000256,-0.004654,0.010162,0.000726,0.010198,-0.004689,87.203058,0.010209,
1900,1750,-2.274117,-3.209200,0.999996,0.000000,-0.004805,0.009641,-0.000060,0.009641,-0.004805,-89.762577,0.009641,
1610,1740,-0.987661,-2.417124,0.999997,0.000202,-0.003759,0.009209,0.000194,0.009212,-0.003762,89.142843,0.009263,
1210,1200,0.229222,-4.858802,0.999986,0.000000,-0.009681,0.003032,-0.000380,0.003044,-0.009692,-88.290436,0.009913,
1510,810,-1.680878,-12.895783,0.999992,0.000342,-0.007517,0.012868,0.000197,0.012870,-0.007519,89.447388,0.012931,
780,1740,1.285150,-2.594091,0.999996,0.000219,-0.004385,0.009723,-0.000223,0.009727,-0.004389,-89.092818,0.009742,
1270,140,-0.031023,-19.416412,0.999998,0.000188,-0.000736,0.006430,-0.000080,0.006431,-0.000737,-89.356666,0.007039,
600,1220,3.799249,-8.365318,0.999997,0.000204,-0.004592,0.009362,-0.000440,0.009376,-0.004606,-88.195515,0.009376,
1550,1250,-1.946867,-7.388446,0.999996,0.000238,-0.007022,0.012514,0.000390,0.012522,-0.007030,88.856067,0.012554,
1250,1960,-0.008914,-0.457936,0.999998,0.000169,-0.000484,0.006190,0.000015,0.006190,-0.000484,89.869364,0.006885,
990,1850,0.340260,-1.281327,0.999997,0.000209,-0.001731,0.007563,-0.000552,0.007596,-0.001764,-86.610354,0.007951,
1330,430,-0.243566,-17.344341,0.999998,0.000186,-0.002741,0.007385,0.000628,0.007423,-0.002780,86.462977,0.007501,
950,1520,0.996598,-4.209232,0.999997,0.000208,-0.004813,0.009587,0.001153,0.009678,-0.004905,85.451790,0.009679,
790,1960,0.348808,-0.569855,0.999997,0.000193,-0.001755,0.008008,-0.001979,0.008394,-0.002141,-78.963538,0.008723,
730,1220,3.169199,-8.148986,0.999996,0.000235,-0.005171,0.010428,-0.001101,0.010505,-0.005249,-85.982838,0.010505,
910,1650,0.965129,-3.109377,0.999996,0.000212,-0.004153,0.009202,0.000441,0.009216,-0.004168,88.112669,0.009230,
1780,1970,-0.521679,-0.584483,0.999988,0.000369,-0.002288,0.009211,0.003246,0.010064,-0.003141,75.275510,0.010299,
1280,1710,-0.101062,-2.151072,0.999998,0.000160,-0.002024,0.007092,-0.000091,0.007093,-0.002025,-89.425175,0.007307,
1860,1100,-4.078231,-9.450645,0.999997,0.000204,-0.004247,0.008711,0.000182,0.008713,-0.004249,89.196325,0.008714,
1220,1500,0.028530,-3.588611,0.999997,0.000200,-0.002490,0.006428,0.000295,0.006438,-0.002500,88.104297,0.006491,
1290,440,-0.141907,-17.324646,0.999998,0.000175,-0.002417,0.007119,0.000266,0.007126,-0.002424,88.405207,0.007247,
1440,1380,-0.780619,-5.230910,0.999994,0.000267,-0.005796,0.009983,-0.002442,0.010352,-0.006165,-81.401309,0.010415,
590,1450,3.080321,-6.127662,0.999996,0.000283,-0.004975,0.010141,-0.000033,0.010141,-0.004975,-89.873460,0.010142,
1020,270,0.389954,-18.410096,0.999998,0.000181,-0.002271,0.007711,0.000142,0.007713,-0.002273,89.185769,0.007927,
1080,1980,0.050589,-0.343785,0.999999,0.000157,-0.000292,0.006343,-0.000461,0.006375,-0.000324,-86.042544,0.007181,
580,1400,3.293682,-6.668905,0.999996,0.000224,-0.004526,0.010065,-0.000078,0.010065,-0.004527,-89.695496,0.010082,
1640,420,-1.379834,-16.655193,0.999996,0.000233,-0.004686,0.009846,0.000281,0.009851,-0.004691,88.891474,0.009855,
1590,720,-1.872566,-13.646134,0.999997,0.000195,-0.006579,0.011632,0.000086,0.011632,-0.006579,89.729689,0.011665,
690,180,1.102089,-18.665070,0.999997,0.000202,-0.004278,0.009914,0.001419,0.010054,-0.004418,84.347243,0.010079,
690,290,1.606053,-17.555922,0.999997,0.000227,-0.004786,0.010081,0.000295,0.010087,-0.004792,88.864297,0.010091,
970,940,2.362259,-11.240676,0.999995,0.000278,-0.005384,0.013476,0.001049,0.013534,-0.005442,86.826223,0.013620,
1710,1100,-3.411433,-9.357856,0.999996,0.000252,-0.004472,0.010131,0.000864,0.010182,-0.004523,86.627256,0.010203,
1290,1430,-0.142309,-4.087711,0.999996,0.000223,-0.002774,0.006092,-0.001427,0.006316,-0.002998,-81.078748,0.006318,
1820,400,-2.199184,-16.288079,0.999996,0.000228,-0.004972,0.010090,0.000126,0.010091,-0.004973,89.522611,0.010091,
1140,600,0.240957,-16.135603,0.999997,0.000231,-0.003075,0.006872,-0.001530,0.007102,-0.003306,-81.449585,0.007108,
1260,330,-0.058517,-18.122028,0.999998,0.000169,-0.002007,0.007072,0.000117,0.007074,-0.002009,89.260022,0.007291,
1730,470,-1.948561,-15.869349,0.999997,0.000205,-0.005051,0.010171,0.000229,0.010175,-0.005055,89.139772,0.010175,
950,1640,0.827072,-3.095358,0.999997,0.000224,-0.003774,0.008862,0.000523,0.008884,-0.003795,87.635549,0.008915,
920,830,2.023203,-12.481659,0.999994,0.000308,-0.006919,0.012681,0.000668,0.012704,-0.006942,88.049513,0.012722,
640,1820,1.607752,-2.204100,0.999995,0.000272,-0.004754,0.010144,-0.000533,0.010163,-0.004773,-87.952547,0.010170,
730,690,2.631176,-13.552383,0.999994,0.000302,-0.005629,0.010658,0.000460,0.010671,-0.005642,88.384544,0.010677,
1690,1150,-3.193055,-8.834948,0.999996,0.000265,-0.004850,0.010478,0.001221,0.010575,-0.004947,85.474108,0.010582,
1390,1730,-0.327799,-2.101148,0.999997,0.000208,-0.002299,0.007592,-0.000122,0.007594,-0.002300,-89.294308,0.007788,
1210,860,0.245774,-15.271775,0.999976,0.000000,-0.009847,0.002740,0.000376,0.002751,-0.009858,88.292345,0.010174,
1030,1260,1.015050,-6.498433,0.999994,0.000307,-0.007645,0.011997,0.002594,0.012334,-0.007982,82.601224,0.012511,
830,1320,2.204814,-6.833897,0.999996,0.000270,-0.006303,0.011412,-0.000418,0.011422,-0.006313,-88.647412,0.011443,
1900,1760,-2.234929,-3.114821,0.999997,0.000000,-0.004809,0.009596,-0.000030,0.009597,-0.004809,-89.882200,0.009597,
1040,320,0.407502,-18.046654,0.999997,0.000214,-0.002737,0.007793,-0.000191,0.007796,-0.002740,-88.963808,0.007910,
1520,670,-1.265494,-14.529163,0.999995,0.000271,-0.006397,0.011066,0.001299,0.011162,-0.006493,85.770650,0.011211,
1110,890,1.174131,-13.842942,0.999994,0.000279,-0.002591,0.006757,-0.005025,0.008946,-0.004780,-66.464002,0.008953,
1030,380,0.504784,-17.548323,0.999998,0.000211,-0.003021,0.008187,-0.000433,0.008204,-0.003038,-87.789050,0.008296,
950,1570,0.924411,-3.731427,0.999996,0.000221,-0.004484,0.009327,0.000973,0.009395,-0.004552,85.990470,0.009397,
1470,410,-0.656264,-17.223389,0.999997,0.000220,-0.003615,0.008530,0.000652,0.008565,-0.003650,86.934157,0.008596,
830,390,1.274080,-16.972510,0.999996,0.000280,-0.004450,0.009628,-0.000146,0.009630,-0.004452,-89.406473,0.009639,
1670,360,-1.361268,-17.158646,0.999996,0.000220,-0.004577,0.009678,0.000028,0.009678,-0.004577,89.885695,0.009683,
710,700,2.778814,-13.394036,0.999997,0.000222,-0.005464,0.010533,0.000542,0.010552,-0.005483,88.062483,0.010554,
1800,130,-0.899841,-19.102577,0.999997,0.000250,-0.003485,0.010166,-0.002565,0.010632,-0.003951,-79.700832,0.010748,
1610,370,-1.129847,-17.221948,0.999998,0.000162,-0.004045,0.009345,0.000063,0.009345,-0.004045,89.731311,0.009373,
780,1720,1.345937,-2.794251,0.999995,0.000245,-0.004417,0.009826,-0.000134,0.009827,-0.004418,-89.462395,0.009844,
1060,1770,0.319313,-1.815310,0.999997,0.000202,-0.002227,0.007547,0.000010,0.007547,-0.002227,89.940911,0.007755,
1790,1820,-1.455222,-2.099985,0.999994,0.000287,-0.004629,0.010100,0.000803,0.010144,-0.004672,86.889614,0.010154,
910,1630,1.002832,-3.297156,0.999997,0.000190,-0.004314,0.009364,0.000547,0.009385,-0.004336,87.713206,0.009395,
1190,1520,0.104860,-3.484074,0.999998,0.000167,-0.002560,0.006697,0.000461,0.006720,-0.002583,87.155013,0.006779,
1510,1010,-2.716584,-10.290212,0.999996,0.000258,-0.003766,0.012447,-0.000357,0.012454,-0.003774,-88.740382,0.012773,
1860,1080,-4.093369,-9.621833,0.999996,0.000232,-0.004190,0.008575,0.000091,0.008576,-0.004190,89.591875,0.008576,
1550,1230,-2.044837,-7.642628,0.999996,0.000253,-0.006895,0.012598,0.000671,0.012621,-0.006918,88.032157,0.012640,
720,1990,0.291643,-0.370687,0.999995,0.000267,-0.001754,0.008355,-0.002799,0.009078,-0.002477,-75.511071,0.009385,
600,1420,3.125228,-6.404711,0.999996,0.000251,-0.005033,0.010167,-0.000143,0.010168,-0.005035,-89.459911,0.010169,
710,1220,3.272397,-8.179040,0.999995,0.000276,-0.005085,0.010226,-0.001011,0.010292,-0.005152,-86.237678,0.010292,
1590,700,-1.805938,-13.878191,0.999996,0.000236,-0.006494,0.011460,0.000246,0.011463,-0.006497,89.215034,0.011498,
1270,440,-0.093762,-17.335305,0.999997,0.000207,-0.002432,0.007066,0.000241,0.007073,-0.002439,88.546646,0.007185,
1320,1640,-0.210401,-2.687081,0.999997,0.000206,-0.002630,0.007354,-0.000559,0.007385,-0.002662,-86.805959,0.007480,
990,1830,0.377296,-1.433776,0.999997,0.000200,-0.001902,0.007656,-0.000464,0.007678,-0.001924,-87.225673,0.007990,
1830,780,-3.461603,-12.393928,0.999996,0.000250,-0.004939,0.009909,-0.000620,0.009935,-0.004965,-87.613884,0.009935,
1440,1690,-0.508868,-2.500550,0.999996,0.000224,-0.002961,0.008169,-0.000320,0.008178,-0.002970,-88.352099,0.008279,
1290,1410,-0.139837,-4.210568,0.999997,0.000227,-0.002729,0.005891,-0.001602,0.006179,-0.003017,-79.806080,0.006179,
1140,580,0.243838,-16.273288,0.999997,0.000223,-0.003008,0.006980,-0.001341,0.007157,-0.003185,-82.486641,0.007172,
970,2010,0.047922,-0.165108,0.999998,0.000162,-0.000408,0.006388,-0.000808,0.006482,-0.000502,-83.311276,0.007213,
1240,330,-0.017492,-18.130103,0.999998,0.000181,-0.002013,0.007037,0.000074,0.007038,-0.002014,89.530024,0.007249,
1690,1130,-3.251715,-9.042997,0.999996,0.000250,-0.004664,0.010197,0.000964,0.010259,-0.004727,86.302549,0.010270,
640,1100,3.920676,-9.420430,0.999997,0.000212,-0.004360,0.009139,-0.000369,0.009149,-0.004370,-88.433489,0.009152,
1820,380,-2.138442,-16.491163,0.999996,0.000242,-0.004956,0.010094,0.000092,0.010095,-0.004957,89.649628,0.010096,
1730,1910,-0.732565,-1.049061,0.999996,0.000218,-0.002889,0.009236,0.002061,0.009577,-0.003230,80.611117,0.009745,
680,1500,2.464317,-5.336224,0.999995,0.000261,-0.005249,0.010278,0.000043,0.010278,-0.005249,89.840774,0.010279,
1040,300,0.386132,-18.202625,0.999996,0.000239,-0.002573,0.007701,-0.000134,0.007702,-0.002575,-89.252940,0.007842,
1640,400,-1.328767,-16.852814,0.999997,0.000200,-0.004591,0.009783,0.000204,0.009786,-0.004594,89.188114,0.009792,
1210,30,0.005083,-20.096546,0.999999,0.000000,-0.000112,0.005984,0.000012,0.005984,-0.000112,89.888418,0.006846,
1470,390,-0.629065,-17.394540,0.999997,0.000221,-0.003363,0.008486,0.000480,0.008506,-0.003383,87.684411,0.008565,
1660,1230,-2.735872,-7.927191,0.999995,0.000275,-0.005709,0.011127,0.001175,0.011209,-0.005791,86.025705,0.011211,
1670,760,-2.529340,-12.942910,0.999994,0.000311,-0.005947,0.011137,-0.000787,0.011173,-0.005983,-87.367202,0.011182,
1170,1520,0.156946,-3.505412,0.999997,0.000185,-0.002751,0.006876,0.000786,0.006940,-0.002815,85.363977,0.006981,
910,1610,1.038741,-3.487822,0.999997,0.000219,-0.004403,0.009457,0.000622,0.009485,-0.004431,87.434156,0.009492,
950,1550,0.955040,-3.925902,0.999996,0.000227,-0.004654,0.009457,0.001036,0.009532,-0.004730,85.824408,0.009533,
830,370,1.219605,-17.166970,0.999997,0.000237,-0.004245,0.009581,0.000054,0.009581,-0.004246,89.778152,0.009602,
710,680,2.707377,-13.605176,0.999996,0.000270,-0.005472,0.010535,0.000433,0.010547,-0.005484,88.451708,0.010550,
1860,1060,-4.109313,-9.793580,0.999996,0.000221,-0.004187,0.008643,0.000210,0.008647,-0.004190,89.060612,0.008648,
1690,1720,-1.377034,-2.813234,0.999997,0.000220,-0.004412,0.009864,0.000180,0.009866,-0.004414,89.279295,0.009885,
720,1900,0.832055,-1.169410,0.999997,0.000240,-0.003667,0.009538,-0.001778,0.009774,-0.003902,-82.463439,0.009839,
590,400,2.462200,-16.111183,0.999995,0.000250,-0.005510,0.009954,-0.000115,0.009955,-0.005511,-89.572820,0.009974,
1550,1210,-2.148951,-7.895953,0.999995,0.000269,-0.006702,0.012504,0.000937,0.012550,-0.006747,87.212691,0.012562,
600,700,3.345759,-13.099428,0.999995,0.000265,-0.004954,0.009987,0.000251,0.009991,-0.004958,89.039159,0.009991,
1360,1270,-0.472017,-5.609958,0.999996,0.000248,-0.005888,0.008504,-0.004419,0.009752,-0.007136,-74.224388,0.010096,
1410,420,-0.470077,-17.274377,0.999995,0.000249,-0.003245,0.008054,0.000752,0.008104,-0.003294,86.207170,0.008151,
1390,1710,-0.346696,-2.255096,0.999997,0.000211,-0.002439,0.007637,-0.000225,0.007642,-0.002444,-88.723965,0.007805,
1570,720,-1.741094,-13.723732,0.999995,0.000313,-0.006748,0.011702,0.000322,0.011708,-0.006754,88.999762,0.011754,
1500,670,-1.137461,-14.632013,0.999996,0.000233,-0.006316,0.010870,0.001581,0.011014,-0.006460,84.788421,0.011069,
1000,270,0.437088,-18.384461,0.999996,0.000224,-0.002193,0.007862,0.000252,0.007868,-0.002199,88.562650,0.008119,
1190,440,0.100829,-17.333690,0.999998,0.000206,-0.002410,0.007078,-0.000254,0.007085,-0.002416,-88.466615,0.007203,
1290,1390,-0.138064,-4.326897,0.999997,0.000240,-0.002687,0.005646,-0.001778,0.006009,-0.003050,-78.447514,0.006009,
1660,190,-0.740285,-18.792729,0.999996,0.000242,-0.003176,0.008925,-0.001278,0.009059,-0.003309,-84.036813,0.009167,
1140,560,0.244967,-16.412426,0.999997,0.000215,-0.002951,0.007038,-0.001197,0.007179,-0.003092,-83.259964,0.007202,
1760,1190,-3.404545,-8.490749,0.999996,0.000261,-0.004887,0.010061,0.001030,0.010132,-0.004958,86.076651,0.010132,
1510,780,-1.540533,-13.281855,0.999991,0.000333,-0.007477,0.012527,0.000630,0.012547,-0.007497,88.198595,0.012627,
1820,360,-2.075263,-16.695158,0.999996,0.000242,-0.004951,0.010096,0.000012,0.010096,-0.004951,89.955213,0.010096,
1610,350,-1.080057,-17.409918,0.999997,0.000173,-0.003873,0.009382,-0.000081,0.009382,-0.003874,-89.648826,0.009430,
1340,100,-0.052819,-19.663574,0.999998,0.000166,-0.000620,0.006347,-0.000262,0.006357,-0.000630,-87.845661,0.007005,
990,1810,0.413631,-1.589667,0.999997,0.000216,-0.002084,0.007819,-0.000389,0.007835,-0.002099,-87.751404,0.008111,
690,1570,2.208673,-4.584390,0.999996,0.000245,-0.005122,0.010214,0.000178,0.010216,-0.005124,89.335427,0.010216,
1470,590,-0.850751,-15.595402,0.999997,0.000214,-0.005085,0.009574,0.001698,0.009768,-0.005279,83.476977,0.009779,
1860,1630,-2.472765,-4.256172,0.999996,0.000249,-0.004972,0.009998,-0.000104,0.009999,-0.004973,-89.603385,0.009999,
1640,380,-1.277086,-17.051617,0.999995,0.000230,-0.004448,0.009669,0.000077,0.009669,-0.004449,89.688509,0.009679,
1200,330,0.064843,-18.120832,0.999998,0.000170,-0.001991,0.007080,-0.000118,0.007082,-0.001992,-89.251686,0.007304,
1200,2020,0.006855,-0.094706,0.999998,0.000000,-0.000163,0.005965,-0.000021,0.005965,-0.000163,-89.805008,0.006796,
1730,1890,-0.840871,-1.240802,0.999997,0.000202,-0.003248,0.009472,0.001834,0.009731,-0.003507,81.956281,0.009857,
1160,1710,0.147399,-2.162080,0.999998,0.000158,-0.002067,0.007179,0.000072,0.007180,-0.002067,89.552587,0.007392,
650,1170,3.721709,-8.756006,0.999995,0.000255,-0.004641,0.009458,-0.000693,0.009492,-0.004674,-87.192464,0.009492,
1040,280,0.360964,-18.355591,0.999996,0.000219,-0.002410,0.007671,-0.000001,0.007671,-0.002410,-89.991945,0.007846,
1690,1110,-3.296134,-9.245256,0.999997,0.000215,-0.004506,0.010195,0.000940,0.010255,-0.004565,86.356590,0.010276,
910,1590,1.073429,-3.677180,0.999996,0.000245,-0.004483,0.009485,0.000677,0.009518,-0.004515,87.232670,0.009522,
690,700,2.884985,-13.342332,0.999996,0.000241,-0.005321,0.010361,0.000536,0.010380,-0.005339,88.043485,0.010381,
830,350,1.167012,-17.358179,0.999996,0.000217,-0.004051,0.009533,0.000150,0.009534,-0.004053,89.368328,0.009570,
1860,1040,-4.126455,-9.969322,0.999997,0.000212,-0.004182,0.008718,0.000214,0.008722,-0.004186,89.050582,0.008724,
1690,1740,-1.315867,-2.614387,0.999996,0.000258,-0.004389,0.009720,0.000225,0.009723,-0.004393,89.085172,0.009738,
1270,1520,-0.096936,-3.480805,0.999998,0.000184,-0.002520,0.006648,-0.000427,0.006667,-0.002540,-87.337570,0.006730,
830,1260,2.447182,-7.526495,0.999995,0.000279,-0.006154,0.011545,-0.000950,0.011596,-0.006205,-86.936137,0.011606,
590,390,2.431595,-16.211223,0.999995,0.000238,-0.005528,0.009830,-0.000098,0.009830,-0.005528,-89.633541,0.009856,
950,1530,0.983701,-4.115336,0.999996,0.000223,-0.004764,0.009501,0.001103,0.009586,-0.004849,85.603835,0.009586,
730,1970,0.386823,-0.524895,0.999997,0.000226,-0.001940,0.008220,-0.002438,0.008775,-0.002495,-77.181016,0.009043,
1650,760,-2.408719,-12.992824,0.999992,0.000360,-0.006155,0.011338,-0.000722,0.011368,-0.006184,-87.639703,0.011383,
1550,1410,-1.394727,-5.494441,0.999995,0.000274,-0.006139,0.010924,-0.000971,0.010979,-0.006194,-86.754933,0.011009,
1290,1370,-0.134076,-4.438855,0.999997,0.000202,-0.002682,0.005368,-0.001974,0.005826,-0.003141,-76.935253,0.005832,
1390,1690,-0.362732,-2.408716,0.999997,0.000211,-0.002601,0.007744,-0.000307,0.007753,-0.002610,-88.304047,0.007890,
1230,440,0.003639,-17.355899,0.999997,0.000190,-0.002419,0.007032,-0.000017,0.007032,-0.002419,-89.897250,0.007145,
1740,250,-1.286285,-18.061066,0.999997,0.000222,-0.004364,0.009899,-0.000756,0.009939,-0.004404,-86.975252,0.009961,
1140,540,0.244272,-16.554658,0.999997,0.000213,-0.002942,0.007125,-0.001093,0.007242,-0.003059,-83.873170,0.007271,
1000,1390,0.905851,-5.269647,0.999994,0.000283,-0.005952,0.010291,0.002116,0.010562,-0.006223,82.699598,0.010618,
1820,780,-3.411789,-12.415933,0.999996,0.000239,-0.004948,0.009948,-0.000662,0.009978,-0.004977,-87.461691,0.009978,
1340,140,-0.083843,-19.406418,0.999998,0.000138,-0.000941,0.006586,-0.000218,0.006592,-0.000947,-88.339984,0.007129,
1890,460,-2.725103,-15.456894,0.999997,0.000229,-0.004931,0.010065,0.000012,0.010065,-0.004931,89.954588,0.010066,
990,1790,0.450963,-1.748154,0.999997,0.000218,-0.002265,0.007880,-0.000268,0.007887,-0.002272,-88.486647,0.008120,
610,770,3.539694,-12.435738,0.999995,0.000251,-0.004870,0.009809,0.000455,0.009823,-0.004884,88.224501,0.009824,
1610,330,-1.028148,-17.600186,0.999997,0.000208,-0.003780,0.009424,-0.000142,0.009426,-0.003781,-89.383301,0.009487,
900,430,1.054893,-16.786762,0.999996,0.000234,-0.004326,0.009406,-0.000508,0.009425,-0.004345,-87.885208,0.009435,
1200,1200,0.315304,-4.899420,0.999993,0.000000,-0.008627,0.002850,-0.000342,0.002861,-0.008637,-88.295124,0.008800,
1460,1800,-0.407395,-1.657344,0.999997,0.000193,-0.002096,0.007742,0.000324,0.007752,-0.002106,88.112842,0.008017,
1410,400,-0.452816,-17.434572,0.999997,0.000211,-0.003148,0.008002,0.000667,0.008042,-0.003188,86.586737,0.008099,
620,510,2.638255,-15.096424,0.999995,0.000284,-0.005045,0.010134,-0.000073,0.010134,-0.005045,-89.726228,0.010134,
1740,1190,-3.307395,-8.468660,0.999997,0.000225,-0.004963,0.010179,0.001070,0.010254,-0.005038,85.979027,0.010255,
690,1610,2.095690,-4.174943,0.999995,0.000257,-0.005027,0.010148,0.000165,0.010150,-0.005029,89.378378,0.010150,
1790,880,-3.598168,-11.482707,0.999995,0.000276,-0.004741,0.009797,-0.000902,0.009853,-0.004797,-86.462425,0.009854,
650,1210,3.597210,-8.367399,0.999994,0.000271,-0.004779,0.009651,-0.000786,0.009694,-0.004821,-86.890857,0.009694,
1180,1710,0.107042,-2.154554,0.999998,0.000158,-0.002032,0.007123,0.000096,0.007124,-0.002033,89.399471,0.007340,
950,1510,1.009606,-4.304733,0.999996,0.000210,-0.004897,0.009695,0.001178,0.009789,-0.004992,85.412240,0.009790,
1040,260,0.332668,-18.510330,0.999997,0.000203,-0.002227,0.007497,0.000059,0.007497,-0.002228,89.653254,0.007700,
1640,360,-1.222635,-17.243759,0.999996,0.000210,-0.004299,0.009540,-0.000063,0.009540,-0.004299,-89.737788,0.009556,
660,1750,1.805289,-2.853838,0.999994,0.000296,-0.004792,0.010074,-0.000218,0.010077,-0.004795,-89.160855,0.010081,
1310,1520,-0.205917,-3.540708,0.999998,0.000157,-0.002900,0.007013,-0.001046,0.007122,-0.003009,-84.042830,0.007151,
590,680,3.327595,-13.271017,0.999995,0.000290,-0.004974,0.010040,0.000173,0.010042,-0.004976,89.340938,0.010042,
910,1570,1.107934,-3.866522,0.999996,0.000247,-0.004636,0.009569,0.000741,0.009607,-0.004674,87.022814,0.009609,
590,380,2.399847,-16.309438,0.999997,0.000217,-0.005502,0.009765,0.000008,0.009765,-0.005502,89.969078,0.009791,
1730,1870,-0.947782,-1.430180,0.999997,0.000213,-0.003490,0.009564,0.001561,0.009748,-0.003674,83.272826,0.009846,
830,330,1.116066,-17.548296,0.999997,0.000216,-0.003888,0.009480,0.000201,0.009483,-0.003891,89.137810,0.009533,
1060,330,0.365499,-18.002585,0.999998,0.000200,-0.002584,0.007673,-0.000212,0.007677,-0.002588,-88.816356,0.007812,
1860,1020,-4.131254,-10.146631,0.999997,0.000208,-0.004157,0.008746,-0.000122,0.008747,-0.004158,-89.458413,0.008751,
1690,1530,-1.889735,-4.729505,0.999996,0.000224,-0.005272,0.010335,-0.000293,0.010340,-0.005278,-88.924675,0.010341,
1590,1820,-0.695548,-1.664099,0.999996,0.000242,-0.003202,0.008637,0.000678,0.008676,-0.003241,86.735248,0.008768,
1080,1960,0.072915,-0.472644,0.999998,0.000165,-0.000450,0.006426,-0.000444,0.006454,-0.000479,-86.322596,0.007192,
1550,690,-1.513081,-14.159132,0.999994,0.000310,-0.006573,0.011391,0.000794,0.011426,-0.006608,87.474103,0.011473,
1390,1670,-0.380128,-2.564132,0.999996,0.000223,-0.002779,0.007797,-0.000460,0.007817,-0.002799,-87.514159,0.007921,
610,1400,3.142122,-6.576849,0.999997,0.000205,-0.005047,0.010079,-0.000207,0.010082,-0.005050,-89.215837,0.010082,
1210,440,0.052166,-17.345738,0.999998,0.000162,-0.002422,0.007036,-0.000254,0.007043,-0.002429,-88.460249,0.007155,
1720,270,-1.287136,-17.912326,0.999996,0.000232,-0.004070,0.009788,-0.000760,0.009830,-0.004112,-86.869669,0.009874,
1290,1350,-0.129356,-4.543343,0.999997,0.000202,-0.002718,0.005141,-0.002206,0.005718,-0.003295,-75.343303,0.005740,
840,1770,0.955004,-2.171664,0.999998,0.000174,-0.003478,0.009235,-0.000542,0.009258,-0.003501,-87.564226,0.009349,
1370,60,-0.033567,-19.911585,0.999998,0.000156,-0.000205,0.006183,-0.000388,0.006206,-0.000228,-86.536853,0.007038,
1670,1100,-3.232338,-9.338526,0.999996,0.000242,-0.004387,0.010334,0.000978,0.010399,-0.004452,86.216215,0.010434,
740,60,0.236655,-19.839492,0.999996,0.000245,-0.000895,0.007887,0.002619,0.008608,-0.001617,74.594269,0.009151,
1140,520,0.243905,-16.699352,0.999997,0.000201,-0.002937,0.007200,-0.001004,0.007299,-0.003035,-84.398705,0.007333,
1610,310,-0.977733,-17.788114,0.999997,0.000207,-0.003709,0.009133,-0.000205,0.009137,-0.003712,-89.085576,0.009190,
990,1770,0.483320,-1.904511,0.999996,0.000232,-0.002440,0.007999,-0.000201,0.008003,-0.002444,-88.897056,0.008203,
610,810,3.675804,-12.048179,0.999996,0.000233,-0.004692,0.009402,0.000448,0.009416,-0.004706,88.179219,0.009416,
1880,1980,-0.774329,-0.758981,0.999995,0.000252,-0.004165,0.012130,0.003251,0.012755,-0.004789,79.124733,0.012886,
900,410,1.016736,-16.973566,0.999997,0.000181,-0.004250,0.009328,-0.000440,0.009343,-0.004264,-88.144449,0.009354,
1470,1870,-0.296471,-1.128621,0.999997,0.000182,-0.001481,0.007357,0.000598,0.007398,-0.001522,86.147560,0.007813,
1420,1230,-1.056364,-6.735946,0.999993,0.000321,-0.007800,0.012259,-0.002693,0.012614,-0.008155,-82.486084,0.012793,
750,740,2.702370,-13.063078,0.999995,0.000312,-0.005660,0.010708,0.000746,0.010742,-0.005694,87.394213,0.010748,
1820,800,-3.483078,-12.215964,0.999996,0.000257,-0.004890,0.009847,-0.000713,0.009881,-0.004924,-87.235104,0.009881,
780,1700,1.405107,-2.993183,0.999995,0.000233,-0.004490,0.009724,-0.000063,0.009724,-0.004490,-89.744313,0.009733,
1900,1770,-2.196467,-3.018106,0.999997,0.000000,-0.004816,0.009573,-0.000008,0.009573,-0.004816,-89.968461,0.009573,
1200,860,0.351368,-15.248535,0.999986,0.000000,-0.009140,0.003012,0.000381,0.003024,-0.009152,88.207263,0.009326,
1670,740,-2.452137,-13.167487,0.999995,0.000289,-0.005995,0.011155,-0.000647,0.011179,-0.006019,-87.841499,0.011190,
700,1100,3.653807,-9.385225,0.999996,0.000236,-0.004477,0.009709,-0.000663,0.009740,-0.004508,-87.331444,0.009749,
1010,480,0.671396,-16.661971,0.999996,0.000247,-0.004028,0.008724,-0.001117,0.008821,-0.004125,-85.033157,0.008828,
1550,200,-0.487770,-18.841831,0.999996,0.000225,-0.002060,0.008063,-0.000908,0.008144,-0.002140,-84.912742,0.008443,
660,700,3.043207,-13.267237,0.999997,0.000214,-0.005158,0.010193,0.000480,0.010208,-0.005173,88.211788,0.010208,
1780,410,-2.031624,-16.319299,0.999997,0.000208,-0.004929,0.010120,0.000148,0.010122,-0.004930,89.436983,0.010123,
1260,1710,-0.059193,-2.143177,0.999998,0.000187,-0.002062,0.007047,-0.000162,0.007050,-0.002064,-88.983766,0.007249,
1040,240,0.307181,-18.657566,0.999997,0.000208,-0.002071,0.007479,0.000179,0.007482,-0.002074,88.926722,0.007726,
1510,290,-0.599961,-18.150568,0.999996,0.000232,-0.003056,0.008303,-0.000136,0.008305,-0.003058,-89.314610,0.008400,
630,1640,2.309074,-4.066706,0.999994,0.000279,-0.005000,0.010069,0.000115,0.010070,-0.005001,89.562459,0.010070,
1220,1480,0.027016,-3.715505,0.999998,0.000196,-0.002465,0.006271,0.000316,0.006282,-0.002476,87.929976,0.006329,
1640,340,-1.167583,-17.436766,0.999996,0.000218,-0.004159,0.009605,-0.000141,0.009607,-0.004161,-89.412622,0.009636,
1890,1190,-4.012406,-8.711749,0.999998,0.000170,-0.004379,0.008799,0.000149,0.008801,-0.004381,89.351565,0.008801,
1190,450,0.100711,-17.263263,0.999998,0.000198,-0.002424,0.007031,-0.000267,0.007038,-0.002431,-88.384389,0.007149,
1210,140,0.016189,-19.417161,0.999998,0.000148,-0.000832,0.006392,0.000022,0.006392,-0.000832,89.822003,0.006950,
1790,820,-3.406081,-12.073009,0.999996,0.000237,-0.004948,0.009947,-0.000882,0.009999,-0.005000,-86.624590,0.009999,
1440,1360,-0.808215,-5.440573,0.999994,0.000280,-0.006142,0.010300,-0.002583,0.010696,-0.006538,-81.278407,0.010784,
1560,740,-1.742382,-13.528137,0.999995,0.000294,-0.006939,0.011965,0.000262,0.011969,-0.006943,89.206273,0.012020,
1080,1940,0.092394,-0.601855,0.999998,0.000161,-0.000599,0.006549,-0.000460,0.006578,-0.000628,-86.329843,0.007260,
870,430,1.186667,-16.702005,0.999997,0.000252,-0.004445,0.009594,-0.000405,0.009606,-0.004457,-88.349823,0.009614,
590,300,2.124419,-17.104001,0.999998,0.000202,-0.004801,0.009800,0.000001,0.009800,-0.004801,89.996756,0.009801,
990,1580,0.746131,-3.517460,0.999996,0.000224,-0.004027,0.008846,0.000978,0.008920,-0.004101,85.681839,0.008929,
910,1550,1.138833,-4.057816,0.999996,0.000261,-0.004829,0.009718,0.000825,0.009764,-0.004876,86.765861,0.009764,
1290,1520,-0.148609,-3.499679,0.999997,0.000199,-0.002722,0.006819,-0.000713,0.006872,-0.002775,-85.747098,0.006914,
1770,1040,-3.740780,-9.959485,0.999997,0.000214,-0.004338,0.009543,0.000254,0.009547,-0.004343,88.951347,0.009560,
940,1910,0.297134,-0.870215,0.999997,0.000216,-0.001482,0.007433,-0.000940,0.007531,-0.001580,-84.043664,0.007942,
820,870,2.826539,-11.756426,0.999994,0.000284,-0.005414,0.011153,0.001372,0.011266,-0.005527,85.296757,0.011267,
1630,520,-1.562434,-15.682694,0.999995,0.000259,-0.005273,0.010270,0.000511,0.010287,-0.005290,88.118625,0.010288,
1780,360,-1.875899,-16.827188,0.999997,0.000224,-0.004815,0.010057,-0.000025,0.010057,-0.004815,-89.904759,0.010060,
1570,1820,-0.632287,-1.631342,0.999997,0.000218,-0.002823,0.008444,0.000669,0.008483,-0.002863,86.611656,0.008632,
1860,1000,-4.113657,-10.323659,0.999998,0.000188,-0.004169,0.008685,-0.000247,0.008690,-0.004174,-88.900326,0.008692,
1690,1550,-1.836217,-4.519280,0.999996,0.000216,-0.005183,0.010277,-0.000298,0.010282,-0.005189,-88.897325,0.010283,
830,310,1.063962,-17.735788,0.999997,0.000213,-0.003688,0.009300,0.000330,0.009308,-0.003697,88.545644,0.009374,
1080,710,0.496475,-14.989934,0.999994,0.000293,-0.005301,0.008688,-0.003332,0.009441,-0.006054,-77.264896,0.009566,
750,720,2.626668,-13.278375,0.999996,0.000285,-0.005667,0.010817,0.000615,0.010840,-0.005690,87.864779,0.010844,
620,300,1.978963,-17.217141,0.999998,0.000215,-0.004886,0.010039,0.000024,0.010039,-0.004886,89.906291,0.010040,
1390,1650,-0.393043,-2.717557,0.999996,0.000234,-0.002956,0.007781,-0.000641,0.007819,-0.002995,-86.595038,0.007890,
1290,1330,-0.128547,-4.639975,0.999997,0.000218,-0.002759,0.004797,-0.002489,0.005543,-0.003505,-73.312649,0.005607,
710,360,1.746405,-16.915028,0.999995,0.000266,-0.004841,0.010052,0.000007,0.010052,-0.004841,89.973034,0.010055,
1130,1710,0.213516,-2.187618,0.999998,0.000179,-0.002377,0.007297,0.000332,0.007309,-0.002388,88.037631,0.007454,
1590,1460,-1.517469,-5.117659,0.999994,0.000266,-0.005723,0.010559,-0.000693,0.010589,-0.005752,-87.566524,0.010602,
1340,1900,-0.097563,-0.857929,0.999998,0.000153,-0.001048,0.006625,0.000229,0.006632,-0.001055,88.293220,0.007128,
1200,30,0.005563,-20.097021,0.999999,0.000000,-0.000030,0.005988,0.000057,0.005989,-0.000030,89.459986,0.006898,
700,1080,3.677356,-9.577134,0.999996,0.000233,-0.004390,0.009529,-0.000332,0.009537,-0.004398,-88.634547,0.009547,
1820,820,-3.551721,-12.022170,0.999995,0.000256,-0.004827,0.009613,-0.000700,0.009647,-0.004861,-87.232489,0.009647,
1610,1940,-0.338383,-0.696959,0.999998,0.000176,-0.001538,0.007831,0.001569,0.008086,-0.001794,80.742801,0.008493,
1610,290,-0.925482,-17.966027,0.999997,0.000208,-0.003599,0.009119,-0.000397,0.009131,-0.003611,-88.213592,0.009197,
1010,460,0.650644,-16.837201,0.999996,0.000255,-0.003850,0.008582,-0.000989,0.008661,-0.003928,-85.480634,0.008673,
1100,270,0.224255,-18.490581,0.999998,0.000185,-0.001815,0.007254,0.000048,0.007254,-0.001815,89.693867,0.007550,
1040,220,0.277944,-18.808970,0.999997,0.000210,-0.001906,0.007304,0.000237,0.007310,-0.001913,88.523955,0.007581,
1640,320,-1.115598,-17.628092,0.999997,0.000205,-0.003946,0.009441,-0.000225,0.009445,-0.003950,-89.038218,0.009487,
1730,1850,-1.044818,-1.625326,0.999997,0.000191,-0.003739,0.009778,0.001345,0.009910,-0.003871,84.372392,0.009989,
1040,330,0.424505,-17.967403,0.999997,0.000202,-0.002788,0.007807,-0.000255,0.007813,-0.002794,-88.622903,0.007918,
990,1750,0.518021,-2.067116,0.999997,0.000196,-0.002603,0.008061,-0.000075,0.008061,-0.002604,-89.597995,0.008228,
740,1500,2.146478,-5.146790,0.999995,0.000285,-0.005381,0.010363,0.000148,0.010364,-0.005383,89.461750,0.010367,
1800,890,-3.674346,-11.371817,0.999996,0.000229,-0.004642,0.009564,-0.000733,0.009602,-0.004680,-87.055017,0.009603,
860,830,2.417463,-12.294078,0.999993,0.000308,-0.006228,0.011871,0.001149,0.011944,-0.006300,86.380981,0.011950,
1560,780,-1.902470,-13.042793,0.999994,0.000290,-0.006968,0.012223,-0.000208,0.012226,-0.006970,-89.379369,0.012266,
950,1490,1.035354,-4.501124,0.999997,0.000195,-0.005111,0.009895,0.001254,0.009999,-0.005215,85.255631,0.010002,
1880,1190,-3.968767,-8.686608,0.999996,0.000225,-0.004391,0.008945,0.000231,0.008949,-0.004395,89.008687,0.008949,
910,1530,1.177072,-4.256787,0.999995,0.000274,-0.005060,0.009889,0.000933,0.009947,-0.005118,86.444403,0.009949,
850,1580,1.376814,-3.964908,0.999995,0.000273,-0.004841,0.009893,0.000517,0.009911,-0.004859,87.993901,0.009912,
800,1850,0.811542,-1.508983,0.999997,0.000206,-0.003433,0.009062,-0.001130,0.009163,-0.003534,-84.873975,0.009243,
850,640,1.765828,-14.471276,0.999995,0.000257,-0.006061,0.011039,-0.000392,0.011048,-0.006070,-88.687747,0.011066,
640,1510,2.640647,-5.360403,0.999994,0.000275,-0.005108,0.010205,0.000058,0.010205,-0.005108,89.783046,0.010205,
1080,590,0.453348,-15.986347,0.999995,0.000243,-0.003941,0.008021,-0.001934,0.008326,-0.004246,-81.039746,0.008327,
810,1260,2.568614,-7.571554,0.999997,0.000266,-0.006012,0.011332,-0.001001,0.011389,-0.006070,-86.708240,0.011398,
1470,1910,-0.220859,-0.842935,0.999997,0.000197,-0.001068,0.007083,0.000746,0.007151,-0.001136,84.810016,0.007685,
1240,1710,-0.018802,-2.133364,0.999999,0.000132,-0.002129,0.007009,-0.000089,0.007010,-0.002130,-89.440266,0.007187,
1190,2020,0.006661,-0.092658,0.999998,0.000000,-0.000092,0.005969,-0.000077,0.005970,-0.000093,-89.276581,0.006841,
660,680,2.973931,-13.471006,0.999997,0.000203,-0.005181,0.010219,0.000399,0.010229,-0.005191,88.517005,0.010230,
700,1060,3.695215,-9.765831,0.999997,0.000218,-0.004331,0.009536,-0.000297,0.009542,-0.004338,-88.775494,0.009556,
730,740,2.813444,-13.017494,0.999997,0.000246,-0.005550,0.010558,0.000764,0.010595,-0.005586,87.291067,0.010600,
830,290,1.006594,-17.922068,0.999997,0.000231,-0.003524,0.009286,0.000529,0.009308,-0.003546,87.640506,0.009395,
590,290,2.086377,-17.201303,0.999998,0.000202,-0.004779,0.009758,0.000015,0.009758,-0.004779,89.941413,0.009759,
1820,840,-3.615061,-11.830172,0.999995,0.000257,-0.004750,0.009551,-0.000723,0.009587,-0.004786,-87.113825,0.009587,
1290,1310,-0.127728,-4.725770,0.999997,0.000219,-0.002849,0.004503,-0.002775,0.005433,-0.003778,-71.475300,0.005570,
620,280,1.902208,-17.418600,0.999997,0.000219,-0.004870,0.009983,0.000082,0.009983,-0.004870,89.682133,0.009984,
1040,200,0.252698,-18.952124,0.999997,0.000210,-0.001736,0.007192,0.000348,0.007205,-0.001749,87.771469,0.007517,
1340,1880,-0.111332,-0.988523,0.999998,0.000173,-0.001209,0.006663,0.000174,0.006667,-0.001213,88.731997,0.007102,
1570,290,-0.775992,-18.052241,0.999997,0.000209,-0.003344,0.008797,-0.000331,0.008806,-0.003353,-88.438206,0.008889,
1630,1360,-2.040949,-6.367048,0.999995,0.000276,-0.006222,0.011305,0.000074,0.011305,-0.006222,89.758048,0.011325,
1140,500,0.240553,-16.842278,0.999997,0.000191,-0.002906,0.007207,-0.000909,0.007288,-0.002987,-84.903226,0.007328,
1720,1190,-3.207067,-8.443592,0.999997,0.000226,-0.005063,0.010327,0.001092,0.010404,-0.005140,85.962121,0.010404,
1430,1600,-0.562493,-3.217727,0.999997,0.000219,-0.003435,0.008271,-0.000849,0.008332,-0.003496,-85.871196,0.008368,
1540,1290,-1.698036,-6.846885,0.999995,0.000236,-0.007163,0.012248,-0.000262,0.012252,-0.007166,-89.226376,0.012311,
1710,540,-2.034170,-15.209727,0.999995,0.000274,-0.005326,0.010360,0.000218,0.010363,-0.005329,89.204444,0.010364,
1380,330,-0.312590,-18.029092,0.999997,0.000212,-0.002192,0.007548,0.000100,0.007549,-0.002193,89.410522,0.007767,
680,150,0.964245,-18.943885,0.999996,0.000244,-0.003879,0.009978,0.001984,0.010256,-0.004158,82.011336,0.010317,
740,1480,2.204937,-5.356090,0.999996,0.000237,-0.005423,0.010483,0.000099,0.010484,-0.005424,89.643338,0.010486,
1690,1570,-1.784986,-4.315240,0.999997,0.000211,-0.005093,0.010199,-0.000298,0.010205,-0.005099,-88.884360,0.010205,
1490,60,-0.073763,-19.899222,0.999998,0.000176,-0.000507,0.006541,-0.000852,0.006643,-0.000608,-83.203631,0.007345,
1110,880,1.058766,-13.904100,0.999993,0.000321,-0.002976,0.006509,-0.004453,0.008272,-0.004739,-68.400168,0.008301,
1390,1630,-0.409113,-2.878583,0.999997,0.000222,-0.003136,0.007854,-0.000788,0.007910,-0.003192,-85.921251,0.007959,
1190,1200,0.394510,-4.974970,0.999993,0.000000,-0.007373,0.002611,-0.000119,0.002612,-0.007374,-89.317444,0.007478,
1860,980,-4.098014,-10.496225,0.999998,0.000188,-0.004196,0.008608,-0.000119,0.008609,-0.004197,-89.465555,0.008610,
1080,650,0.469896,-15.496167,0.999996,0.000220,-0.004553,0.008252,-0.002657,0.008781,-0.005083,-78.731386,0.008817,
1730,1830,-1.139403,-1.823137,0.999997,0.000188,-0.003931,0.009799,0.001135,0.009892,-0.004024,85.307361,0.009949,
810,560,1.783072,-15.188570,0.999996,0.000224,-0.005464,0.010481,-0.000412,0.010492,-0.005474,-88.522439,0.010495,
1480,1400,-0.990709,-5.259660,0.999996,0.000238,-0.005988,0.010413,-0.001876,0.010625,-0.006200,-83.556233,0.010674,
1820,1280,-3.397043,-7.690577,0.999996,0.000232,-0.004975,0.009950,0.000678,0.009981,-0.005006,87.402380,0.009981,
1750,1040,-3.652658,-9.958947,0.999996,0.000229,-0.004323,0.009665,0.000251,0.009669,-0.004327,88.972776,0.009687,
1600,610,-1.609250,-14.845381,0.999995,0.000262,-0.005831,0.010639,0.000594,0.010661,-0.005852,87.937615,0.010678,
1890,1980,-0.818531,-0.794561,0.999995,0.000262,-0.004056,0.012459,0.003437,0.013146,-0.004743,78.702116,0.013315,
1640,300,-1.062510,-17.814906,0.999997,0.000189,-0.003726,0.009361,-0.000434,0.009375,-0.003740,-88.103294,0.009439,
660,660,2.904928,-13.677689,0.999996,0.000227,-0.005214,0.010307,0.000297,0.010313,-0.005220,88.905228,0.010313,
1890,1100,-4.202247,-9.481764,0.999996,0.000228,-0.004138,0.008250,-0.000018,0.008250,-0.004138,-89.915020,0.008250,
990,1730,0.548544,-2.229710,0.999997,0.000194,-0.002761,0.008218,0.000032,0.008218,-0.002761,89.830563,0.008364,
870,410,1.147012,-16.890392,0.999996,0.000248,-0.004293,0.009433,-0.000297,0.009439,-0.004300,-88.760713,0.009452,
910,770,1.810682,-13.192708,0.999994,0.000272,-0.007044,0.012264,0.000005,0.012264,-0.007044,89.984489,0.012309,
950,1580,0.909938,-3.639922,0.999996,0.000238,-0.004372,0.009258,0.000924,0.009320,-0.004434,86.140860,0.009324,
830,1600,1.428165,-3.831224,0.999995,0.000265,-0.004807,0.009887,0.000394,0.009898,-0.004818,88.466996,0.009899,
1190,430,0.100402,-17.404064,0.999998,0.000201,-0.002397,0.007097,-0.000239,0.007103,-0.002403,-88.556792,0.007226,
1610,710,-1.965661,-13.690972,0.999996,0.000258,-0.006382,0.011450,-0.000020,0.011450,-0.006382,-89.936009,0.011475,
1800,870,-3.614072,-11.569549,0.999995,0.000276,-0.004743,0.009771,-0.000894,0.009826,-0.004798,-86.489886,0.009827,
1380,270,-0.256517,-18.479393,0.999998,0.000175,-0.001789,0.007305,-0.000104,0.007306,-0.001790,-89.342311,0.007616,
1780,340,-1.810885,-17.027003,0.999996,0.000219,-0.004811,0.010025,-0.000019,0.010025,-0.004811,-89.926450,0.010028,
1880,1660,-2.481705,-4.021754,0.999997,0.000189,-0.004888,0.009862,-0.000125,0.009863,-0.004889,-89.515239,0.009863,
830,270,0.943980,-18.107740,0.999996,0.000243,-0.003339,0.009128,0.000692,0.009166,-0.003378,86.832679,0.009271,
1570,270,-0.727267,-18.229479,0.999996,0.000222,-0.003174,0.008628,-0.000433,0.008644,-0.003190,-87.899625,0.008742,
1140,460,0.234523,-17.135198,0.999997,0.000214,-0.002808,0.007343,-0.000757,0.007399,-0.002864,-85.758821,0.007462,
800,1830,0.888274,-1.690118,0.999996,0.000221,-0.003657,0.009182,-0.000933,0.009249,-0.003724,-85.862953,0.009307,
1010,540,0.723015,-16.129711,0.999996,0.000245,-0.004342,0.008938,-0.001411,0.009086,-0.004491,-84.001459,0.009086,
1610,1380,-1.851939,-6.069991,0.999997,0.000188,-0.006237,0.011212,-0.000229,0.011215,-0.006240,-89.246626,0.011239,
1340,1860,-0.128180,-1.124941,0.999998,0.000176,-0.001373,0.006821,0.000161,0.006825,-0.001377,88.872607,0.007218,
1780,530,-2.375149,-15.090706,0.999995,0.000261,-0.005185,0.010234,0.000089,0.010235,-0.005186,89.670616,0.010235,
1220,1710,0.024444,-2.135250,0.999998,0.000170,-0.002106,0.007016,0.000133,0.007018,-0.002108,89.165372,0.007202,
1600,410,-1.174992,-16.871938,0.999996,0.000205,-0.004331,0.009489,0.000286,0.009495,-0.004337,88.813878,0.009507,
570,1320,3.611762,-7.511776,0.999708,0.002163,-0.006010,0.009884,0.000232,0.009888,-0.006013,89.163979,0.009964,
680,130,0.839787,-19.134881,0.999992,0.000325,-0.003556,0.009839,0.002392,0.010254,-0.003970,80.172107,0.010340,
1430,1640,-0.530662,-2.890035,0.999996,0.000269,-0.003198,0.008120,-0.000627,0.008155,-0.003233,-86.838295,0.008213,
1700,1190,-3.106892,-8.423117,0.999997,0.000214,-0.005128,0.010542,0.001178,0.010630,-0.005216,85.723124,0.010630,
630,1260,3.530412,-7.922899,0.999995,0.000283,-0.004864,0.009751,-0.000624,0.009778,-0.004891,-87.561291,0.009778,
1190,140,0.032459,-19.415090,0.999998,0.000140,-0.000727,0.006404,0.000099,0.006405,-0.000728,89.203289,0.007013,
1440,1340,-0.841816,-5.647302,0.999996,0.000250,-0.006451,0.010594,-0.002634,0.010992,-0.006848,-81.411550,0.011102,
950,1470,1.065457,-4.703854,0.999997,0.000207,-0.005371,0.010060,0.001361,0.010179,-0.005490,84.996874,0.010189,
1900,1780,-2.158131,-2.919967,0.999998,0.000000,-0.004808,0.009573,0.000025,0.009573,-0.004808,89.899906,0.009573,
580,1450,3.130507,-6.160112,0.999996,0.000243,-0.004741,0.010153,-0.000001,0.010153,-0.004741,-89.995677,0.010161,
1390,1610,-0.422181,-3.037326,0.999996,0.000235,-0.003300,0.007904,-0.000914,0.007978,-0.003374,-85.368018,0.008009,
1750,1740,-1.584368,-2.782863,0.999997,0.000251,-0.004789,0.010011,0.000149,0.010013,-0.004790,89.425073,0.010016,
1040,180,0.220042,-19.097123,0.999997,0.000206,-0.001555,0.007039,0.000391,0.007056,-0.001573,87.401736,0.007409,
910,60,0.103964,-19.888315,0.999997,0.000206,-0.000413,0.006809,0.001238,0.007015,-0.000619,80.541815,0.007768,
770,1000,3.398191,-10.354927,0.999996,0.000226,-0.004201,0.009956,0.000346,0.009964,-0.004209,88.601661,0.010004,
780,1680,1.462473,-3.186468,0.999995,0.000248,-0.004595,0.009842,0.000039,0.009842,-0.004595,89.845881,0.009849,
1820,1260,-3.467048,-7.894032,0.999996,0.000226,-0.004923,0.009904,0.000711,0.009938,-0.004957,87.259052,0.009938,
1190,1190,0.512301,-4.983049,0.999981,0.000000,-0.008196,0.002044,-0.000250,0.002050,-0.008202,-88.604800,0.008537,
740,1460,2.263377,-5.568181,0.999996,0.000220,-0.005445,0.010549,-0.000003,0.010549,-0.005445,-89.989282,0.010551,
610,220,1.679101,-17.979714,0.999997,0.000233,-0.004863,0.010085,0.000343,0.010093,-0.004871,88.686927,0.010095,
1180,330,0.103939,-18.112462,0.999998,0.000151,-0.001947,0.007121,-0.000044,0.007121,-0.001947,-89.719465,0.007361,
1220,1460,0.028446,-3.839210,0.999998,0.000174,-0.002423,0.006048,0.000345,0.006062,-0.002437,87.668727,0.006101,
700,1070,3.686120,-9.671432,0.999996,0.000234,-0.004348,0.009521,-0.000281,0.009527,-0.004354,-88.838753,0.009538,
1680,590,-2.011791,-14.782508,0.999996,0.000220,-0.005566,0.010548,0.000189,0.010550,-0.005568,89.327452,0.010556,
1690,1590,-1.734412,-4.112248,0.999997,0.000228,-0.005031,0.010136,-0.000285,0.010141,-0.005036,-88.924223,0.010141,
1290,1290,-0.135899,-4.809397,0.999997,0.000244,-0.002978,0.004137,-0.003000,0.005232,-0.004074,-69.931226,0.005497,
1890,1970,-0.917780,-0.924143,0.999994,0.000287,-0.004456,0.012327,0.002929,0.012824,-0.004952,80.378872,0.012934,
660,640,2.835799,-13.883979,0.999996,0.000239,-0.005229,0.010248,0.000235,0.010252,-0.005233,89.130632,0.010252,
1480,1380,-1.021780,-5.476202,0.999996,0.000217,-0.006233,0.010680,-0.001882,0.010887,-0.006440,-83.726283,0.010948,
1190,410,0.097850,-17.547480,0.999997,0.000218,-0.002353,0.007125,-0.000209,0.007129,-0.002358,-88.737915,0.007264,
910,1510,1.211377,-4.460460,0.999995,0.000279,-0.005221,0.010066,0.000977,0.010128,-0.005283,86.358435,0.010131,
600,510,2.740060,-15.033078,0.999996,0.000237,-0.005056,0.010102,-0.000047,0.010102,-0.005056,-89.823028,0.010102,
1850,1820,-1.738539,-2.318429,0.999998,0.000189,-0.004884,0.009994,0.000277,0.009999,-0.004889,88.935560,0.010000,
1140,440,0.227009,-17.285133,0.999997,0.000210,-0.002720,0.007352,-0.000655,0.007394,-0.002763,-86.295565,0.007473,
800,870,2.934234,-11.728395,0.999996,0.000259,-0.005245,0.010919,0.001286,0.011021,-0.005346,85.479283,0.011023,
1250,1520,-0.046368,-3.463376,0.999998,0.000153,-0.002539,0.006589,-0.000362,0.006603,-0.002553,-87.730776,0.006659,
1080,690,0.484629,-15.159456,0.999992,0.000324,-0.004964,0.008535,-0.003076,0.009203,-0.005632,-77.747995,0.009280,
830,1580,1.472418,-4.028688,0.999996,0.000216,-0.004915,0.009965,0.000432,0.009978,-0.004928,88.338012,0.009978,
1340,1840,-0.142208,-1.261891,0.999998,0.000181,-0.001497,0.006905,0.000089,0.006906,-0.001498,89.393359,0.007266,
1760,530,-2.271368,-15.153561,0.999994,0.000287,-0.005234,0.010272,0.000109,0.010273,-0.005235,89.597601,0.010274,
1570,250,-0.673832,-18.400781,0.999997,0.000207,-0.002995,0.008571,-0.000570,0.008599,-0.003023,-87.187154,0.008724,
1810,1380,-2.991239,-6.656304,0.999997,0.000217,-0.005161,0.010222,0.000366,0.010230,-0.005170,88.638969,0.010231,
1900,2000,-0.618925,-0.572641,0.999957,0.000000,-0.002040,0.014368,0.006465,0.016609,-0.004281,70.879365,0.017246,
740,70,0.289963,-19.761650,0.999995,0.000250,-0.001158,0.007967,0.002570,0.008641,-0.001832,75.304270,0.009106,
890,60,0.114167,-19.886122,0.999998,0.000185,-0.000698,0.006935,0.001326,0.007159,-0.000922,80.419221,0.007790,
610,1260,3.627303,-7.970144,0.999996,0.000250,-0.004774,0.009527,-0.000480,0.009543,-0.004791,-88.078923,0.009543,
1430,1620,-0.546495,-3.054278,0.999997,0.000210,-0.003309,0.008189,-0.000711,0.008233,-0.003353,-86.472564,0.008280,
950,1450,1.101049,-4.909079,0.999996,0.000247,-0.005560,0.010185,0.001388,0.010306,-0.005682,84.999792,0.010324,
1700,80,-0.324255,-19.690973,0.999996,0.000221,-0.001311,0.007922,-0.002324,0.008474,-0.001862,-76.639739,0.008907,
620,260,1.818623,-17.619248,0.999997,0.000218,-0.004855,0.010088,0.000191,0.010091,-0.004858,89.267588,0.010093,
1610,730,-2.040049,-13.458248,0.999997,0.000219,-0.006449,0.011599,-0.000191,0.011601,-0.006451,-89.394079,0.011625,
1870,1300,-3.570834,-7.623052,0.999995,0.000261,-0.004865,0.009770,0.000300,0.009777,-0.004872,88.824445,0.009777,
610,1220,3.753480,-8.343595,0.999996,0.000218,-0.004638,0.009413,-0.000524,0.009433,-0.004658,-87.868392,0.009433,
1820,1240,-3.536480,-8.092927,0.999995,0.000245,-0.004861,0.009683,0.000692,0.009716,-0.004894,87.283416,0.009716,
1590,1740,-0.915455,-2.374563,0.999998,0.000144,-0.003825,0.009135,0.000113,0.009136,-0.003826,89.501458,0.009176,
1080,1920,0.116409,-0.734778,0.999998,0.000158,-0.000750,0.006634,-0.000390,0.006654,-0.000770,-86.984063,0.007280,
1390,1590,-0.434518,-3.198797,0.999997,0.000215,-0.003390,0.007962,-0.001040,0.008056,-0.003485,-84.806737,0.008081,
1580,1950,-0.259395,-0.601233,0.999998,0.000205,-0.001465,0.007452,0.001322,0.007644,-0.001657,81.744182,0.008043,
780,1660,1.516387,-3.385039,0.999995,0.000251,-0.004684,0.009897,0.000110,0.009898,-0.004685,89.568835,0.009902,
1780,320,-1.747456,-17.231261,0.999996,0.000240,-0.004838,0.010030,-0.000069,0.010031,-0.004838,-89.733878,0.010033,
1040,160,0.192279,-19.234820,0.999998,0.000185,-0.001342,0.006987,0.000467,0.007013,-0.001369,86.798501,0.007435,
660,620,2.772092,-14.089484,0.999996,0.000254,-0.005230,0.010256,0.000190,0.010258,-0.005232,89.298824,0.010259,
910,1470,1.285441,-4.867572,0.999994,0.000286,-0.005550,0.010333,0.001002,0.010396,-0.005613,86.403458,0.010407,
710,1000,3.655195,-10.346672,0.999996,0.000211,-0.004313,0.009647,0.000323,0.009654,-0.004321,88.675587,0.009672,
1190,390,0.094936,-17.690884,0.999997,0.000203,-0.002262,0.007121,-0.000171,0.007124,-0.002265,-88.954227,0.007280,
1110,2020,0.015977,-0.096859,0.999998,0.000000,-0.000071,0.005987,-0.000243,0.005997,-0.000080,-87.707212,0.006879,
1740,40,-0.131330,-19.994946,0.999997,0.000223,-0.000912,0.007886,-0.002856,0.008732,-0.001758,-73.504852,0.009237,
1530,1040,-2.791965,-9.936777,0.999997,0.000224,-0.003643,0.011640,0.000280,0.011645,-0.003648,88.952385,0.011912,
740,1440,2.326473,-5.779899,0.999996,0.000220,-0.005505,0.010531,-0.000081,0.010531,-0.005505,-89.709600,0.010535,
1480,1360,-1.062774,-5.690398,0.999996,0.000240,-0.006526,0.010980,-0.001887,0.011181,-0.006728,-83.917086,0.011258,
1010,380,0.565780,-17.510963,0.999995,0.000268,-0.003035,0.008320,-0.000337,0.008330,-0.003045,-88.299785,0.008430,
1200,1710,0.065513,-2.144009,0.999997,0.000191,-0.002047,0.007072,0.000164,0.007075,-0.002050,88.972698,0.007281,
1080,670,0.476794,-15.328894,0.999995,0.000249,-0.004725,0.008394,-0.002841,0.008983,-0.005313,-78.290351,0.009033,
1590,280,-0.824273,-18.101326,0.999997,0.000202,-0.003565,0.008913,-0.000378,0.008925,-0.003577,-88.266661,0.008983,
1190,1860,0.047747,-1.105647,0.999998,0.000168,-0.001123,0.006671,-0.000093,0.006672,-0.001124,-89.319765,0.007144,
1220,1440,0.025985,-3.957815,0.999998,0.000161,-0.002365,0.005781,0.000350,0.005796,-0.002380,87.541084,0.005827,
1660,590,-1.900256,-14.849096,0.999997,0.000221,-0.005584,0.010594,0.000247,0.010598,-0.005588,89.125174,0.010603,
1570,230,-0.616473,-18.573397,0.999997,0.000217,-0.002810,0.008446,-0.000705,0.008490,-0.002854,-86.430432,0.008641,
1340,1820,-0.157595,-1.401185,0.999998,0.000182,-0.001674,0.007047,0.000026,0.007047,-0.001674,89.826329,0.007364,
1880,1990,-0.676412,-0.634879,0.999995,0.000274,-0.003529,0.012161,0.003969,0.013107,-0.004475,76.582250,0.013325,
1210,820,0.095152,-15.398047,0.999993,0.000309,-0.004492,0.002437,-0.000810,0.002531,-0.004585,-83.418869,0.004593,
1790,1380,-2.886191,-6.603220,0.999997,0.000213,-0.005252,0.010338,0.000401,0.010348,-0.005262,88.526389,0.010349,
1290,1710,-0.122712,-2.156545,0.999998,0.000166,-0.002005,0.007131,-0.000050,0.007131,-0.002005,-89.686827,0.007355,
1630,160,-0.544881,-19.086140,0.999996,0.000233,-0.002074,0.008407,-0.001548,0.008631,-0.002298,-81.770073,0.008940,
1140,420,0.220933,-17.432682,0.999997,0.000214,-0.002656,0.007341,-0.000586,0.007376,-0.002690,-86.657287,0.007465,
890,1640,1.070324,-3.260723,0.999997,0.000229,-0.004266,0.009387,0.000414,0.009399,-0.004279,88.265835,0.009412,
1680,1230,-2.846276,-7.961088,0.999996,0.000221,-0.005546,0.010883,0.001174,0.010966,-0.005630,85.934385,0.010968,
950,1430,1.135026,-5.112467,0.999996,0.000245,-0.005769,0.010346,0.001365,0.010461,-0.005884,85.191078,0.010488,
1700,60,-0.212851,-19.851496,0.999997,0.000189,-0.000884,0.007640,-0.002331,0.008235,-0.001480,-75.660448,0.008781,
850,700,1.951745,-13.794829,0.999995,0.000263,-0.006321,0.011377,-0.000021,0.011377,-0.006321,-89.932076,0.011400,
610,1860,1.548498,-1.928008,0.999995,0.000288,-0.004883,0.010075,-0.000518,0.010093,-0.004900,-88.017341,0.010095,
1880,1300,-3.619204,-7.652897,0.999995,0.000261,-0.004840,0.009764,0.000229,0.009768,-0.004844,89.103298,0.009768,
870,60,0.127356,-19.879628,0.999997,0.000184,-0.000784,0.007058,0.001498,0.007334,-0.001060,79.542679,0.007928,
600,490,2.680406,-15.235414,0.999995,0.000256,-0.005046,0.010100,-0.000053,0.010100,-0.005047,-89.798672,0.010100,
570,1220,3.936635,-8.442794,0.999995,0.000277,-0.004535,0.009198,-0.000195,0.009201,-0.004537,-89.188257,0.009201,
1820,1220,-3.598236,-8.282305,0.999996,0.000232,-0.004778,0.009587,0.000722,0.009623,-0.004814,87.128635,0.009623,
1390,1570,-0.446475,-3.359224,0.999996,0.000239,-0.003457,0.008035,-0.001148,0.008148,-0.003571,-84.353040,0.008169,
660,600,2.704981,-14.296751,0.999996,0.000252,-0.005202,0.010284,0.000109,0.010284,-0.005203,89.595935,0.010285,
1890,1650,-2.560167,-4.154080,0.999995,0.000256,-0.004831,0.009831,-0.000115,0.009832,-0.004831,-89.548872,0.009832,
910,1450,1.324522,-5.076006,0.999995,0.000290,-0.005792,0.010414,0.001035,0.010480,-0.005858,86.361891,0.010504,
660,430,2.203785,-16.040103,0.999997,0.000193,-0.005056,0.010146,-0.000155,0.010147,-0.005058,-89.416374,0.010147,
1040,580,0.618047,-15.895090,0.999996,0.000253,-0.004440,0.008719,-0.001834,0.008969,-0.004691,-82.212612,0.008973,
1050,940,1.876468,-11.942892,0.999989,0.000409,-0.006534,0.015859,-0.004782,0.016838,-0.007512,-78.436182,0.016870,
1190,860,0.437114,-15.173081,0.999991,0.000000,-0.008574,0.003089,0.000220,0.003093,-0.008578,88.921422,0.008688,
1190,370,0.090537,-17.833463,0.999997,0.000202,-0.002156,0.007093,-0.000144,0.007095,-0.002158,-89.107905,0.007274,
740,1420,2.389983,-5.991618,0.999995,0.000266,-0.005544,0.010605,-0.000137,0.010607,-0.005545,-89.513762,0.010610,
1780,300,-1.678371,-17.430980,0.999996,0.000243,-0.004815,0.010075,-0.000233,0.010079,-0.004819,-89.102942,0.010082,
900,1070,2.865532,-9.606199,0.999997,0.000250,-0.003886,0.011294,-0.000848,0.011341,-0.003933,-86.814005,0.011517,
1010,600,0.774885,-15.579812,0.999996,0.000247,-0.005079,0.009419,-0.001889,0.009661,-0.005321,-82.698914,0.009677,
1110,1860,0.144921,-1.131204,0.999998,0.000175,-0.001299,0.006887,-0.000204,0.006892,-0.001304,-88.571005,0.007322,
1770,1380,-2.782604,-6.547643,0.999997,0.000242,-0.005331,0.010461,0.000398,0.010471,-0.005341,88.557894,0.010472,
1610,750,-2.115110,-13.223957,0.999996,0.000226,-0.006478,0.011678,-0.000386,0.011686,-0.006487,-88.783581,0.011710,
1220,1420,0.026481,-4.070648,0.999998,0.000159,-0.002311,0.005498,0.000375,0.005516,-0.002329,87.256626,0.005539,
1570,210,-0.560911,-18.738430,0.999996,0.000238,-0.002606,0.008254,-0.000822,0.008316,-0.002668,-85.697214,0.008492,
1480,1340,-1.108293,-5.918130,0.999994,0.000298,-0.006838,0.011302,-0.001853,0.011489,-0.007026,-84.228030,0.011584,
1870,1990,-0.630722,-0.601127,0.999993,0.000281,-0.003920,0.011617,0.003490,0.012365,-0.004668,77.902587,0.012488,
1290,1730,-0.113133,-2.014205,0.999998,0.000172,-0.001903,0.007119,-0.000011,0.007119,-0.001903,-89.929426,0.007372,
1860,960,-4.083353,-10.666531,0.999997,0.000220,-0.004255,0.008605,-0.000117,0.008606,-0.004256,-89.476714,0.008606,
1140,400,0.214481,-17.580412,0.999997,0.000210,-0.002583,0.007292,-0.000518,0.007319,-0.002610,-87.005765,0.007418,
1730,1810,-1.225388,-2.020388,0.999997,0.000214,-0.004118,0.009868,0.000940,0.009931,-0.004181,86.172596,0.009973,
920,1690,0.850154,-2.723064,0.999997,0.000213,-0.003455,0.008879,0.000077,0.008879,-0.003455,89.640861,0.008952,
1600,450,-1.259082,-16.485281,0.999996,0.000274,-0.004721,0.009778,0.000487,0.009794,-0.004737,88.078368,0.009796,
750,50,0.179806,-19.918724,0.999996,0.000235,-0.000517,0.007630,0.002562,0.008369,-0.001255,73.913779,0.009026,
870,1640,1.155069,-3.316784,0.999995,0.000243,-0.004290,0.009499,0.000345,0.009508,-0.004299,88.566062,0.009523,
1580,610,-1.493081,-14.919881,0.999994,0.000293,-0.005843,0.010584,0.000787,0.010621,-0.005881,87.264738,0.010642,
1880,530,-2.883798,-14.776724,0.999996,0.000211,-0.005051,0.010149,0.000016,0.010149,-0.005051,89.941445,0.010149,
930,1300,1.609204,-6.692047,0.999993,0.000300,-0.007203,0.012200,0.000525,0.012214,-0.007217,88.452254,0.012281,
850,60,0.140746,-19.878302,0.999997,0.000209,-0.000591,0.007152,0.001663,0.007494,-0.000933,78.380213,0.008168,
1190,820,0.178214,-15.288573,0.999992,0.000339,-0.004163,0.002842,-0.001755,0.003257,-0.004579,-76.691985,0.004713,
1340,630,-0.297673,-15.864261,0.999997,0.000228,-0.003579,0.007058,0.002180,0.007488,-0.004009,78.857042,0.007494,
590,1220,3.845235,-8.392002,0.999997,0.000196,-0.004557,0.009302,-0.000349,0.009310,-0.004565,-88.560076,0.009311,
1820,1230,-3.567361,-8.186826,0.999996,0.000238,-0.004813,0.009601,0.000693,0.009635,-0.004846,87.253704,0.009635,
1520,730,-1.427957,-13.839226,0.999995,0.000249,-0.007029,0.011787,0.000992,0.011839,-0.007081,86.990171,0.011915,
1690,1990,-0.229180,-0.341437,0.999997,0.000218,-0.001084,0.007674,0.002247,0.008217,-0.001627,76.419586,0.008702,
950,1410,1.168957,-5.321771,0.999996,0.000247,-0.006017,0.010595,0.001417,0.010715,-0.006137,85.159712,0.010753,
1860,210,-1.661669,-18.051605,0.999995,0.000253,-0.004877,0.010026,-0.000404,0.010037,-0.004888,-88.447216,0.010038,
590,1860,1.646438,-2.022384,0.999994,0.000269,-0.004933,0.009934,-0.000512,0.009951,-0.004950,-88.031132,0.009951,
1340,1800,-0.172258,-1.545353,0.999998,0.000188,-0.001817,0.007102,-0.000041,0.007102,-0.001817,-89.736274,0.007379,
1390,1550,-0.454887,-3.522218,0.999996,0.000220,-0.003515,0.008008,-0.001250,0.008142,-0.003649,-83.879890,0.008157,
1820,1200,-3.662157,-8.474742,0.999996,0.000227,-0.004738,0.009625,0.000779,0.009667,-0.004780,86.903425,0.009668,
660,580,2.643143,-14.503794,0.999996,0.000238,-0.005175,0.010286,0.000021,0.010286,-0.005175,89.923806,0.010286,
1180,2020,0.007543,-0.093992,0.999998,0.000000,-0.000017,0.005991,-0.000120,0.005993,-0.000019,-88.858919,0.006910,
1780,890,-3.579837,-11.394656,0.999994,0.000283,-0.004747,0.009793,-0.000874,0.009845,-0.004800,-86.571853,0.009846,
1110,860,0.828569,-14.026731,0.999987,0.000487,-0.004399,0.007156,-0.004130,0.008481,-0.005723,-72.220652,0.008652,
1190,350,0.085447,-17.976336,0.999997,0.000192,-0.002052,0.007068,-0.000139,0.007070,-0.002054,-89.126572,0.007274,
1880,1650,-2.511738,-4.120398,0.999995,0.000250,-0.004868,0.009892,-0.000123,0.009893,-0.004869,-89.522953,0.009893,
1780,280,-1.599748,-17.634914,0.999996,0.000240,-0.004765,0.010073,-0.000379,0.010083,-0.004775,-88.535937,0.010088,
1360,270,-0.219502,-18.494194,0.999998,0.000180,-0.001831,0.007241,-0.000042,0.007241,-0.001831,-89.735270,0.007530,
1130,1860,0.119395,-1.121825,0.999998,0.000173,-0.001356,0.006806,-0.000116,0.006807,-0.001358,-89.187130,0.007205,
1090,140,0.112719,-19.394744,0.999999,0.000121,-0.000780,0.006643,0.000370,0.006661,-0.000798,87.150608,0.007275,
640,430,2.302814,-15.973693,0.999997,0.000206,-0.005004,0.010118,-0.000138,0.010119,-0.005005,-89.477025,0.010119,
740,1400,2.454544,-6.205759,0.999995,0.000271,-0.005584,0.010634,-0.000244,0.010638,-0.005587,-89.137437,0.010642,
910,1430,1.368360,-5.286476,0.999994,0.000293,-0.005965,0.010706,0.000992,0.010765,-0.006023,86.607930,0.010791,
830,250,0.878729,-18.290051,0.999996,0.000236,-0.003166,0.009114,0.000843,0.009171,-0.003223,86.088884,0.009305,
1480,1320,-1.158625,-6.145205,0.999993,0.000321,-0.007128,0.011670,-0.001726,0.011827,-0.007285,-84.797440,0.011933,
750,40,0.123389,-19.996881,0.999998,0.000181,-0.000202,0.007608,0.002663,0.008430,-0.001024,72.853852,0.009200,
1040,600,0.630961,-15.717582,0.999995,0.000255,-0.004571,0.008857,-0.001956,0.009136,-0.004850,-81.879058,0.009142,
630,1060,3.997176,-9.786079,0.999997,0.000253,-0.004279,0.008969,-0.000251,0.008974,-0.004283,-88.915367,0.008977,
1430,1580,-0.577115,-3.384186,0.999997,0.000213,-0.003621,0.008370,-0.001018,0.008456,-0.003706,-85.183843,0.008477,
1860,940,-4.052384,-10.842312,0.999997,0.000207,-0.004273,0.008848,-0.000401,0.008860,-0.004285,-88.250725,0.008862,
1700,1310,-2.647367,-7.121382,0.999994,0.000290,-0.005774,0.010853,0.000760,0.010888,-0.005809,87.389396,0.010896,
1730,1790,-1.307251,-2.221184,0.999996,0.000249,-0.004243,0.009886,0.000740,0.009925,-0.004282,87.010435,0.009956,
1390,1530,-0.462898,-3.682703,0.999997,0.000213,-0.003589,0.007980,-0.001353,0.008136,-0.003745,-83.418403,0.008145,
1460,730,-1.007749,-14.204686,0.999996,0.000270,-0.006909,0.011284,0.002222,0.011552,-0.007177,83.136355,0.011665,
1440,580,-0.693811,-15.828026,0.999995,0.000249,-0.004611,0.008977,0.001752,0.009200,-0.004833,82.770149,0.009204,
750,1880,0.847968,-1.313264,0.999996,0.000215,-0.002997,0.009360,-0.001802,0.009617,-0.003254,-81.871560,0.009783,
1570,190,-0.501537,-18.905944,0.999997,0.000234,-0.002372,0.008103,-0.000941,0.008187,-0.002456,-84.906698,0.008403,
1750,1380,-2.673517,-6.493618,0.999995,0.000302,-0.005486,0.010555,0.000418,0.010566,-0.005497,88.508031,0.010569,
580,1220,3.890810,-8.416417,0.999997,0.000205,-0.004535,0.009248,-0.000254,0.009252,-0.004540,-88.943429,0.009253,
1140,380,0.205135,-17.726491,0.999997,0.000191,-0.002506,0.007341,-0.000433,0.007360,-0.002525,-87.489190,0.007480,
1340,1780,-0.186280,-1.687832,0.999997,0.000197,-0.001988,0.007189,-0.000068,0.007189,-0.001988,-89.577263,0.007424,
1820,1180,-3.725602,-8.670975,0.999996,0.000239,-0.004626,0.009522,0.000719,0.009558,-0.004663,87.097415,0.009559,
1220,1620,0.029305,-2.770975,0.999997,0.000194,-0.002417,0.007033,0.000162,0.007036,-0.002419,89.019826,0.007149,
1610,770,-2.195847,-12.988921,0.999995,0.000256,-0.006494,0.011707,-0.000575,0.011725,-0.006512,-88.191099,0.011749,
1440,510,-0.643964,-16.441445,0.999995,0.000242,-0.004143,0.008677,0.001329,0.008813,-0.004279,84.141604,0.008815,
1180,1190,0.573296,-5.082601,0.999981,0.000000,-0.007083,0.002248,0.000045,0.002248,-0.007083,89.721548,0.007239,
940,770,1.595591,-13.336294,0.999993,0.000288,-0.007329,0.012431,-0.000549,0.012446,-0.007344,-88.408729,0.012513,
1290,1750,-0.109450,-1.869692,0.999998,0.000156,-0.001777,0.007068,-0.000013,0.007068,-0.001777,-89.918543,0.007353,
1340,1250,-0.414216,-5.528914,0.999994,0.000312,-0.005312,0.007154,-0.004516,0.008618,-0.006776,-72.037437,0.009076,
710,1260,3.125933,-7.763064,0.999997,0.000227,-0.005205,0.010321,-0.000926,0.010376,-0.005260,-86.599097,0.010376,
1010,620,0.795844,-15.386763,0.999996,0.000254,-0.005257,0.009555,-0.002016,0.009824,-0.005526,-82.386923,0.009850,
640,950,3.909883,-10.787298,0.999995,0.000276,-0.004423,0.009192,0.000478,0.009208,-0.004439,87.992584,0.009210,
1570,60,-0.112109,-19.885877,0.999997,0.000187,-0.000649,0.006926,-0.001321,0.007150,-0.000873,-80.384560,0.007801,
1870,1650,-2.463027,-4.087826,0.999995,0.000272,-0.004923,0.009932,-0.000124,0.009933,-0.004924,-89.523609,0.009934,
660,560,2.583670,-14.708798,0.999995,0.000259,-0.005176,0.010254,-0.000026,0.010254,-0.005176,-89.904083,0.010254,
1340,610,-0.295677,-16.006736,0.999997,0.000205,-0.003472,0.007142,0.001948,0.007488,-0.003818,79.923519,0.007489,
1600,430,-1.217061,-16.680259,0.999995,0.000236,-0.004510,0.009641,0.000420,0.009654,-0.004522,88.302743,0.009660,
1690,1970,-0.336471,-0.502968,0.999996,0.000242,-0.001442,0.007912,0.002214,0.008410,-0.001940,77.333803,0.008807,
950,1390,1.210584,-5.541819,0.999995,0.000255,-0.006272,0.010936,0.001421,0.011052,-0.006389,85.309632,0.011097,
730,1700,1.633153,-3.130753,0.999996,0.000227,-0.004843,0.009996,-0.000060,0.009996,-0.004844,-89.767772,0.009998,
1190,330,0.084011,-18.116899,0.999998,0.000167,-0.001958,0.007103,-0.000083,0.007104,-0.001958,-89.477670,0.007338,
750,1000,3.482921,-10.352287,0.999996,0.000250,-0.004274,0.009832,0.000345,0.009841,-0.004282,88.600965,0.009868,
840,750,2.198297,-13.183971,0.999995,0.000291,-0.006393,0.011543,0.000498,0.011557,-0.006406,88.411750,0.011580,
1250,1860,-0.022599,-1.101428,0.999998,0.000170,-0.001178,0.006630,0.000004,0.006630,-0.001178,89.969115,0.007075,
1780,130,-0.828262,-19.140882,0.999995,0.000268,-0.003595,0.009788,-0.002360,0.010192,-0.003999,-80.285218,0.010270,
910,1410,1.412483,-5.507886,0.999995,0.000295,-0.006116,0.010942,0.000953,0.010995,-0.006169,86.811252,0.011022,
1760,310,-1.615634,-17.395724,0.999996,0.000240,-0.004827,0.010033,-0.000158,0.010035,-0.004829,-89.390837,0.010037,
740,1380,2.521473,-6.420267,0.999994,0.000275,-0.005633,0.010688,-0.000378,0.010697,-0.005642,-88.675038,0.010702,
1780,260,-1.520141,-17.834231,0.999996,0.000256,-0.004713,0.010064,-0.000567,0.010085,-0.004734,-87.803874,0.010092,
700,290,1.558096,-17.588003,0.999997,0.000232,-0.004796,0.010072,0.000293,0.010078,-0.004802,88.870999,0.010082,
1040,620,0.641434,-15.545276,0.999994,0.000269,-0.004812,0.008935,-0.002160,0.009266,-0.005143,-81.276225,0.009285,
1400,1310,-0.638239,-5.638081,0.999993,0.000301,-0.006328,0.009901,-0.003509,0.010627,-0.007054,-78.307643,0.010815,
1480,1300,-1.222674,-6.385016,0.999993,0.000322,-0.007358,0.012030,-0.001592,0.012160,-0.007488,-85.337406,0.012268,
1390,1510,-0.469178,-3.840425,0.999997,0.000216,-0.003668,0.008011,-0.001493,0.008199,-0.003856,-82.831200,0.008204,
1450,580,-0.742713,-15.782268,0.999996,0.000224,-0.004788,0.009151,0.001750,0.009368,-0.005004,82.950819,0.009375,
1340,1760,-0.202049,-1.832978,0.999997,0.000206,-0.002093,0.007185,-0.000134,0.007186,-0.002095,-89.174808,0.007392,
1140,360,0.196289,-17.876393,0.999997,0.000207,-0.002378,0.007311,-0.000328,0.007322,-0.002389,-88.065870,0.007468,
750,1860,0.939822,-1.501777,0.999996,0.000234,-0.003285,0.009547,-0.001563,0.009735,-0.003472,-83.153192,0.009867,
1290,1770,-0.101481,-1.728529,0.999998,0.000152,-0.001651,0.007029,0.000057,0.007029,-0.001651,89.622663,0.007351,
1220,500,0.028325,-16.937604,0.999998,0.000166,-0.002542,0.006786,-0.000227,0.006792,-0.002548,-88.609480,0.006862,
1570,170,-0.441714,-19.063506,0.999997,0.000226,-0.002162,0.007880,-0.001053,0.007990,-0.002271,-84.079409,0.008234,
1610,1210,-2.531154,-8.060902,0.999994,0.000277,-0.005962,0.011668,0.001232,0.011753,-0.006048,86.021204,0.011755,
1600,1590,-1.291013,-3.823914,0.999997,0.000253,-0.004830,0.009821,-0.000527,0.009840,-0.004849,-87.940830,0.009840,
1390,920,-1.594423,-12.712473,0.999983,0.000453,-0.004561,0.012845,0.006906,0.015252,-0.006968,70.784023,0.015271,
640,1410,2.955410,-6.385357,0.999997,0.000218,-0.005108,0.010225,-0.000227,0.010228,-0.005111,-89.151415,0.010228,
660,540,2.524689,-14.914856,0.999995,0.000279,-0.005173,0.010224,-0.000069,0.010224,-0.005174,-89.744739,0.010224,
940,1070,2.705840,-9.566068,0.999997,0.000224,-0.003939,0.012254,-0.000834,0.012297,-0.003981,-87.059753,0.012549,
570,1920,1.353995,-1.502614,0.999918,0.001099,-0.005177,0.010193,-0.001966,0.010440,-0.005424,-82.826306,0.010443,
830,230,0.810045,-18.473258,0.999997,0.000229,-0.002929,0.008970,0.001003,0.009054,-0.003013,85.215775,0.009222,
1820,1160,-3.777362,-8.856689,0.999995,0.000257,-0.004508,0.009300,0.000560,0.009322,-0.004531,87.681767,0.009324,
1110,440,0.309041,-17.233777,0.999998,0.000219,-0.002726,0.007521,-0.000608,0.007557,-0.002762,-86.615637,0.007647,
590,700,3.395602,-13.068938,0.999995,0.000286,-0.005158,0.009815,0.000325,0.009822,-0.005165,88.758613,0.009827,
1180,860,0.513983,-15.085476,0.999990,0.000000,-0.007234,0.002807,-0.000122,0.002808,-0.007236,-89.306028,0.007296,
690,1260,3.229278,-7.800056,0.999997,0.000220,-0.005132,0.010210,-0.000902,0.010263,-0.005184,-86.646250,0.010264,
1000,1010,2.519315,-10.346338,0.999990,0.000402,-0.005028,0.015661,-0.000035,0.015661,-0.005028,-89.903709,0.015992,
1190,310,0.079718,-18.260091,0.999998,0.000163,-0.001840,0.007049,-0.000064,0.007049,-0.001841,-89.589665,0.007313,
1550,60,-0.102232,-19.888831,0.999998,0.000193,-0.000361,0.006794,-0.001205,0.006992,-0.000558,-80.694796,0.007771,
1070,140,0.128303,-19.388985,0.999998,0.000127,-0.000899,0.006728,0.000423,0.006751,-0.000922,86.832716,0.007322,
1730,1770,-1.382638,-2.420436,0.999997,0.000238,-0.004358,0.009955,0.000535,0.009975,-0.004378,87.862121,0.010000,
1760,130,-0.751455,-19.185547,0.999997,0.000210,-0.003759,0.009443,-0.002095,0.009768,-0.004084,-81.197808,0.009811,
1860,1830,-1.741209,-2.261695,0.999996,0.000263,-0.004917,0.010004,0.000323,0.010011,-0.004924,88.758995,0.010011,
1690,1950,-0.426777,-0.660080,0.999995,0.000269,-0.001851,0.008401,0.002238,0.008868,-0.002318,78.207784,0.009199,
950,1370,1.255291,-5.763415,0.999996,0.000244,-0.006522,0.011187,0.001364,0.011291,-0.006626,85.621774,0.011348,
740,1360,2.592885,-6.634125,0.999994,0.000294,-0.005657,0.010736,-0.000482,0.010750,-0.005671,-88.316972,0.010756,
820,1930,0.427284,-0.793466,0.999997,0.000221,-0.001757,0.008105,-0.001743,0.008404,-0.002056,-80.265343,0.008762,
1780,240,-1.433049,-18.038321,0.999995,0.000266,-0.004654,0.010063,-0.000735,0.010100,-0.004690,-87.149537,0.010108,
1720,1310,-2.760069,-7.165306,0.999995,0.000275,-0.005604,0.010684,0.000786,0.010722,-0.005642,87.241967,0.010727,
1740,270,-1.370586,-17.862072,0.999996,0.000251,-0.004478,0.009938,-0.000592,0.009962,-0.004502,-87.651302,0.009977,
1820,1140,-3.820481,-9.042902,0.999996,0.000258,-0.004462,0.009253,0.000582,0.009277,-0.004487,87.574676,0.009279,
1440,1570,-0.622179,-3.498085,0.999996,0.000225,-0.003918,0.008561,-0.001154,0.008667,-0.004024,-84.762501,0.008674,
910,1390,1.462054,-5.729579,0.999994,0.000308,-0.006337,0.011142,0.000869,0.011185,-0.006380,87.159696,0.011222,
1710,1840,-1.024951,-1.691586,0.999997,0.000202,-0.003530,0.009612,0.001324,0.009744,-0.003663,84.303972,0.009844,
1190,290,0.075926,-18.399994,0.999998,0.000166,-0.001721,0.006990,0.000001,0.006990,-0.001721,89.995930,0.007284,
620,1410,3.058356,-6.444223,0.999997,0.000192,-0.005083,0.010152,-0.000185,0.010154,-0.005085,-89.304247,0.010154,
1190,780,0.101577,-15.396176,0.999998,0.000213,-0.002768,0.003201,-0.002342,0.004011,-0.003577,-70.935505,0.004402,
570,1450,3.172678,-6.195465,0.999972,0.000631,-0.004614,0.010178,0.000013,0.010178,-0.004614,89.950592,0.010193,
1040,640,0.652625,-15.365914,0.999994,0.000291,-0.005093,0.009107,-0.002364,0.009490,-0.005476,-80.793150,0.009528,
1380,810,-0.683081,-14.075519,0.999991,0.000370,-0.006822,0.010193,0.004171,0.011160,-0.007789,76.942537,0.011448,
860,190,0.587955,-18.862521,0.999997,0.000227,-0.002582,0.008413,0.001066,0.008515,-0.002684,84.510389,0.008707,
1860,920,-4.008060,-11.024611,0.999998,0.000184,-0.004312,0.008937,-0.000443,0.008952,-0.004327,-88.087365,0.008954,
1440,1320,-0.880359,-5.863043,0.999996,0.000241,-0.006782,0.010964,-0.002635,0.011347,-0.007165,-81.731352,0.011477,
1730,580,-2.257588,-14.729293,0.999994,0.000272,-0.005420,0.010451,0.000059,0.010452,-0.005421,89.788156,0.010454,
1440,690,-0.799984,-14.774005,0.999993,0.000344,-0.006063,0.010176,0.002539,0.010564,-0.006451,81.316337,0.010650,
900,330,0.846526,-17.712731,0.999996,0.000233,-0.003630,0.008968,-0.000002,0.008968,-0.003630,-89.992729,0.009022,
1340,1740,-0.211952,-1.975562,0.999998,0.000169,-0.002222,0.007282,-0.000196,0.007286,-0.002226,-88.817808,0.007468,
830,1620,1.383103,-3.630827,0.999996,0.000235,-0.004751,0.009877,0.000354,0.009886,-0.004760,88.612830,0.009888,
1140,340,0.186536,-18.020425,0.999997,0.000194,-0.002261,0.007204,-0.000269,0.007211,-0.002269,-88.374875,0.007375,
1900,1990,-0.759169,-0.701716,0.999993,0.000000,-0.003108,0.013485,0.004978,0.014864,-0.004487,74.518861,0.015248,
1880,720,-3.498794,-12.850534,0.999996,0.000247,-0.004879,0.009753,-0.000199,0.009756,-0.004881,-89.222413,0.009756,
1860,1810,-1.832757,-2.458825,0.999997,0.000248,-0.004910,0.009920,0.000180,0.009923,-0.004913,89.303950,0.009923,
1770,1440,-2.580499,-5.921585,0.999994,0.000290,-0.005342,0.010371,0.000130,0.010372,-0.005344,89.527036,0.010374,
1640,40,-0.082362,-20.014625,0.999998,0.000170,-0.000282,0.006988,-0.001854,0.007433,-0.000728,-76.487848,0.008195,
660,520,2.464107,-15.120086,0.999996,0.000278,-0.005188,0.010214,-0.000113,0.010215,-0.005189,-89.579024,0.010215,
1180,30,0.003474,-20.097166,0.999999,0.000000,0.000022,0.005993,0.000142,0.005996,0.000019,88.637399,0.006935,
1520,340,-0.727617,-17.704195,0.999998,0.000210,-0.003306,0.008766,0.000056,0.008766,-0.003306,89.732861,0.008854,
1830,300,-1.917053,-17.262829,0.999997,0.000197,-0.004868,0.010080,-0.000109,0.010081,-0.004869,-89.582138,0.010082,
1130,440,0.255047,-17.266929,0.999997,0.000202,-0.002730,0.007417,-0.000652,0.007458,-0.002772,-86.337622,0.007540,
1080,1900,0.135708,-0.868745,0.999998,0.000182,-0.000892,0.006795,-0.000401,0.006816,-0.000913,-87.020744,0.007400,
920,1070,2.786444,-9.589683,0.999996,0.000242,-0.003904,0.011703,-0.000886,0.011753,-0.003954,-86.761705,0.011961,
1340,1770,-0.194681,-1.761000,0.999997,0.000231,-0.002043,0.007200,-0.000102,0.007201,-0.002044,-89.370127,0.007422,
640,1590,2.405291,-4.542452,0.999995,0.000269,-0.005064,0.010154,0.000133,0.010155,-0.005065,89.498277,0.010155,
1690,1930,-0.542948,-0.840620,0.999996,0.000232,-0.002267,0.008582,0.002077,0.008967,-0.002651,79.522052,0.009213,
1460,1310,-1.046454,-6.128130,0.999994,0.000285,-0.007152,0.011579,-0.002156,0.011824,-0.007397,-83.517950,0.011948,
1080,1130,1.608583,-7.344958,0.999982,0.000458,-0.004210,0.013097,0.007666,0.016004,-0.007117,69.232480,0.016037,
620,240,1.727483,-17.822657,0.999997,0.000229,-0.004850,0.010015,0.000254,0.010019,-0.004854,89.020503,0.010021,
830,210,0.740660,-18.650269,0.999997,0.000219,-0.002749,0.008815,0.001199,0.008938,-0.002872,84.140017,0.009126,
1300,260,-0.109777,-18.604683,0.999997,0.000182,-0.001549,0.006962,-0.000065,0.006963,-0.001549,-89.563858,0.007312,
1820,1120,-3.865344,-9.229885,0.999996,0.000238,-0.004460,0.009301,0.000636,0.009330,-0.004489,87.361095,0.009333,
990,1710,0.580846,-2.395543,0.999997,0.000218,-0.002931,0.008257,0.000198,0.008261,-0.002934,88.986210,0.008376,
1470,1620,-0.688886,-3.156856,0.999996,0.000243,-0.003833,0.008675,-0.000802,0.008726,-0.003884,-86.347586,0.008743,
910,1370,1.520680,-5.957949,0.999994,0.000320,-0.006543,0.011322,0.000779,0.011356,-0.006577,87.507433,0.011404,
1720,1850,-1.011238,-1.609617,0.999998,0.000156,-0.003491,0.009706,0.001452,0.009864,-0.003649,83.793239,0.009975,
1040,370,0.464619,-17.650307,0.999997,0.000244,-0.003008,0.008112,-0.000440,0.008129,-0.003025,-87.737061,0.008217,
600,1450,3.029626,-6.096650,0.999995,0.000290,-0.005067,0.010129,-0.000059,0.010129,-0.005067,-89.778446,0.010129,
1230,1370,0.002843,-4.312057,0.999997,0.000204,-0.002071,0.004568,0.000082,0.004569,-0.002072,89.294553,0.004576,
1450,560,-0.724756,-15.963421,0.999996,0.000223,-0.004528,0.009002,0.001553,0.009178,-0.004704,83.536447,0.009179,
1850,800,-3.629760,-12.149175,0.999995,0.000242,-0.004770,0.009539,-0.000508,0.009557,-0.004788,-87.967993,0.009557,
700,1040,3.709268,-9.959298,0.999997,0.000211,-0.004302,0.009516,-0.000234,0.009520,-0.004306,-89.029998,0.009535,
1610,1190,-2.622176,-8.292753,0.999995,0.000269,-0.005701,0.011575,0.001380,0.011685,-0.005811,85.461316,0.011685,
1280,1390,-0.110076,-4.290928,0.999997,0.000206,-0.002578,0.005462,-0.001509,0.005736,-0.002852,-79.710405,0.005736,
920,770,1.740011,-13.236438,0.999995,0.000249,-0.007136,0.012323,-0.000142,0.012324,-0.007137,-89.582750,0.012375,
1040,1240,1.028977,-6.644936,0.999994,0.000303,-0.007787,0.012129,0.002635,0.012472,-0.008129,82.589916,0.012662,
1190,270,0.067228,-18.541524,0.999998,0.000182,-0.001605,0.006979,-0.000014,0.006979,-0.001605,-89.908649,0.007311,
1550,240,-0.593925,-18.513645,0.999996,0.000241,-0.002475,0.008400,-0.000698,0.008444,-0.002520,-86.344728,0.008670,
1820,1990,-0.412390,-0.422111,0.999988,0.000399,-0.002784,0.009867,0.003330,0.010690,-0.003607,76.119316,0.010877,
1780,220,-1.338605,-18.240176,0.999996,0.000242,-0.004551,0.010044,-0.000967,0.010108,-0.004615,-86.225940,0.010120,
1140,270,0.151149,-18.523658,0.999997,0.000187,-0.001851,0.007091,-0.000049,0.007092,-0.001851,-89.686809,0.007357,
1900,1980,-0.862535,-0.830607,0.999995,0.000000,-0.003918,0.012808,0.003682,0.013582,-0.004693,78.118464,0.013797,
1440,1280,-0.991514,-6.320563,0.999995,0.000249,-0.007474,0.011891,-0.002550,0.012221,-0.007805,-82.622571,0.012377,
1630,220,-0.768128,-18.567334,0.999996,0.000223,-0.002845,0.008845,-0.001037,0.008936,-0.002936,-84.971506,0.009110,
1840,1830,-1.641916,-2.175527,0.999997,0.000216,-0.004858,0.010127,0.000405,0.010138,-0.004869,88.452863,0.010141,
1860,900,-3.964136,-11.201590,0.999997,0.000189,-0.004325,0.008854,-0.000357,0.008864,-0.004334,-88.450669,0.008864,
1340,1720,-0.226488,-2.125646,0.999998,0.000182,-0.002318,0.007289,-0.000281,0.007297,-0.002327,-88.327980,0.007455,
1140,320,0.178421,-18.165433,0.999998,0.000166,-0.002141,0.007227,-0.000192,0.007231,-0.002145,-88.824764,0.007427,
1360,1370,-0.372883,-4.806605,0.999996,0.000287,-0.004384,0.007657,-0.003045,0.008383,-0.005110,-76.584783,0.008450,
780,870,3.035904,-11.705102,0.999996,0.000268,-0.005181,0.010661,0.001211,0.010754,-0.005273,85.653648,0.010754,
630,1700,2.121410,-3.458523,0.999996,0.000231,-0.004886,0.010044,0.000025,0.010044,-0.004886,89.903653,0.010045,
1610,460,-1.329680,-16.352980,0.999996,0.000280,-0.004816,0.009891,0.000472,0.009906,-0.004831,88.165188,0.009907,
1870,920,-4.051110,-11.009432,0.999998,0.000170,-0.004304,0.008836,-0.000392,0.008848,-0.004316,-88.293372,0.008849,
1460,790,-1.202434,-13.485437,0.999994,0.000303,-0.007689,0.012441,0.001770,0.012596,-0.007843,85.012258,0.012722,
1420,910,-1.684789,-12.287885,0.999992,0.000288,-0.006623,0.014147,0.002864,0.014535,-0.007010,82.291287,0.014538,
1440,710,-0.833025,-14.565340,0.999994,0.000300,-0.006386,0.010533,0.002594,0.010922,-0.006775,81.475182,0.011027,
1690,1910,-0.629311,-1.005220,0.999996,0.000217,-0.002714,0.008768,0.001850,0.009059,-0.003004,81.066715,0.009228,
1730,1750,-1.455875,-2.621622,0.999996,0.000243,-0.004459,0.009932,0.000370,0.009942,-0.004469,88.527909,0.009959,
1880,150,-1.403770,-18.561506,0.999995,0.000266,-0.004872,0.010309,-0.000994,0.010374,-0.004937,-86.267971,0.010378,
1270,720,-0.077965,-15.630494,0.999995,0.000256,-0.002322,0.004286,0.001697,0.004697,-0.002732,76.405743,0.004717,
1300,240,-0.097638,-18.743056,0.999998,0.000169,-0.001401,0.006888,-0.000116,0.006889,-0.001402,-89.200676,0.007282,
840,2000,0.131676,-0.248851,0.999998,0.000184,-0.000412,0.007087,-0.001708,0.007458,-0.000782,-77.754088,0.008197,
1050,1110,1.912990,-8.297700,0.999982,0.000544,-0.006820,0.016398,0.004995,0.017427,-0.007849,78.360364,0.017455,
1820,1100,-3.907513,-9.418184,0.999997,0.000219,-0.004382,0.009200,0.000409,0.009212,-0.004394,88.278430,0.009215,
990,1690,0.604569,-2.560865,0.999997,0.000230,-0.003121,0.008361,0.000330,0.008371,-0.003131,88.353135,0.008459,
910,1350,1.575170,-6.184574,0.999994,0.000316,-0.006736,0.011576,0.000673,0.011601,-0.006761,87.897708,0.011654,
1230,1410,0.000439,-4.117625,0.999998,0.000166,-0.002249,0.005341,0.000059,0.005341,-0.002250,89.553640,0.005363,
1010,1660,0.583145,-2.773758,0.999995,0.000247,-0.003157,0.008275,0.000459,0.008294,-0.003175,87.704065,0.008369,
1890,1420,-3.261575,-6.487784,0.999996,0.000235,-0.005053,0.010106,0.000120,0.010107,-0.005054,89.546028,0.010107,
1020,370,0.523799,-17.611720,0.999997,0.000223,-0.002979,0.008204,-0.000342,0.008214,-0.002990,-88.248508,0.008315,
1080,1880,0.162124,-1.007410,0.999998,0.000197,-0.001066,0.006839,-0.000361,0.006855,-0.001083,-87.390896,0.007370,
780,1070,3.343290,-9.653092,0.999995,0.000283,-0.004221,0.010051,-0.000449,0.010065,-0.004235,-88.201070,0.010107,
1490,1380,-1.083958,-5.529468,0.999995,0.000251,-0.006314,0.010824,-0.001742,0.010999,-0.006490,-84.253172,0.011059,
1400,1770,-0.309752,-1.811835,0.999997,0.000224,-0.002176,0.007515,0.000014,0.007515,-0.002176,89.914346,0.007733,
1190,250,0.067869,-18.680508,0.999997,0.000201,-0.001479,0.006899,0.000012,0.006899,-0.001479,89.916082,0.007265,
820,470,1.511013,-16.148504,0.999996,0.000233,-0.004937,0.010027,-0.000403,0.010038,-0.004948,-88.458807,0.010039,
870,1340,1.874364,-6.466498,0.999997,0.000194,-0.006528,0.011606,0.000080,0.011606,-0.006528,89.747725,0.011637,
1780,200,-1.239365,-18.441975,0.999996,0.000231,-0.004453,0.010132,-0.001179,0.010227,-0.004548,-85.406454,0.010248,
1900,1970,-0.961840,-0.959344,0.999994,0.000000,-0.004384,0.012641,0.002996,0.013152,-0.004895,80.305939,0.013295,
720,950,3.548785,-10.836980,0.999995,0.000270,-0.004491,0.009869,0.000806,0.009914,-0.004536,86.798252,0.009926,
700,1020,3.714394,-10.151894,0.999997,0.000206,-0.004297,0.009593,0.000152,0.009595,-0.004298,89.371163,0.009612,
1040,1220,1.133121,-6.898279,0.999991,0.000365,-0.007756,0.012534,0.002478,0.012832,-0.008055,83.136440,0.012971,
900,470,1.127470,-16.405163,0.999997,0.000198,-0.004548,0.009582,-0.000660,0.009612,-0.004578,-87.332264,0.009616,
1680,1890,-0.699332,-1.179268,0.999997,0.000217,-0.003059,0.008872,0.001614,0.009087,-0.003273,82.431600,0.009204,
1010,1400,0.832277,-5.111331,0.999995,0.000261,-0.005689,0.009936,0.002164,0.010230,-0.005984,82.257685,0.010279,
1860,880,-3.920442,-11.378520,0.999997,0.000210,-0.004412,0.008993,-0.000362,0.009003,-0.004422,-88.454170,0.009004,
1440,1260,-1.066970,-6.569515,0.999995,0.000258,-0.007679,0.012172,-0.002390,0.012455,-0.007962,-83.230846,0.012615,
830,190,0.663193,-18.828470,0.999997,0.000214,-0.002465,0.008640,0.001297,0.008789,-0.002614,83.426241,0.009026,
930,1980,0.133488,-0.372785,0.999998,0.000165,-0.000604,0.006911,-0.001145,0.007081,-0.000775,-81.524719,0.007768,
1340,1700,-0.235655,-2.268621,0.999997,0.000206,-0.002435,0.007384,-0.000363,0.007397,-0.002448,-87.885720,0.007537,
1870,910,-4.029551,-11.097459,0.999997,0.000180,-0.004302,0.008794,-0.000348,0.008803,-0.004311,-88.481041,0.008804,
1730,1730,-1.523736,-2.820049,0.999996,0.000246,-0.004622,0.009925,0.000195,0.009927,-0.004624,89.232873,0.009935,
1610,1170,-2.712557,-8.524939,0.999995,0.000258,-0.005390,0.011474,0.001449,0.011597,-0.005513,85.124412,0.011602,
1880,1760,-2.138504,-3.033381,0.999997,0.000231,-0.004851,0.009717,0.000009,0.009717,-0.004851,89.963201,0.009717,
570,620,3.227424,-13.814803,0.999944,0.000913,-0.004560,0.010565,-0.000042,0.010565,-0.004560,-89.841076,0.010598,
1710,600,-2.207542,-14.578517,0.999996,0.000234,-0.005536,0.010574,0.000040,0.010574,-0.005536,89.857679,0.010578,
1170,440,0.148721,-17.321103,0.999998,0.000156,-0.002488,0.007156,-0.000310,0.007166,-0.002498,-88.162022,0.007274,
1690,1890,-0.732090,-1.193393,0.999997,0.000213,-0.003023,0.008994,0.001726,0.009237,-0.003266,81.987943,0.009368,
620,220,1.631057,-18.022271,0.999996,0.000244,-0.004872,0.010156,0.000386,0.010166,-0.004882,88.528348,0.010169,
1420,1690,-0.450251,-2.463319,0.999997,0.000240,-0.003033,0.008068,-0.000409,0.008083,-0.003048,-87.893849,0.008164,
1330,140,-0.074763,-19.408009,0.999999,0.000130,-0.000926,0.006567,-0.000192,0.006572,-0.000931,-88.535927,0.007113,
1300,220,-0.091147,-18.880787,0.999997,0.000197,-0.001273,0.006798,-0.000121,0.006800,-0.001275,-89.141112,0.007229,
760,870,3.138781,-11.681110,0.999997,0.000205,-0.005057,0.010433,0.001177,0.010522,-0.005146,85.679715,0.010522,
680,250,1.489488,-17.927278,0.999994,0.000300,-0.004682,0.010087,0.000656,0.010117,-0.004711,87.463611,0.010124,
970,500,0.854656,-16.355365,0.999996,0.000265,-0.004401,0.009232,-0.001088,0.009318,-0.004487,-85.463804,0.009320,
1240,1300,-0.017940,-4.581818,0.999997,0.000185,-0.002050,0.002901,-0.000419,0.002936,-0.002085,-85.199991,0.003022,
990,1670,0.633302,-2.729996,0.999997,0.000223,-0.003360,0.008484,0.000442,0.008500,-0.003376,87.865656,0.008560,
900,830,2.159596,-12.409538,0.999995,0.000268,-0.006694,0.012408,0.000850,0.012445,-0.006731,87.455881,0.012459,
690,1660,1.952801,-3.665589,0.999996,0.000244,-0.004913,0.010122,0.000098,0.010122,-0.004913,89.624773,0.010124,
910,1330,1.642424,-6.421888,0.999996,0.000291,-0.006898,0.011851,0.000517,0.011865,-0.006912,88.422013,0.011919,
1900,1960,-1.055838,-1.089076,0.999992,0.000000,-0.004524,0.012208,0.002626,0.012610,-0.004927,81.287697,0.012710,
1380,370,-0.342782,-17.727725,0.999997,0.000206,-0.002498,0.007641,0.000286,0.007649,-0.002506,88.385514,0.007799,
1490,1360,-1.127312,-5.748538,0.999994,0.000283,-0.006578,0.011091,-0.001711,0.011255,-0.006742,-84.518615,0.011329,
1190,230,0.056557,-18.818199,0.999998,0.000187,-0.001357,0.006799,0.000031,0.006799,-0.001357,89.780160,0.007196,
1080,1860,0.182182,-1.145144,0.999998,0.000187,-0.001216,0.006994,-0.000332,0.007008,-0.001230,-87.684968,0.007484,
1820,340,-2.007566,-16.897820,0.999996,0.000256,-0.004933,0.010033,0.000012,0.010033,-0.004933,89.955844,0.010034,
700,1000,3.697949,-10.344321,0.999996,0.000222,-0.004316,0.009584,0.000310,0.009591,-0.004322,88.721994,0.009606,
1890,1310,-3.632580,-7.585281,0.999995,0.000248,-0.004846,0.009749,0.000184,0.009752,-0.004848,89.275896,0.009752,
820,1070,3.180276,-9.642003,0.999997,0.000187,-0.004094,0.010307,-0.000582,0.010331,-0.004118,-87.688484,0.010401,
880,1770,0.812459,-2.091268,0.999997,0.000202,-0.003557,0.008864,-0.000326,0.008873,-0.003566,-88.499741,0.008929,
1810,320,-1.892671,-17.132763,0.999997,0.000198,-0.004867,0.009997,-0.000089,0.009998,-0.004867,-89.658519,0.009999,
1140,300,0.166824,-18.309584,0.999998,0.000166,-0.002047,0.007168,-0.000148,0.007171,-0.002050,-89.080267,0.007387,
1780,180,-1.132929,-18.646057,0.999996,0.000236,-0.004241,0.009998,-0.001487,0.010152,-0.004395,-84.101115,0.010182,
700,950,3.639547,-10.826591,0.999996,0.000234,-0.004499,0.009725,0.000726,0.009762,-0.004535,87.087025,0.009770,
820,450,1.464897,-16.349542,0.999996,0.000239,-0.004799,0.009971,-0.000353,0.009979,-0.004807,-88.632619,0.009981,
960,1450,1.043733,-4.862430,0.999996,0.000252,-0.005520,0.010085,0.001501,0.010228,-0.005663,84.556275,0.010247,
1660,1890,-0.635523,-1.147306,0.999998,0.000164,-0.002846,0.008662,0.001488,0.008851,-0.003036,82.750332,0.008996,
1440,1240,-1.159106,-6.809847,0.999994,0.000291,-0.007828,0.012462,-0.002152,0.012687,-0.008054,-84.010955,0.012840,
1860,860,-3.865050,-11.563058,0.999997,0.000213,-0.004533,0.009312,-0.000497,0.009330,-0.004551,-87.946001,0.009331,
910,340,0.832668,-17.642097,0.999996,0.000221,-0.003467,0.008990,0.000036,0.008990,-0.003467,89.832559,0.009069,
1040,1200,1.262124,-7.157140,0.999990,0.000370,-0.007453,0.013043,0.002384,0.013317,-0.007727,83.451063,0.013374,
1340,1680,-0.248086,-2.421313,0.999997,0.000218,-0.002526,0.007497,-0.000419,0.007515,-0.002544,-87.609968,0.007645,
1870,900,-4.006987,-11.184666,0.999998,0.000166,-0.004300,0.008752,-0.000305,0.008759,-0.004307,-88.660665,0.008759,
1710,1960,-0.412112,-0.592643,0.999997,0.000215,-0.001407,0.008206,0.002374,0.008760,-0.001961,76.859687,0.009194,
1080,1160,1.331531,-7.009205,0.999993,0.000273,-0.004774,0.010270,0.005372,0.011991,-0.006495,72.234501,0.012005,
1760,610,-2.511446,-14.321189,0.999995,0.000257,-0.005359,0.010451,-0.000077,0.010452,-0.005360,-89.720257,0.010453,
570,680,3.425463,-13.197800,0.999393,0.002780,-0.005234,0.009879,0.000446,0.009893,-0.005247,88.310317,0.009899,
1880,1790,-2.019732,-2.741882,0.999997,0.000234,-0.004869,0.009778,0.000078,0.009779,-0.004869,89.694282,0.009779,
730,1400,2.509509,-6.234380,0.999996,0.000233,-0.005550,0.010578,-0.000266,0.010582,-0.005555,-89.054964,0.010587,
570,50,0.553993,-19.694485,0.999670,0.002037,-0.002794,0.013864,0.007334,0.016632,-0.005563,69.317494,0.016934,
830,170,0.592745,-18.997655,0.999997,0.000213,-0.002217,0.008472,0.001445,0.008664,-0.002409,82.436617,0.008944,
1780,1890,-1.047197,-1.365497,0.999996,0.000226,-0.004093,0.010070,0.001739,0.010281,-0.004304,83.100974,0.010326,
1070,500,0.462372,-16.672538,0.999995,0.000251,-0.003499,0.008032,-0.001203,0.008156,-0.003624,-84.104779,0.008173,
1830,720,-3.250315,-12.991242,0.999998,0.000181,-0.005007,0.010015,-0.000453,0.010028,-0.005020,-88.273124,0.010028,
1300,200,-0.078177,-19.015488,0.999998,0.000199,-0.001129,0.006699,-0.000174,0.006703,-0.001133,-88.726450,0.007176,
1730,1710,-1.586461,-3.020186,0.999995,0.000253,-0.004777,0.009963,0.000113,0.009964,-0.004777,89.559958,0.009967,
740,430,1.806145,-16.298171,0.999998,0.000180,-0.004938,0.010130,-0.000190,0.010133,-0.004940,-89.279062,0.010134,
1690,1870,-0.818477,-1.367466,0.999997,0.000202,-0.003272,0.009165,0.001467,0.009336,-0.003442,83.363740,0.009443,
990,1650,0.661374,-2.902441,0.999997,0.000220,-0.003598,0.008528,0.000622,0.008560,-0.003630,87.070417,0.008593,
910,1310,1.713253,-6.661425,0.999995,0.000296,-0.007017,0.012059,0.000316,0.012064,-0.007022,89.052718,0.012118,
670,1660,2.050676,-3.730856,0.999997,0.000211,-0.004921,0.010106,0.000108,0.010107,-0.004922,89.587502,0.010108,
1610,1150,-2.797031,-8.754289,0.999997,0.000222,-0.005107,0.011221,0.001397,0.011339,-0.005226,85.144880,0.011351,
1240,1280,-0.020508,-4.632855,0.999997,0.000208,-0.002327,0.002479,-0.000466,0.002523,-0.002372,-84.513228,0.002830,
1900,1950,-1.150941,-1.208623,0.999995,0.000000,-0.004609,0.011631,0.002242,0.011934,-0.004913,82.282537,0.011996,
1080,1840,0.205262,-1.286311,0.999997,0.000190,-0.001390,0.007065,-0.000263,0.007073,-0.001398,-88.222998,0.007491,
1220,370,0.026257,-17.847958,0.999998,0.000181,-0.002206,0.007052,-0.000141,0.007054,-0.002208,-89.130484,0.007217,
880,1750,0.863315,-2.267605,0.999997,0.000209,-0.003739,0.008943,-0.000149,0.008944,-0.003741,-89.326893,0.008984,
1780,160,-1.016949,-18.844498,0.999997,0.000241,-0.004045,0.010048,-0.001844,0.010285,-0.004282,-82.666607,0.010333,
1320,1370,-0.222279,-4.570111,0.999997,0.000222,-0.003387,0.006260,-0.002667,0.006948,-0.004075,-75.529759,0.006983,
1820,1080,-3.924516,-9.598663,0.999997,0.000217,-0.004305,0.009050,0.000169,0.009052,-0.004308,89.277246,0.009056,
930,1920,0.287844,-0.802814,0.999997,0.000202,-0.001276,0.007379,-0.001030,0.007500,-0.001397,-83.305066,0.007976,
1190,210,0.056272,-18.953440,0.999998,0.000185,-0.001202,0.006702,0.000040,0.006702,-0.001202,89.707110,0.007146,
1470,1380,-0.961663,-5.417746,0.999996,0.000222,-0.006151,0.010549,-0.002050,0.010797,-0.006399,-83.103266,0.010859,
1880,1310,-3.585236,-7.554555,0.999996,0.000238,-0.004867,0.009750,0.000226,0.009753,-0.004870,89.113957,0.009753,
780,330,1.331641,-17.415472,0.999997,0.000232,-0.004386,0.009839,0.000177,0.009841,-0.004389,89.287034,0.009860,
880,830,2.290692,-12.346944,0.999995,0.000294,-0.006466,0.012101,0.001009,0.012156,-0.006521,86.898077,0.012167,
1340,1660,-0.257593,-2.570377,0.999997,0.000207,-0.002627,0.007386,-0.000541,0.007415,-0.002656,-86.917632,0.007514,
620,200,1.527132,-18.229777,0.999995,0.000272,-0.004892,0.010151,0.000493,0.010167,-0.004908,88.126751,0.010169,
1860,840,-3.801734,-11.754240,0.999996,0.000210,-0.004617,0.009364,-0.000474,0.009380,-0.004633,-88.060664,0.009381,
1040,1180,1.409812,-7.421867,0.999991,0.000349,-0.007115,0.013679,0.002380,0.013948,-0.007383,83.553819,0.013956,
1880,1780,-2.061528,-2.841717,0.999998,0.000196,-0.004858,0.009730,0.000039,0.009730,-0.004858,89.847966,0.009730,
940,190,0.407876,-18.947271,0.999997,0.000199,-0.002012,0.007785,0.000784,0.007848,-0.002074,85.450707,0.008133,
1450,1680,-0.550775,-2.601973,0.999996,0.000244,-0.002975,0.008290,-0.000319,0.008299,-0.002984,-88.379273,0.008407,
890,280,0.763921,-18.134480,0.999996,0.000237,-0.003341,0.008736,0.000370,0.008747,-0.003353,88.245500,0.008826,
800,1070,3.261647,-9.647323,0.999997,0.000207,-0.004152,0.010175,-0.000504,0.010193,-0.004170,-87.989023,0.010249,
1440,1220,-1.268467,-7.061193,0.999994,0.000287,-0.007875,0.013012,-0.001894,0.013183,-0.008046,-84.859634,0.013289,
1500,1430,-1.059868,-5.055132,0.999996,0.000249,-0.005717,0.010225,-0.001577,0.010379,-0.005872,-84.404816,0.010409,
1140,280,0.157233,-18.452763,0.999998,0.000192,-0.001920,0.007128,-0.000074,0.007129,-0.001920,-89.532606,0.007377,
970,400,0.729932,-17.248412,0.999996,0.000264,-0.003755,0.008728,-0.000564,0.008754,-0.003781,-87.419694,0.008781,
590,1020,4.182306,-10.143128,0.999997,0.000198,-0.004004,0.008599,0.000154,0.008601,-0.004006,89.300206,0.008608,
630,760,3.407017,-12.585526,0.999996,0.000222,-0.004946,0.009848,0.000547,0.009869,-0.004966,87.885023,0.009869,
1350,640,-0.334312,-15.744393,0.999997,0.000247,-0.003746,0.007330,0.002348,0.007807,-0.004223,78.511599,0.007816,
1850,460,-2.527193,-15.583242,0.999995,0.000250,-0.005022,0.010144,0.000127,0.010145,-0.005023,89.519088,0.010145,
1690,1850,-0.912621,-1.562623,0.999997,0.000200,-0.003505,0.009417,0.001272,0.009541,-0.003629,84.429377,0.009632,
1810,720,-3.150402,-13.043891,0.999997,0.000206,-0.005114,0.010138,-0.000524,0.010156,-0.005132,-88.034088,0.010157,
1300,180,-0.070453,-19.149751,0.999998,0.000187,-0.000990,0.006613,-0.000149,0.006616,-0.000993,-88.877591,0.007136,
740,410,1.750748,-16.501832,0.999997,0.000225,-0.004921,0.010127,-0.000141,0.010128,-0.004922,-89.461934,0.010129,
1900,1940,-1.233970,-1.320249,0.999996,0.000000,-0.004702,0.011130,0.001918,0.011359,-0.004931,83.190295,0.011392,
1080,1820,0.224224,-1.429067,0.999997,0.000202,-0.001550,0.007198,-0.000236,0.007204,-0.001556,-88.454167,0.007582,
570,40,0.365476,-19.836311,0.999762,0.001783,-0.001019,0.013906,0.008690,0.017898,-0.005011,65.327686,0.018467,
860,1770,0.884993,-2.131607,0.999995,0.000255,-0.003603,0.009063,-0.000423,0.009077,-0.003617,-88.088019,0.009139,
910,1290,1.790781,-6.906010,0.999993,0.000299,-0.007068,0.012173,0.000073,0.012173,-0.007068,89.781732,0.012226,
1240,1260,-0.021426,-4.676924,0.999996,0.000251,-0.003009,0.002110,-0.000501,0.002159,-0.003058,-84.465966,0.003143,
1050,1660,0.459016,-2.691683,0.999995,0.000262,-0.003140,0.007987,0.000611,0.008021,-0.003173,86.864947,0.008079,
990,1630,0.688451,-3.076051,0.999997,0.000217,-0.003793,0.008640,0.000755,0.008686,-0.003839,86.536146,0.008706,
1870,1310,-3.537081,-7.525001,0.999997,0.000232,-0.004886,0.009761,0.000291,0.009766,-0.004891,88.862491,0.009766,
810,2000,0.145332,-0.252747,0.999997,0.000225,-0.000802,0.007241,-0.001906,0.007670,-0.001231,-77.320254,0.008239,
1080,1150,1.429405,-7.105214,0.999990,0.000341,-0.004351,0.010764,0.006206,0.012985,-0.006573,70.304329,0.012985,
1300,370,-0.148861,-17.820117,0.999997,0.000197,-0.002199,0.007179,0.000145,0.007182,-0.002201,89.115464,0.007359,
1820,1040,-3.958321,-9.964070,0.999997,0.000220,-0.004283,0.009115,0.000215,0.009119,-0.004286,89.079142,0.009124,
1780,1870,-1.159250,-1.563218,0.999997,0.000234,-0.004309,0.009998,0.001387,0.010131,-0.004442,84.514829,0.010157,
1590,260,-0.768539,-18.277622,0.999997,0.000177,-0.003378,0.008690,-0.000481,0.008709,-0.003397,-87.721208,0.008779,
1860,820,-3.739066,-11.939867,0.999995,0.000241,-0.004629,0.009280,-0.000433,0.009293,-0.004642,-88.219832,0.009293,
1880,1770,-2.100310,-2.938072,0.999997,0.000220,-0.004865,0.009677,0.000021,0.009677,-0.004865,89.918199,0.009677,
1000,1450,0.831389,-4.676387,0.999996,0.000226,-0.005189,0.009596,0.001816,0.009816,-0.005409,83.100552,0.009833,
1780,140,-0.890790,-19.047225,0.999996,0.000242,-0.003756,0.009751,-0.002137,0.010080,-0.004086,-81.221722,0.010140,
1340,1640,-0.263569,-2.717982,0.999997,0.000215,-0.002687,0.007420,-0.000586,0.007454,-0.002721,-86.690779,0.007544,
890,420,1.078296,-16.851665,0.999996,0.000212,-0.004332,0.009393,-0.000440,0.009407,-0.004346,-88.166681,0.009416,
910,1920,0.313329,-0.813249,0.999997,0.000195,-0.001333,0.007507,-0.001157,0.007656,-0.001482,-82.668181,0.008121,
1260,1390,-0.062043,-4.251289,0.999998,0.000142,-0.002298,0.005152,-0.000855,0.005248,-0.002394,-83.536888,0.005255,
1190,190,0.046560,-19.087557,0.999998,0.000166,-0.001093,0.006645,0.000055,0.006646,-0.001093,89.595767,0.007127,
580,1060,4.204420,-9.803771,0.999997,0.000191,-0.003884,0.008286,-0.000141,0.008288,-0.003886,-89.335488,0.008293,
1040,1160,1.579889,-7.696555,0.999992,0.000304,-0.006880,0.013989,0.002356,0.014252,-0.007143,83.637167,0.014252,
1350,680,-0.331404,-15.453905,0.999996,0.000239,-0.004039,0.007340,0.002889,0.008032,-0.004730,76.541690,0.008074,
820,650,1.975862,-14.253118,0.999995,0.000259,-0.005974,0.011033,-0.000124,0.011034,-0.005975,-89.582756,0.011046,
710,1400,2.620618,-6.291277,0.999994,0.000277,-0.005485,0.010481,-0.000325,0.010488,-0.005491,-88.835780,0.010492,
1300,160,-0.061770,-19.281663,0.999998,0.000159,-0.000809,0.006537,-0.000178,0.006541,-0.000813,-88.612457,0.007130,
570,670,3.387273,-13.306283,0.999866,0.001408,-0.005042,0.010178,0.000358,0.010187,-0.005050,88.653378,0.010187,
580,1020,4.224123,-10.143327,0.999998,0.000183,-0.003656,0.008454,0.000168,0.008456,-0.003659,89.205232,0.008481,
700,980,3.680979,-10.536774,0.999995,0.000244,-0.004365,0.009508,0.000286,0.009514,-0.004371,88.818931,0.009524,
1780,610,-2.616961,-14.261462,0.999997,0.000180,-0.005273,0.010380,-0.000123,0.010381,-0.005274,-89.550649,0.010382,
1900,1930,-1.312623,-1.428923,0.999994,0.000000,-0.004835,0.010873,0.001637,0.011042,-0.005004,84.113892,0.011058,
1800,830,-3.487359,-11.959075,0.999995,0.000253,-0.004848,0.009734,-0.000818,0.009780,-0.004894,-86.800092,0.009780,
1440,1200,-1.391068,-7.336560,0.999993,0.000316,-0.007813,0.013576,-0.001577,0.013691,-0.007929,-85.804732,0.013748,
830,150,0.510028,-19.170845,0.999997,0.000222,-0.001881,0.008299,0.001599,0.008544,-0.002126,81.282557,0.008896,
630,380,2.200322,-16.448297,0.999995,0.000240,-0.004942,0.010101,-0.000087,0.010101,-0.004943,-89.667809,0.010102,
910,1490,1.248442,-4.663948,0.999995,0.000278,-0.005363,0.010222,0.000966,0.010282,-0.005423,86.465574,0.010287,
1690,1090,-3.347037,-9.452198,0.999995,0.000258,-0.004373,0.010183,0.000798,0.010227,-0.004417,86.871656,0.010258,
1870,720,-3.449812,-12.879948,0.999996,0.000246,-0.004899,0.009795,-0.000249,0.009799,-0.004904,-89.028296,0.009799,
1790,1740,-1.778733,-2.911750,0.999997,0.000211,-0.004829,0.010023,0.000135,0.010024,-0.004831,89.479056,0.010026,
990,1610,0.710501,-3.252763,0.999997,0.000216,-0.003918,0.008782,0.000859,0.008840,-0.003976,86.149797,0.008855,
1240,1240,-0.039794,-4.712619,0.999996,0.000239,-0.004298,0.002173,-0.000388,0.002196,-0.004321,-86.579089,0.004321,
1080,1800,0.247746,-1.575070,0.999997,0.000197,-0.001708,0.007262,-0.000178,0.007265,-0.001711,-88.865145,0.007596,
1010,1340,0.926338,-5.739692,0.999995,0.000277,-0.006612,0.010906,0.002358,0.011218,-0.006924,82.465966,0.011320,
570,790,3.805257,-12.125881,0.999966,0.000754,-0.005200,0.009129,-0.000077,0.009130,-0.005201,-89.692154,0.009159,
1030,1660,0.521397,-2.734034,0.999994,0.000283,-0.003093,0.008113,0.000506,0.008136,-0.003116,87.418472,0.008209,
1730,1690,-1.651866,-3.222659,0.999995,0.000262,-0.004844,0.010044,0.000024,0.010044,-0.004844,89.907011,0.010046,
1610,1130,-2.874005,-8.975662,0.999997,0.000228,-0.004778,0.011110,0.001403,0.011233,-0.004901,84.990806,0.011264,
1340,1620,-0.272639,-2.869754,0.999998,0.000205,-0.002716,0.007434,-0.000596,0.007468,-0.002751,-86.649389,0.007554,
1780,120,-0.763271,-19.238269,0.999996,0.000252,-0.003455,0.009864,-0.002546,0.010334,-0.003926,-79.538562,0.010433,
1160,370,0.155757,-17.819423,0.999998,0.000171,-0.002211,0.007201,-0.000167,0.007204,-0.002214,-88.983353,0.007380,
1000,1430,0.852680,-4.871269,0.999996,0.000229,-0.005381,0.009723,0.001889,0.009956,-0.005614,82.976571,0.009983,
620,180,1.413082,-18.431567,0.999995,0.000272,-0.004879,0.010324,0.000731,0.010360,-0.004914,87.254010,0.010364,
1860,800,-3.676779,-12.125475,0.999996,0.000253,-0.004701,0.009439,-0.000412,0.009451,-0.004713,-88.330739,0.009451,
1140,480,0.236433,-16.988676,0.999997,0.000189,-0.002861,0.007276,-0.000847,0.007346,-0.002931,-85.258034,0.007396,
1300,130,-0.048947,-19.476822,0.999998,0.000186,-0.000617,0.006454,-0.000178,0.006459,-0.000622,-88.558177,0.007126,
970,520,0.881997,-16.166998,0.999996,0.000241,-0.004635,0.009325,-0.001211,0.009429,-0.004739,-85.080315,0.009429,
1240,1390,-0.018750,-4.225954,0.999998,0.000157,-0.002154,0.004971,-0.000324,0.004986,-0.002169,-87.404363,0.005000,
1270,1720,-0.079361,-2.077118,0.999998,0.000185,-0.001982,0.007063,-0.000098,0.007064,-0.001983,-89.376646,0.007287,
1590,240,-0.712183,-18.450293,0.999997,0.000215,-0.003200,0.008738,-0.000668,0.008776,-0.003237,-86.806015,0.008876,
1190,170,0.043733,-19.219685,0.999998,0.000157,-0.000937,0.006554,0.000070,0.006554,-0.000938,89.464901,0.007089,
1040,1140,1.747265,-7.984346,0.999991,0.000335,-0.006611,0.014471,0.002646,0.014798,-0.006938,82.954000,0.014808,
1400,250,-0.271310,-18.609090,0.999997,0.000200,-0.001909,0.007347,-0.000140,0.007349,-0.001911,-89.136562,0.007626,
570,1020,4.263944,-10.143557,0.999931,0.001021,-0.003478,0.008299,0.000216,0.008303,-0.003482,88.951371,0.008339,
1850,500,-2.645529,-15.175861,0.999995,0.000250,-0.005059,0.010151,0.000080,0.010152,-0.005060,89.700317,0.010152,
1820,1020,-3.961396,-10.148848,0.999997,0.000206,-0.004312,0.009158,-0.000148,0.009160,-0.004314,-89.371188,0.009165,
670,760,3.206000,-12.676366,0.999995,0.000254,-0.005117,0.010088,0.000738,0.010123,-0.005152,87.225892,0.010124,
1350,660,-0.333907,-15.598738,0.999997,0.000275,-0.003852,0.007346,0.002631,0.007934,-0.004439,77.415151,0.007952,
1450,1860,-0.284577,-1.190230,0.999998,0.000185,-0.001556,0.007363,0.000516,0.007393,-0.001586,86.701890,0.007784,
960,1130,2.325273,-8.753523,0.999996,0.000278,-0.005703,0.013156,-0.001177,0.013229,-0.005777,-86.443462,0.013264,
800,650,2.094180,-14.188683,0.999995,0.000244,-0.005879,0.010925,0.000024,0.010925,-0.005879,89.916641,0.010936,
910,1900,0.368520,-0.964963,0.999997,0.000211,-0.001560,0.007728,-0.001109,0.007859,-0.001691,-83.284819,0.008273,
1440,1180,-1.532975,-7.625111,0.999992,0.000364,-0.007435,0.013914,-0.001310,0.013995,-0.007515,-86.500631,0.014007,
570,1060,4.242380,-9.808229,0.999941,0.000917,-0.003795,0.008093,-0.000109,0.008094,-0.003796,-89.475835,0.008100,
1410,1420,-0.589682,-4.683637,0.999996,0.000232,-0.004772,0.008768,-0.002342,0.009162,-0.005166,-80.459322,0.009186,
1770,1740,-1.682714,-2.847905,0.999997,0.000192,-0.004838,0.010023,0.000127,0.010024,-0.004839,89.510193,0.010026,
1900,1920,-1.394064,-1.538200,0.999995,0.000000,-0.004891,0.010682,0.001409,0.010808,-0.005017,84.870814,0.010818,
1730,720,-2.723494,-13.237663,0.999997,0.000223,-0.005574,0.010656,-0.000655,0.010683,-0.005600,-87.693912,0.010687,
1640,520,-1.615076,-15.646171,0.999995,0.000237,-0.005268,0.010298,0.000478,0.010313,-0.005283,88.243555,0.010314,
1690,1830,-0.990487,-1.746645,0.999998,0.000182,-0.003726,0.009405,0.001026,0.009485,-0.003806,85.557530,0.009546,
630,360,2.138761,-16.651519,0.999996,0.000237,-0.004899,0.010055,-0.000053,0.010055,-0.004899,-89.796682,0.010056,
810,960,3.171618,-10.775346,0.999995,0.000254,-0.004331,0.010429,0.000950,0.010490,-0.004392,86.333359,0.010536,
900,1660,0.988760,-3.044874,0.999996,0.000228,-0.004138,0.009216,0.000358,0.009226,-0.004148,88.466670,0.009242,
1300,140,-0.052467,-19.412428,0.999998,0.000167,-0.000673,0.006493,-0.000173,0.006497,-0.000678,-88.616776,0.007143,
1140,370,0.201180,-17.800133,0.999998,0.000197,-0.002438,0.007353,-0.000371,0.007367,-0.002452,-87.833537,0.007503,
1390,1490,-0.473044,-3.999922,0.999997,0.000231,-0.003815,0.008047,-0.001669,0.008277,-0.004045,-82.141085,0.008278,
570,710,3.537041,-12.915106,0.999469,0.002594,-0.006547,0.008894,0.001003,0.008959,-0.006612,86.300729,0.009291,
1480,1280,-1.293967,-6.630667,0.999994,0.000305,-0.007595,0.012362,-0.001401,0.012460,-0.007693,-86.003870,0.012574,
1540,1230,-1.976225,-7.603823,0.999996,0.000255,-0.007039,0.012726,0.000535,0.012741,-0.007053,88.450286,0.012765,
950,1350,1.305721,-5.993316,0.999996,0.000235,-0.006791,0.011456,0.001275,0.011545,-0.006880,86.022744,0.011615,
1850,480,-2.584895,-15.378353,0.999997,0.000224,-0.005049,0.010135,0.000096,0.010135,-0.005050,89.638792,0.010135,
1780,100,-0.616752,-19.443158,0.999996,0.000251,-0.002881,0.009364,-0.002775,0.009963,-0.003481,-77.809348,0.010113,
1240,820,-0.038600,-15.435298,0.999994,0.000281,-0.004787,0.002364,0.000316,0.002378,-0.004801,87.472295,0.004801,
980,1450,0.934921,-4.768145,0.999996,0.000209,-0.005340,0.009856,0.001657,0.010035,-0.005518,83.848727,0.010051,
780,2000,0.174860,-0.264924,0.999998,0.000166,-0.000989,0.007421,-0.002091,0.007912,-0.001480,-76.776985,0.008413,
1170,2020,0.008001,-0.092118,0.999998,0.000000,0.000002,0.006030,-0.000150,0.006034,-0.000001,-88.574967,0.006966,
1570,150,-0.381309,-19.220346,0.999997,0.000207,-0.001889,0.007790,-0.001171,0.007929,-0.002028,-83.201242,0.008239,
620,160,1.286534,-18.642881,0.999995,0.000265,-0.004910,0.010376,0.000881,0.010426,-0.004961,86.713119,0.010431,
1900,1910,-1.468924,-1.645436,0.999996,0.000000,-0.004914,0.010463,0.001150,0.010548,-0.004999,85.747609,0.010553,
1450,400,-0.579317,-17.350867,0.999996,0.000228,-0.003165,0.008268,0.000477,0.008288,-0.003185,87.615301,0.008362,
650,760,3.306871,-12.633358,0.999997,0.000198,-0.005009,0.009940,0.000667,0.009970,-0.005038,87.449417,0.009970,
830,130,0.435401,-19.329606,0.999996,0.000223,-0.001621,0.008087,0.001678,0.008369,-0.001903,80.466754,0.008773,
1070,460,0.442407,-16.994243,0.999996,0.000233,-0.003405,0.007936,-0.001010,0.008025,-0.003494,-84.948939,0.008047,
1570,240,-0.646598,-18.486762,0.999997,0.000193,-0.002906,0.008555,-0.000655,0.008592,-0.002943,-86.740982,0.008733,
640,1770,1.824011,-2.716808,0.999997,0.000214,-0.004813,0.010070,-0.000197,0.010073,-0.004816,-89.242868,0.010076,
1780,1930,-0.795380,-0.970698,0.999994,0.000281,-0.003516,0.009873,0.002456,0.010310,-0.003953,79.927866,0.010403,
1570,820,-2.156864,-12.509038,0.999995,0.000239,-0.006708,0.012310,-0.000803,0.012344,-0.006742,-87.587115,0.012362,
1450,860,-1.504313,-12.659563,0.999991,0.000338,-0.007829,0.013764,0.001149,0.013825,-0.007890,86.961435,0.013871,
1080,1140,1.523334,-7.220016,0.999989,0.000367,-0.004196,0.011725,0.006992,0.014360,-0.006831,69.352519,0.014366,
1640,280,-0.997741,-18.005139,0.999997,0.000182,-0.003529,0.009273,-0.000620,0.009303,-0.003559,-87.235554,0.009388,
1220,130,0.008297,-19.481644,0.999999,0.000133,-0.000743,0.006362,-0.000029,0.006362,-0.000744,-89.763833,0.006956,
1090,1860,0.169268,-1.140065,0.999997,0.000191,-0.001222,0.006954,-0.000306,0.006965,-0.001234,-87.857382,0.007434,
1690,1790,-1.146389,-2.128926,0.999997,0.000201,-0.004074,0.009550,0.000657,0.009581,-0.004106,87.245118,0.009614,
1040,1120,1.907125,-8.300522,0.999989,0.000389,-0.006602,0.015221,0.003084,0.015648,-0.007030,82.107900,0.015675,
1850,80,-0.686656,-19.455349,0.999995,0.000249,-0.004589,0.011202,-0.002620,0.011625,-0.005012,-80.822516,0.011662,
1410,1400,-0.599396,-4.861472,0.999994,0.000309,-0.005048,0.008988,-0.002549,0.009437,-0.005496,-80.019648,0.009479,
1300,120,-0.042370,-19.542129,0.999998,0.000180,-0.000555,0.006401,-0.000189,0.006406,-0.000560,-88.445541,0.007096,
1390,1470,-0.477971,-4.159288,0.999995,0.000267,-0.004024,0.008146,-0.001915,0.008440,-0.004318,-81.264847,0.008441,
870,390,1.101608,-17.077189,0.999997,0.000227,-0.004210,0.009345,-0.000240,0.009349,-0.004215,-88.984142,0.009364,
1520,1230,-1.830899,-7.509676,0.999997,0.000210,-0.007331,0.012952,0.000237,0.012954,-0.007334,89.330016,0.012992,
830,960,3.084658,-10.786216,0.999995,0.000274,-0.004261,0.010561,0.000990,0.010626,-0.004327,86.195268,0.010687,
1620,450,-1.353633,-16.420991,0.999995,0.000286,-0.004773,0.009869,0.000422,0.009882,-0.004785,88.349118,0.009883,
1480,1260,-1.374976,-6.878356,0.999994,0.000296,-0.007752,0.012683,-0.001177,0.012750,-0.007820,-86.713036,0.012859,
1320,370,-0.194599,-17.805046,0.999998,0.000153,-0.002409,0.007328,0.000338,0.007340,-0.002421,88.013539,0.007480,
1130,330,0.207036,-18.080011,0.999998,0.000177,-0.002290,0.007264,-0.000267,0.007271,-0.002298,-88.400695,0.007434,
910,750,1.730132,-13.437714,0.999993,0.000302,-0.007035,0.012107,-0.000245,0.012110,-0.007038,-89.268127,0.012163,
740,1340,2.664992,-6.852430,0.999996,0.000245,-0.005646,0.010719,-0.000600,0.010741,-0.005668,-87.902570,0.010747,
1350,60,-0.028307,-19.912933,0.999998,0.000172,-0.000264,0.006153,-0.000331,0.006170,-0.000281,-87.056735,0.006968,
1820,1630,-2.275352,-4.123324,0.999998,0.000174,-0.005029,0.010112,-0.000128,0.010113,-0.005030,-89.516618,0.010113,
1370,890,-1.223343,-13.471981,0.999993,0.000297,-0.003859,0.008484,0.005283,0.010436,-0.005811,69.718135,0.010458,
1820,1000,-3.943725,-10.332663,0.999997,0.000212,-0.004308,0.009125,-0.000307,0.009132,-0.004315,-88.689962,0.009136,
700,510,2.229867,-15.350332,0.999996,0.000236,-0.005186,0.010303,-0.000151,0.010305,-0.005188,-89.440308,0.010305,
950,1330,1.363141,-6.225289,0.999996,0.000227,-0.007010,0.011703,0.001178,0.011777,-0.007084,86.411104,0.011858,
1700,550,-2.009064,-15.138261,0.999997,0.000232,-0.005374,0.010369,0.000220,0.010373,-0.005377,89.199094,0.010375,
1500,770,-1.424271,-13.465432,0.999992,0.000350,-0.007463,0.012391,0.000974,0.012439,-0.007511,87.199478,0.012528,
610,1060,4.082325,-9.791853,0.999998,0.000178,-0.004190,0.008719,-0.000225,0.008723,-0.004194,-89.003631,0.008725,
770,2000,0.185349,-0.269873,0.999997,0.000172,-0.000860,0.007492,-0.002212,0.008042,-0.001410,-76.046377,0.008588,
1730,1670,-1.709721,-3.424935,0.999996,0.000268,-0.004885,0.010094,-0.000067,0.010094,-0.004886,-89.744240,0.010096,
1240,800,-0.028073,-15.474266,0.999995,0.000279,-0.003206,0.002111,0.000499,0.002158,-0.003252,84.680717,0.003310,
1450,540,-0.710237,-16.141594,0.999996,0.000232,-0.004329,0.008916,0.001417,0.009066,-0.004478,83.963129,0.009066,
1190,150,0.035109,-19.351429,0.999998,0.000144,-0.000811,0.006465,0.000116,0.006467,-0.000813,89.084365,0.007045,
750,760,2.777782,-12.847762,0.999994,0.000294,-0.005625,0.010772,0.000855,0.010817,-0.005669,87.024229,0.010821,
1280,1370,-0.107594,-4.400476,0.999998,0.000171,-0.002554,0.005146,-0.001724,0.005514,-0.002923,-77.936521,0.005518,
620,140,1.151446,-18.849813,0.999997,0.000219,-0.004905,0.010459,0.001161,0.010546,-0.004993,85.703339,0.010551,
1570,130,-0.319058,-19.375642,0.999997,0.000207,-0.001621,0.007625,-0.001203,0.007779,-0.001774,-82.709245,0.008153,
1070,440,0.428829,-17.152545,0.999996,0.000228,-0.003305,0.007925,-0.000894,0.007995,-0.003376,-85.477172,0.008028,
830,110,0.350416,-19.495789,0.999997,0.000203,-0.001293,0.007903,0.001749,0.008225,-0.001614,79.588474,0.008716,
1900,1530,-2.970245,-5.392698,0.999998,0.000000,-0.005036,0.010120,-0.000030,0.010120,-0.005036,-89.885591,0.010120,
1780,1910,-0.921549,-1.159790,0.999997,0.000229,-0.003823,0.009828,0.002037,0.010125,-0.004120,81.692293,0.010184,
1780,80,-0.487226,-19.617862,0.999995,0.000266,-0.002156,0.009402,-0.003449,0.010353,-0.003107,-74.587215,0.010625,
1170,1190,0.638156,-5.188720,0.999993,0.000000,-0.006169,0.002776,0.000257,0.002783,-0.006176,88.352429,0.006186,
1320,1350,-0.221413,-4.697583,0.999997,0.000196,-0.003457,0.006168,-0.003001,0.007027,-0.004316,-74.025269,0.007088,
640,1750,1.900519,-2.920371,0.999996,0.000261,-0.004831,0.010040,-0.000134,0.010041,-0.004832,-89.484180,0.010043,
1500,190,-0.362765,-18.967376,0.999998,0.000161,-0.002094,0.007605,-0.000611,0.007643,-0.002132,-86.409481,0.007888,
1150,1860,0.090550,-1.111493,0.999998,0.000193,-0.001176,0.006740,-0.000130,0.006742,-0.001179,-89.056116,0.007202,
1510,120,-0.221985,-19.476225,0.999998,0.000176,-0.001262,0.007189,-0.000930,0.007290,-0.001363,-83.796307,0.007752,
1640,240,-0.864207,-18.373160,0.999997,0.000204,-0.003169,0.009169,-0.000933,0.009239,-0.003239,-85.701889,0.009376,
1730,740,-2.798498,-13.023913,0.999998,0.000204,-0.005536,0.010604,-0.000757,0.010640,-0.005572,-87.320407,0.010644,
1690,1770,-1.218670,-2.324541,0.999997,0.000198,-0.004233,0.009702,0.000504,0.009720,-0.004251,87.932920,0.009746,
1830,80,-0.593212,-19.548795,0.999995,0.000263,-0.003993,0.010610,-0.002829,0.011139,-0.004522,-79.411377,0.011205,
1240,840,-0.068510,-15.377531,0.999982,0.000508,-0.007787,0.003006,-0.000131,0.003008,-0.007788,-89.303514,0.007855,
870,810,2.258842,-12.558517,0.999995,0.000284,-0.006480,0.012001,0.000903,0.012045,-0.006524,87.210478,0.012059,
1740,930,-3.491466,-11.035487,0.999997,0.000207,-0.004542,0.009810,-0.000822,0.009857,-0.004589,-86.733401,0.009865,
1040,940,1.950281,-11.783111,0.999990,0.000355,-0.006640,0.015565,-0.003282,0.016040,-0.007115,-81.766732,0.016074,
1300,100,-0.033038,-19.668926,0.999998,0.000179,-0.000424,0.006245,-0.000191,0.006251,-0.000429,-88.356881,0.006983,
1480,1240,-1.473178,-7.140093,0.999992,0.000343,-0.007842,0.013029,-0.000867,0.013065,-0.007878,-87.624494,0.013157,
1390,1450,-0.485532,-4.324422,0.999996,0.000255,-0.004258,0.008245,-0.002167,0.008610,-0.004623,-80.440262,0.008618,
910,710,1.589630,-13.916644,0.999994,0.000284,-0.006781,0.011628,-0.000627,0.011650,-0.006803,-88.052384,0.011704,
1800,1630,-2.172782,-4.058885,0.999997,0.000191,-0.005032,0.010133,-0.000158,0.010134,-0.005033,-89.404411,0.010134,
740,1320,2.737658,-7.065644,0.999997,0.000238,-0.005619,0.010654,-0.000734,0.010687,-0.005652,-87.423314,0.010693,
1240,370,-0.018746,-17.848939,0.999997,0.000189,-0.002208,0.007054,0.000112,0.007056,-0.002209,89.309866,0.007218,
1500,790,-1.510117,-13.211049,0.999992,0.000356,-0.007601,0.012673,0.000728,0.012699,-0.007627,87.946884,0.012784,
1090,60,0.034753,-19.911648,0.999998,0.000163,-0.000250,0.006215,0.000396,0.006239,-0.000274,86.509272,0.007051,
1370,880,-1.115286,-13.551452,0.999995,0.000252,-0.004432,0.008399,0.004773,0.009980,-0.006013,71.674163,0.010050,
720,110,0.561842,-19.408411,0.999996,0.000237,-0.002997,0.009032,0.002320,0.009464,-0.003429,79.454409,0.009583,
1650,1420,-1.971856,-5.764614,0.999996,0.000235,-0.005855,0.010865,-0.000136,0.010866,-0.005856,-89.533538,0.010877,
1130,1690,0.225181,-2.337099,0.999997,0.000183,-0.002488,0.007425,0.000379,0.007439,-0.002502,87.815143,0.007571,
770,1980,0.286599,-0.425590,0.999997,0.000202,-0.001291,0.007821,-0.002274,0.008356,-0.001827,-76.739369,0.008786,
1240,780,-0.023003,-15.515387,0.999996,0.000241,-0.002436,0.002308,0.000514,0.002363,-0.002491,83.888040,0.002805,
830,90,0.276880,-19.643492,0.999997,0.000201,-0.001014,0.007605,0.001822,0.007974,-0.001384,78.538306,0.008522,
1160,330,0.141474,-18.106499,0.999998,0.000168,-0.001967,0.007166,-0.000060,0.007167,-0.001967,-89.624729,0.007405,
1860,1230,-3.754852,-8.266275,0.999996,0.000223,-0.004628,0.009325,0.000443,0.009339,-0.004642,88.181763,0.009339,
590,90,0.887760,-19.241413,0.999995,0.000244,-0.004592,0.011590,0.002598,0.011997,-0.004999,81.098341,0.012053,
620,120,1.001924,-19.063038,0.999996,0.000222,-0.004819,0.010649,0.001472,0.010788,-0.004958,84.610372,0.010800,
570,660,3.356428,-13.408280,0.999912,0.001097,-0.004624,0.010271,0.000044,0.010271,-0.004625,89.832295,0.010288,
1900,1900,-1.534011,-1.748196,0.999996,0.000000,-0.004945,0.010192,0.000915,0.010247,-0.005000,86.553074,0.010248,
1780,60,-0.309181,-19.820660,0.999997,0.000257,-0.001300,0.009015,-0.003653,0.010178,-0.002462,-72.343209,0.010620,
950,1310,1.425027,-6.458892,0.999996,0.000226,-0.007196,0.012046,0.000993,0.012097,-0.007247,87.053599,0.012176,
1570,110,-0.259965,-19.528685,0.999997,0.000205,-0.001318,0.007476,-0.001308,0.007666,-0.001508,-81.715808,0.008123,
1170,870,0.710577,-14.964043,0.999997,0.000000,-0.006088,0.002388,-0.000487,0.002416,-0.006116,-86.721736,0.006161,
1070,560,0.483632,-16.188706,0.999996,0.000245,-0.003851,0.008108,-0.001646,0.008330,-0.004073,-82.305507,0.008331,
1820,1190,-3.694309,-8.571996,0.999995,0.000248,-0.004687,0.009607,0.000771,0.009648,-0.004728,86.921503,0.009649,
620,1770,1.921831,-2.792324,0.999996,0.000261,-0.004841,0.009951,-0.000053,0.009951,-0.004841,-89.795701,0.009952,
630,600,2.860574,-14.205625,0.999997,0.000209,-0.005143,0.010197,0.000118,0.010198,-0.005144,89.559701,0.010198,
1820,980,-3.927127,-10.516834,0.999997,0.000200,-0.004285,0.009065,-0.000181,0.009067,-0.004288,-89.223867,0.009072,
1830,1820,-1.642887,-2.233180,0.999997,0.000231,-0.004764,0.010115,0.000410,0.010127,-0.004776,88.423085,0.010132,
1320,1330,-0.224137,-4.820715,0.999997,0.000208,-0.003593,0.006018,-0.003293,0.007038,-0.004613,-72.789118,0.007150,
1600,470,-1.303276,-16.284912,0.999995,0.000244,-0.004867,0.009877,0.000552,0.009898,-0.004888,87.859338,0.009898,
1640,220,-0.795877,-18.553594,0.999997,0.000206,-0.002971,0.008943,-0.001062,0.009037,-0.003064,-84.945725,0.009191,
1490,120,-0.194398,-19.487943,0.999998,0.000164,-0.001143,0.007067,-0.000821,0.007149,-0.001224,-84.347347,0.007646,
1040,920,1.785652,-12.094849,0.999991,0.000342,-0.006598,0.014515,-0.002669,0.014847,-0.006930,-82.905044,0.014858,
1060,870,1.233209,-13.085086,0.999990,0.000365,-0.007114,0.012344,-0.003200,0.012856,-0.007627,-80.896702,0.012931,
1690,1750,-1.285083,-2.518309,0.999997,0.000234,-0.004358,0.009667,0.000299,0.009673,-0.004365,88.779703,0.009689,
580,880,4.017443,-11.338399,0.999997,0.000211,-0.004267,0.008661,0.000132,0.008663,-0.004269,89.413567,0.008663,
870,830,2.353920,-12.322988,0.999994,0.000300,-0.006340,0.011978,0.001093,0.012043,-0.006405,86.597918,0.012051,
930,960,2.662771,-10.878946,0.999994,0.000284,-0.004442,0.012014,0.001203,0.012102,-0.004530,85.840833,0.012229,
1740,90,-0.433974,-19.586607,0.999995,0.000251,-0.002435,0.008374,-0.002364,0.008868,-0.002929,-78.188582,0.009037,
1360,370,-0.294569,-17.751928,0.999998,0.000167,-0.002443,0.007551,0.000285,0.007559,-0.002451,88.366716,0.007713,
1300,80,-0.024003,-19.792518,0.999998,0.000162,-0.000307,0.006176,-0.000206,0.006183,-0.000314,-88.179673,0.006965,
1730,1650,-1.770163,-3.630012,0.999997,0.000255,-0.004920,0.010108,-0.000140,0.010110,-0.004922,-89.466644,0.010111,
1390,1430,-0.492763,-4.494490,0.999995,0.000252,-0.004472,0.008287,-0.002394,0.008722,-0.004906,-79.713518,0.008744,
1480,1220,-1.580954,-7.404074,0.999993,0.000335,-0.007795,0.013301,-0.000530,0.013315,-0.007808,-88.560989,0.013381,
1450,1480,-0.735951,-4.330439,0.999997,0.000233,-0.004677,0.009146,-0.001703,0.009353,-0.004884,-83.079098,0.009356,
590,1060,4.163487,-9.800976,0.999996,0.000234,-0.004054,0.008485,-0.000193,0.008488,-0.004056,-89.117243,0.008491,
700,110,0.632543,-19.372427,0.999995,0.000242,-0.003428,0.009381,0.002378,0.009808,-0.003855,79.816097,0.009883,
910,170,0.413528,-19.076561,0.999996,0.000234,-0.001756,0.007777,0.001034,0.007888,-0.001867,83.877529,0.008244,
1190,130,0.031642,-19.477234,0.999998,0.000161,-0.000655,0.006385,0.000099,0.006387,-0.000657,89.192654,0.007027,
1280,1350,-0.104212,-4.500803,0.999998,0.000168,-0.002543,0.004818,-0.001930,0.005293,-0.003018,-76.164897,0.005310,
580,90,0.934812,-19.199232,0.999994,0.000280,-0.004619,0.011911,0.002599,0.012310,-0.005018,81.270839,0.012380,
760,830,2.991806,-12.109503,0.999998,0.000190,-0.005372,0.010704,0.001156,0.010787,-0.005455,85.908477,0.010787,
970,340,0.634406,-17.763817,0.999997,0.000212,-0.003324,0.008436,-0.000261,0.008442,-0.003330,-88.728938,0.008505,
1630,2010,-0.100745,-0.179881,0.999997,0.000200,-0.000181,0.007021,0.001735,0.007417,-0.000577,77.137714,0.008252,
1900,1880,-1.661084,-1.948229,0.999996,0.000000,-0.004885,0.010051,0.000662,0.010080,-0.004914,87.465717,0.010081,
1400,1230,-0.896731,-6.503194,0.999994,0.000297,-0.007452,0.011639,-0.003360,0.012214,-0.008026,-80.303762,0.012413,
950,1290,1.501626,-6.705294,0.999993,0.000303,-0.007344,0.012376,0.000773,0.012407,-0.007374,87.758148,0.012480,
1470,740,-1.103933,-14.020734,0.999995,0.000292,-0.007132,0.011623,0.001953,0.011825,-0.007333,84.117684,0.011938,
1240,760,-0.018095,-15.562638,0.999997,0.000185,-0.002123,0.002764,0.000441,0.002803,-0.002163,84.885973,0.002938,
1570,90,-0.196852,-19.674373,0.999998,0.000175,-0.001078,0.007135,-0.001305,0.007338,-0.001280,-81.181990,0.007839,
1760,1930,-0.721976,-0.928464,0.999996,0.000243,-0.003662,0.009497,0.002230,0.009864,-0.004030,80.638273,0.009919,
1170,860,0.596377,-14.994215,0.999997,0.000000,-0.005892,0.002826,-0.000480,0.002852,-0.005919,-86.859085,0.005920,
1770,1990,-0.337623,-0.384679,0.999996,0.000250,-0.001743,0.009039,0.003439,0.010043,-0.002747,73.732206,0.010381,
1350,620,-0.333025,-15.891289,0.999996,0.000242,-0.003669,0.007335,0.002128,0.007732,-0.004066,79.427144,0.007736,
1430,1860,-0.254180,-1.176381,0.999997,0.000206,-0.001647,0.007240,0.000384,0.007257,-0.001664,87.530637,0.007603,
1570,1740,-0.836702,-2.328306,0.999997,0.000235,-0.003584,0.008965,0.000102,0.008966,-0.003585,89.535094,0.009026,
1640,200,-0.720197,-18.733579,0.999997,0.000221,-0.002733,0.008810,-0.001247,0.008943,-0.002866,-83.906120,0.009133,
630,580,2.797391,-14.410491,0.999997,0.000221,-0.005134,0.010204,0.000037,0.010204,-0.005134,89.862695,0.010204,
1690,1730,-1.346832,-2.712656,0.999996,0.000244,-0.004401,0.009827,0.000197,0.009830,-0.004404,89.206754,0.009848,
1430,120,-0.141552,-19.508545,0.999998,0.000177,-0.000943,0.006794,-0.000575,0.006837,-0.000985,-85.771181,0.007392,
830,70,0.191701,-19.801781,0.999997,0.000201,-0.000669,0.007433,0.001894,0.007854,-0.001089,77.470235,0.008510,
910,960,2.748469,-10.848677,0.999994,0.000267,-0.004375,0.011560,0.001181,0.011647,-0.004462,85.782792,0.011753,
740,1300,2.814957,-7.278599,0.999997,0.000230,-0.005612,0.010711,-0.000846,0.010755,-0.005655,-87.040312,0.010760,
1780,1530,-2.360119,-5.016441,0.999995,0.000260,-0.005176,0.010270,-0.000097,0.010271,-0.005176,-89.640998,0.010271,
1370,860,-0.917564,-13.713225,0.999991,0.000347,-0.005691,0.009175,0.004515,0.010439,-0.006955,74.361621,0.010629,
930,1220,1.978258,-7.699454,0.999996,0.000244,-0.007052,0.012812,-0.000576,0.012829,-0.007069,-88.341598,0.012851,
870,900,2.687914,-11.486520,0.999996,0.000243,-0.005293,0.011546,0.001439,0.011668,-0.005415,85.150325,0.011678,
1300,1230,-0.313852,-5.141166,0.999992,0.000322,-0.004288,0.003993,-0.002908,0.004912,-0.005208,-72.458287,0.005850,
870,850,2.452505,-12.076785,0.999994,0.000310,-0.006124,0.011879,0.001259,0.011966,-0.006211,86.019893,0.011969,
1130,1650,0.242412,-2.633011,0.999998,0.000201,-0.002636,0.007378,0.000578,0.007411,-0.002669,86.705640,0.007507,
1600,330,-0.990959,-17.621958,0.999997,0.000221,-0.003824,0.009358,-0.000112,0.009359,-0.003825,-89.514514,0.009410,
1390,1410,-0.501385,-4.662850,0.999995,0.000245,-0.004634,0.008404,-0.002573,0.008894,-0.005123,-79.230462,0.008928,
1480,1200,-1.705777,-7.680728,0.999995,0.000301,-0.007592,0.013548,-0.000156,0.013550,-0.007593,-89.578455,0.013582,
1010,520,0.707684,-16.308110,0.999997,0.000211,-0.004223,0.008864,-0.001320,0.008996,-0.004354,-84.298444,0.008997,
1040,870,1.373457,-12.808270,0.999993,0.000321,-0.007203,0.013503,-0.002363,0.013769,-0.007470,-83.570433,0.013786,
1740,70,-0.317465,-19.751367,0.999995,0.000277,-0.001781,0.008317,-0.002712,0.009000,-0.002463,-75.880508,0.009302,
1900,1870,-1.721576,-2.051311,0.999996,0.000000,-0.004884,0.009926,0.000553,0.009947,-0.004905,87.865721,0.009947,
1290,1270,-0.155418,-4.890080,0.999996,0.000276,-0.003260,0.003834,-0.003152,0.005032,-0.004459,-69.185633,0.005509,
720,1510,2.225128,-5.106937,0.999997,0.000226,-0.005293,0.010318,0.000130,0.010319,-0.005294,89.521485,0.010320,
1450,740,-0.963533,-14.162982,0.999996,0.000277,-0.006993,0.011312,0.002431,0.011630,-0.007311,82.561867,0.011757,
730,760,2.889681,-12.805567,0.999996,0.000249,-0.005508,0.010646,0.000835,0.010689,-0.005551,87.049799,0.010692,
910,150,0.353776,-19.233969,0.999997,0.000218,-0.001499,0.007659,0.001111,0.007791,-0.001632,83.182092,0.008218,
1170,320,0.118165,-18.181510,0.999998,0.000161,-0.001869,0.007133,-0.000021,0.007133,-0.001869,-89.866701,0.007397,
800,390,1.409201,-16.885256,0.999996,0.000225,-0.004623,0.009839,-0.000132,0.009841,-0.004624,-89.477490,0.009847,
570,830,3.919996,-11.762388,0.999995,0.000276,-0.004558,0.009211,0.000182,0.009213,-0.004561,89.244838,0.009213,
1820,960,-3.912368,-10.696742,0.999997,0.000201,-0.004338,0.009110,-0.000312,0.009117,-0.004345,-88.672798,0.009120,
1020,1250,1.133702,-6.714699,0.999993,0.000316,-0.007740,0.012367,0.002173,0.012599,-0.007972,83.900467,0.012747,
1670,1960,-0.343175,-0.568221,0.999997,0.000201,-0.001771,0.007950,0.002002,0.008346,-0.002167,78.805536,0.008662,
1570,70,-0.140500,-19.814972,0.999998,0.000172,-0.000782,0.007027,-0.001335,0.007249,-0.001004,-80.559597,0.007855,
1350,600,-0.331788,-16.040612,0.999996,0.000223,-0.003606,0.007388,0.001948,0.007723,-0.003941,80.242970,0.007723,
950,1270,1.584885,-6.958214,0.999992,0.000315,-0.007474,0.012571,0.000533,0.012586,-0.007488,88.477100,0.012661,
1730,1630,-1.825778,-3.833385,0.999997,0.000217,-0.004943,0.010110,-0.000171,0.010112,-0.004945,-89.350450,0.010113,
1230,60,0.001260,-19.917117,0.999998,0.000155,-0.000303,0.006048,0.000014,0.006048,-0.000303,89.877544,0.006816,
620,100,0.841087,-19.277022,0.999996,0.000231,-0.004698,0.010589,0.001984,0.010842,-0.004951,82.725976,0.010855,
1770,1970,-0.501786,-0.580344,0.999994,0.000263,-0.002502,0.008914,0.002940,0.009627,-0.003215,76.373261,0.009802,
1280,1310,-0.104451,-4.678863,0.999998,0.000156,-0.002601,0.004069,-0.002394,0.004840,-0.003371,-72.162242,0.004963,
1040,900,1.623588,-12.394288,0.999992,0.000348,-0.006829,0.014145,-0.002360,0.014408,-0.007091,-83.658153,0.014408,
830,1940,0.371302,-0.706988,0.999997,0.000203,-0.001427,0.007983,-0.001759,0.008301,-0.001745,-79.749011,0.008753,
880,1070,2.942334,-9.620345,0.999997,0.000211,-0.003930,0.010937,-0.000782,0.010978,-0.003971,-86.998815,0.011117,
1240,740,-0.016629,-15.622746,0.999998,0.000163,-0.001986,0.003317,0.000419,0.003350,-0.002019,85.505552,0.003373,
1170,30,0.003359,-20.096786,0.999999,0.000000,-0.000007,0.005995,0.000173,0.006000,-0.000012,88.346889,0.006922,
1190,110,0.022589,-19.607105,0.999998,0.000168,-0.000533,0.006334,0.000117,0.006336,-0.000535,89.022694,0.007028,
950,1220,1.834269,-7.606123,0.999996,0.000270,-0.007336,0.013061,-0.000245,0.013064,-0.007339,-89.310854,0.013097,
1840,310,-2.002605,-17.127207,0.999998,0.000178,-0.004860,0.010009,-0.000020,0.010009,-0.004860,-89.921256,0.010011,
1490,1720,-0.616660,-2.345614,0.999996,0.000224,-0.003253,0.008451,-0.000197,0.008454,-0.003256,-89.036795,0.008528,
1290,1860,-0.066305,-1.108237,0.999998,0.000150,-0.001064,0.006692,0.000134,0.006694,-0.001066,89.009732,0.007194,
1410,120,-0.120344,-19.517119,0.999998,0.000180,-0.000917,0.006700,-0.000478,0.006730,-0.000947,-86.421554,0.007286,
1760,1530,-2.256159,-4.954875,0.999996,0.000227,-0.005238,0.010277,-0.000144,0.010279,-0.005240,-89.468140,0.010279,
740,1280,2.891001,-7.496922,0.999997,0.000241,-0.005534,0.010732,-0.000923,0.010784,-0.005586,-86.761486,0.010787,
850,900,2.791922,-11.459630,0.999997,0.000221,-0.005178,0.011226,0.001409,0.011346,-0.005298,85.127109,0.011354,
750,960,3.436116,-10.751116,0.999996,0.000243,-0.004451,0.010038,0.000770,0.010079,-0.004491,86.965589,0.010099,
1640,180,-0.646804,-18.907170,0.999996,0.000232,-0.002477,0.008588,-0.001401,0.008763,-0.002651,-82.895044,0.008988,
820,1980,0.219826,-0.399233,0.999997,0.000202,-0.000889,0.007542,-0.001940,0.007967,-0.001314,-77.641753,0.008542,
1480,1180,-1.840558,-7.956532,0.999993,0.000338,-0.007287,0.013685,0.000141,0.013686,-0.007288,89.614977,0.013696,
1690,1710,-1.408034,-2.913615,0.999996,0.000244,-0.004421,0.009822,0.000161,0.009824,-0.004422,89.354134,0.009841,
820,370,1.263513,-17.141267,0.999997,0.000197,-0.004425,0.009663,-0.000001,0.009663,-0.004425,-89.996303,0.009675,
1060,1450,0.542914,-4.391019,0.999994,0.000273,-0.004438,0.008551,0.002197,0.008912,-0.004799,80.653036,0.008921,
1300,60,-0.014873,-19.916479,0.999998,0.000151,-0.000184,0.006077,-0.000180,0.006082,-0.000190,-88.354363,0.006916,
1130,770,0.302330,-14.952268,0.999995,0.000281,-0.004645,0.006576,-0.004175,0.007959,-0.006028,-71.673830,0.008303,
1000,1130,2.085884,-8.538819,0.999993,0.000327,-0.006304,0.014348,-0.000089,0.014348,-0.006304,-89.754201,0.014384,
1900,1860,-1.776610,-2.152066,0.999997,0.000000,-0.004863,0.009804,0.000420,0.009816,-0.004875,88.362129,0.009816,
1260,840,-0.202604,-15.311232,0.999991,0.000328,-0.006410,0.002949,-0.000020,0.002949,-0.006410,-89.876789,0.006417,
870,870,2.544805,-11.844567,0.999995,0.000276,-0.005818,0.011752,0.001378,0.011859,-0.005925,85.543735,0.011859,
710,760,2.997052,-12.760917,0.999995,0.000266,-0.005353,0.010489,0.000802,0.010529,-0.005393,87.107925,0.010530,
800,370,1.356465,-17.080986,0.999996,0.000225,-0.004611,0.009733,-0.000092,0.009733,-0.004612,-89.631826,0.009738,
910,130,0.300862,-19.383466,0.999997,0.000192,-0.001286,0.007495,0.001183,0.007651,-0.001443,82.457355,0.008131,
1340,370,-0.245398,-17.775833,0.999997,0.000192,-0.002494,0.007473,0.000379,0.007487,-0.002508,87.826268,0.007622,
590,280,2.047572,-17.298306,0.999998,0.000213,-0.004772,0.009779,0.000044,0.009779,-0.004773,89.826723,0.009780,
1690,680,-2.351893,-13.778424,0.999996,0.000238,-0.005837,0.010887,-0.000327,0.010893,-0.005843,-88.881754,0.010903,
1210,320,0.042996,-18.196112,0.999998,0.000142,-0.001987,0.007042,-0.000116,0.007044,-0.001989,-89.265519,0.007263,
1390,1830,-0.225563,-1.360718,0.999998,0.000192,-0.001543,0.007156,0.000234,0.007162,-0.001549,88.462735,0.007537,
1820,940,-3.875086,-10.883067,0.999997,0.000234,-0.004461,0.009289,-0.000600,0.009315,-0.004488,-87.505872,0.009317,
570,580,3.099942,-14.223707,0.999989,0.000395,-0.004752,0.010197,0.000060,0.010198,-0.004752,89.769651,0.010205,
1660,2010,-0.110486,-0.184133,0.999998,0.000175,-0.000829,0.007195,0.001893,0.007619,-0.001253,77.371736,0.008171,
1560,1980,-0.147366,-0.376904,0.999998,0.000172,-0.000689,0.007018,0.001281,0.007225,-0.000896,80.803167,0.007877,
1000,1270,1.205775,-6.633688,0.999995,0.000291,-0.007687,0.012384,0.001769,0.012539,-0.007841,85.000477,0.012669,
1240,720,-0.016418,-15.694418,0.999998,0.000171,-0.001977,0.003846,0.000392,0.003873,-0.002004,86.164526,0.003873,
1770,1420,-2.645003,-6.128665,0.999996,0.000252,-0.005364,0.010374,0.000238,0.010377,-0.005368,89.133974,0.010379,
950,1250,1.675273,-7.211917,0.999992,0.000328,-0.007506,0.012795,0.000211,0.012797,-0.007509,89.403487,0.012861,
620,80,0.655462,-19.484808,0.999996,0.000236,-0.004580,0.011014,0.002571,0.011427,-0.004993,80.874504,0.011457,
1350,560,-0.328760,-16.343158,0.999996,0.000215,-0.003388,0.007432,0.001531,0.007645,-0.003601,82.097971,0.007649,
1770,1950,-0.617011,-0.744704,0.999995,0.000252,-0.003240,0.009337,0.002509,0.009819,-0.003722,79.126837,0.009914,
1210,60,0.004344,-19.916334,0.999998,0.000155,-0.000276,0.006049,0.000075,0.006050,-0.000277,89.324583,0.006832,
1160,2020,0.006833,-0.092914,0.999998,0.000000,-0.000003,0.006032,-0.000193,0.006038,-0.000009,-88.165522,0.006968,
1040,140,0.160241,-19.375210,0.999998,0.000170,-0.001172,0.006861,0.000497,0.006891,-0.001202,86.472971,0.007362,
1390,1860,-0.189440,-1.147981,0.999998,0.000147,-0.001313,0.007017,0.000352,0.007032,-0.001328,87.583837,0.007472,
1780,1750,-1.695253,-2.779191,0.999997,0.000187,-0.004821,0.010039,0.000214,0.010042,-0.004824,89.174894,0.010045,
1450,1560,-0.671989,-3.619354,0.999994,0.000300,-0.004123,0.008748,-0.001217,0.008862,-0.004237,-84.647016,0.008864,
740,1260,2.967395,-7.712749,0.999996,0.000246,-0.005423,0.010575,-0.000999,0.010637,-0.005485,-86.440556,0.010638,
820,1960,0.306481,-0.551401,0.999997,0.000188,-0.001250,0.007759,-0.001818,0.008112,-0.001603,-79.009946,0.008592,
1840,290,-1.926663,-17.328754,0.999996,0.000231,-0.004858,0.010027,-0.000071,0.010027,-0.004858,-89.728017,0.010029,
1270,120,-0.027487,-19.543244,0.999998,0.000179,-0.000628,0.006354,-0.000103,0.006355,-0.000629,-89.156558,0.007003,
980,1130,2.207792,-8.666116,0.999994,0.000300,-0.006017,0.013788,-0.000739,0.013815,-0.006045,-87.865381,0.013851,
870,1310,1.984576,-6.818924,0.999996,0.000234,-0.006620,0.011789,-0.000186,0.011790,-0.006622,-89.422593,0.011820,
1480,1160,-1.978983,-8.235763,0.999993,0.000324,-0.006878,0.013757,0.000402,0.013765,-0.006885,88.883617,0.013765,
750,1220,3.064421,-8.119234,0.999996,0.000244,-0.005272,0.010612,-0.001164,0.010696,-0.005357,-85.830404,0.010696,
1750,740,-2.907589,-12.980300,0.999996,0.000228,-0.005420,0.010477,-0.000741,0.010511,-0.005454,-87.337733,0.010514,
1640,160,-0.563275,-19.079025,0.999996,0.000230,-0.002180,0.008484,-0.001580,0.008713,-0.002409,-81.748196,0.008998,
1180,1410,0.120715,-4.189017,0.999997,0.000210,-0.002655,0.005801,0.001415,0.006031,-0.002886,80.745970,0.006033,
1690,1690,-1.467378,-3.109052,0.999995,0.000260,-0.004491,0.009761,0.000053,0.009761,-0.004491,89.788458,0.009771,
870,960,2.915547,-10.811408,0.999996,0.000254,-0.004259,0.010951,0.001054,0.011024,-0.004332,86.056193,0.011108,
1390,1850,-0.203020,-1.218282,0.999998,0.000167,-0.001392,0.007074,0.000330,0.007087,-0.001405,87.769667,0.007505,
870,1980,0.182084,-0.389825,0.999997,0.000206,-0.001013,0.007243,-0.001481,0.007500,-0.001271,-80.131271,0.008028,
1290,1970,-0.026844,-0.397435,0.999998,0.000173,-0.000340,0.006191,0.000175,0.006196,-0.000344,88.464821,0.006964,
1260,370,-0.063376,-17.839303,0.999998,0.000159,-0.002187,0.007074,0.000190,0.007078,-0.002191,88.826749,0.007247,
1040,1450,0.633816,-4.484292,0.999996,0.000271,-0.004633,0.008898,0.002032,0.009197,-0.004932,81.640932,0.009205,
1660,2000,-0.151438,-0.255504,0.999997,0.000191,-0.000983,0.007332,0.001922,0.007755,-0.001406,77.591597,0.008263,
880,570,1.420897,-15.331362,0.999994,0.000278,-0.005542,0.010426,-0.000775,0.010463,-0.005579,-87.229312,0.010471,
1590,300,-0.877763,-17.921248,0.999997,0.000215,-0.003707,0.008958,-0.000222,0.008962,-0.003711,-88.993885,0.009006,
1090,880,1.126842,-13.488822,0.999994,0.000294,-0.004665,0.008774,-0.004734,0.010274,-0.006165,-72.415891,0.010342,
1480,1030,-2.611958,-10.047586,0.999993,0.000332,-0.004238,0.013703,0.000026,0.013703,-0.004238,89.917952,0.014032,
1730,1610,-1.881481,-4.033841,0.999996,0.000241,-0.004985,0.010119,-0.000206,0.010121,-0.004987,-89.219648,0.010122,
930,820,1.902106,-12.651436,0.999996,0.000244,-0.007180,0.012762,0.000368,0.012768,-0.007187,88.944138,0.012802,
1160,310,0.133137,-18.250107,0.999998,0.000157,-0.001853,0.007125,-0.000028,0.007125,-0.001854,-89.823696,0.007393,
1190,90,0.021692,-19.731755,0.999998,0.000165,-0.000379,0.006160,0.000097,0.006161,-0.000380,89.153877,0.006905,
1560,1960,-0.202913,-0.519656,0.999997,0.000194,-0.000960,0.007153,0.001250,0.007341,-0.001148,81.434373,0.007898,
1820,610,-2.825659,-14.142759,0.999996,0.000222,-0.005170,0.010183,-0.000142,0.010184,-0.005172,-89.470514,0.010185,
910,110,0.238535,-19.535708,0.999998,0.000186,-0.000979,0.007379,0.001239,0.007558,-0.001159,81.742919,0.008142,
1830,1240,-3.584021,-8.110180,0.999995,0.000247,-0.004795,0.009569,0.000642,0.009598,-0.004824,87.444548,0.009598,
1810,520,-2.499077,-15.097323,0.999996,0.000234,-0.005134,0.010174,0.000105,0.010174,-0.005135,89.605573,0.010174,
1130,750,0.283380,-15.087105,0.999996,0.000269,-0.004327,0.006564,-0.003886,0.007808,-0.005571,-72.242514,0.008042,
1900,1850,-1.831273,-2.245584,0.999997,0.000000,-0.004821,0.009648,0.000337,0.009656,-0.004829,88.667874,0.009656,
1190,30,0.005151,-20.096887,0.999999,0.000000,0.000039,0.005983,0.000102,0.005985,0.000037,89.018179,0.006932,
1240,700,-0.016928,-15.773607,0.999998,0.000166,-0.002029,0.004264,0.000375,0.004286,-0.002052,86.600606,0.004287,
1370,1860,-0.165273,-1.137601,0.999998,0.000172,-0.001234,0.006944,0.000282,0.006954,-0.001244,88.025569,0.007417,
1100,710,0.398076,-15.136001,0.999993,0.000311,-0.004803,0.007926,-0.003423,0.008789,-0.005665,-75.864147,0.008910,
650,640,2.889579,-13.855242,0.999998,0.000192,-0.005191,0.010230,0.000224,0.010233,-0.005194,89.167286,0.010233,
590,890,3.997395,-11.269589,0.999996,0.000231,-0.004280,0.008735,0.000240,0.008739,-0.004284,88.944372,0.008740,
1070,1780,0.285988,-1.729297,0.999997,0.000190,-0.001992,0.007443,-0.000097,0.007444,-0.001993,-89.410969,0.007707,
700,960,3.661648,-10.727520,0.999995,0.000258,-0.004448,0.009647,0.000570,0.009670,-0.004471,87.688399,0.009679,
1440,1310,-0.904611,-5.972660,0.999996,0.000235,-0.006955,0.011142,-0.002637,0.011518,-0.007331,-81.875883,0.011661,
1690,1670,-1.520508,-3.302675,0.999996,0.000235,-0.004592,0.009870,-0.000059,0.009870,-0.004592,-89.767787,0.009878,
1000,80,0.100052,-19.769136,0.999998,0.000173,-0.000411,0.006621,0.000796,0.006710,-0.000500,83.623790,0.007476,
1860,780,-3.609069,-12.318731,0.999996,0.000228,-0.004795,0.009724,-0.000429,0.009736,-0.004808,-88.308023,0.009737,
1080,1780,0.265575,-1.719869,0.999997,0.000193,-0.001868,0.007387,-0.000128,0.007388,-0.001870,-89.209232,0.007683,
1170,120,0.038988,-19.541490,0.999998,0.000181,-0.000564,0.006390,0.000180,0.006394,-0.000569,88.516548,0.007078,
1220,1510,0.027593,-3.524345,0.999998,0.000183,-0.002505,0.006523,0.000288,0.006532,-0.002514,88.174856,0.006589,
850,960,3.000691,-10.796502,0.999995,0.000242,-0.004247,0.010737,0.001032,0.010807,-0.004318,86.077409,0.010880,
1290,1950,-0.028723,-0.521996,0.999998,0.000167,-0.000437,0.006313,0.000173,0.006317,-0.000441,88.536439,0.007054,
870,1290,2.063386,-7.059106,0.999996,0.000233,-0.006625,0.011878,-0.000401,0.011887,-0.006633,-88.757987,0.011914,
1820,920,-3.831551,-11.070018,0.999996,0.000243,-0.004502,0.009275,-0.000599,0.009301,-0.004528,-87.513718,0.009303,
1630,440,-1.379482,-16.488601,0.999995,0.000257,-0.004754,0.009863,0.000370,0.009873,-0.004764,88.550237,0.009875,
660,500,2.405405,-15.324550,0.999997,0.000243,-0.005139,0.010225,-0.000139,0.010227,-0.005141,-89.482304,0.010227,
1040,880,1.452416,-12.671861,0.999992,0.000360,-0.007090,0.013792,-0.002340,0.014051,-0.007349,-83.682743,0.014056,
1270,60,-0.009673,-19.916797,0.999998,0.000138,-0.000203,0.006074,-0.000115,0.006076,-0.000205,-88.949725,0.006900,
1380,250,-0.237114,-18.622994,0.999997,0.000201,-0.001660,0.007242,-0.000161,0.007245,-0.001663,-88.965210,0.007590,
1800,610,-2.723027,-14.201383,0.999995,0.000261,-0.005211,0.010272,-0.000145,0.010274,-0.005212,-89.465074,0.010274,
950,1230,1.779635,-7.477221,0.999994,0.000298,-0.007422,0.013005,-0.000101,0.013005,-0.007422,-89.716760,0.013048,
1340,1600,-0.280841,-3.016747,0.999998,0.000193,-0.002773,0.007372,-0.000677,0.007417,-0.002818,-86.201215,0.007488,
1130,1720,0.208840,-2.115159,0.999998,0.000165,-0.002304,0.007271,0.000293,0.007280,-0.002313,88.249369,0.007439,
1480,1140,-2.122623,-8.513413,0.999994,0.000287,-0.006378,0.013870,0.000595,0.013887,-0.006395,88.318980,0.013901,
1900,1840,-1.882933,-2.342765,0.999998,0.000000,-0.004817,0.009586,0.000308,0.009593,-0.004823,88.775821,0.009593,
1390,1870,-0.177490,-1.077778,0.999998,0.000159,-0.001239,0.006910,0.000344,0.006924,-0.001254,87.588481,0.007379,
1040,30,0.020168,-20.092601,0.999998,0.000000,-0.000217,0.006179,0.000507,0.006219,-0.000257,85.493778,0.007037,
620,60,0.461842,-19.718797,0.999994,0.000280,-0.004330,0.010251,0.002816,0.010776,-0.004855,79.441101,0.010794,
1650,2010,-0.104367,-0.180832,0.999997,0.000221,-0.000557,0.007137,0.001882,0.007572,-0.000993,76.963094,0.008231,
910,90,0.186917,-19.678286,0.999998,0.000160,-0.000763,0.007041,0.001227,0.007230,-0.000951,81.271343,0.007857,
1070,180,0.176004,-19.115379,0.999998,0.000167,-0.001247,0.006908,0.000343,0.006923,-0.001262,87.596208,0.007374,
590,270,2.006341,-17.396843,0.999997,0.000221,-0.004783,0.009835,0.000078,0.009835,-0.004783,89.693800,0.009836,
1510,1100,-2.532382,-9.166647,0.999994,0.000272,-0.004779,0.012706,0.001183,0.012785,-0.004859,86.146844,0.012907,
1880,1420,-3.211163,-6.456647,0.999994,0.000293,-0.005041,0.010119,0.000112,0.010119,-0.005042,89.575260,0.010119,
580,890,4.040030,-11.250958,0.999997,0.000217,-0.004213,0.008649,0.000154,0.008651,-0.004215,89.312743,0.008652,
1610,1110,-2.949019,-9.200603,0.999997,0.000221,-0.004446,0.010868,0.001148,0.010954,-0.004531,85.738329,0.011008,
1770,1930,-0.761591,-0.952784,0.999996,0.000237,-0.003584,0.009686,0.002332,0.010084,-0.003982,80.316669,0.010159,
930,800,1.801479,-12.905393,0.999995,0.000257,-0.007252,0.012577,0.000061,0.012577,-0.007252,89.825075,0.012626,
1160,1410,0.176861,-4.253564,0.999997,0.000208,-0.002889,0.006182,0.001766,0.006513,-0.003221,79.361330,0.006514,
1730,1590,-1.935714,-4.240048,0.999996,0.000236,-0.005070,0.010165,-0.000246,0.010169,-0.005074,-89.074987,0.010169,
700,940,3.616854,-10.925835,0.999996,0.000243,-0.004539,0.009741,0.000790,0.009785,-0.004583,86.842584,0.009792,
1070,540,0.478195,-16.349196,0.999996,0.000221,-0.003675,0.008089,-0.001453,0.008266,-0.003852,-83.061759,0.008272,
1420,1310,-0.769285,-5.814446,0.999994,0.000283,-0.006687,0.010601,-0.003080,0.011134,-0.007219,-80.193137,0.011296,
1080,1760,0.289045,-1.870901,0.999997,0.000197,-0.002019,0.007424,-0.000014,0.007424,-0.002019,-89.914903,0.007677,
970,1920,0.227663,-0.778880,0.999998,0.000167,-0.001408,0.007120,-0.000767,0.007189,-0.001476,-84.903756,0.007594,
1430,1560,-0.590984,-3.552142,0.999996,0.000227,-0.003833,0.008475,-0.001187,0.008589,-0.003946,-84.540364,0.008598,
1150,120,0.049118,-19.540371,0.999998,0.000156,-0.000616,0.006397,0.000209,0.006403,-0.000622,88.296381,0.007062,
820,1940,0.383381,-0.711211,0.999997,0.000226,-0.001569,0.008056,-0.001787,0.008378,-0.001890,-79.812771,0.008788,
1890,380,-2.484798,-16.251166,0.999997,0.000246,-0.004990,0.009794,0.000108,0.009795,-0.004991,89.582490,0.009795,
1800,1490,-2.583208,-5.493098,0.999996,0.000237,-0.005175,0.010273,-0.000004,0.010273,-0.005175,-89.985787,0.010273,
780,1640,1.569596,-3.580901,0.999995,0.000240,-0.004786,0.009969,0.000184,0.009972,-0.004788,89.284069,0.009974,
1290,1930,-0.041363,-0.649898,0.999998,0.000144,-0.000577,0.006376,0.000176,0.006380,-0.000581,88.548711,0.007056,
880,1790,0.757161,-1.911787,0.999997,0.000188,-0.003385,0.008699,-0.000427,0.008714,-0.003400,-87.980113,0.008784,
580,1070,4.196963,-9.719402,0.999997,0.000205,-0.003911,0.008278,-0.000084,0.008279,-0.003911,-89.606327,0.008283,
1560,1940,-0.260168,-0.664028,0.999997,0.000211,-0.001164,0.007450,0.001273,0.007634,-0.001348,81.767116,0.008149,
1570,1980,-0.155956,-0.380586,0.999998,0.000164,-0.000848,0.007067,0.001321,0.007282,-0.001063,80.771384,0.007867,
1440,1190,-1.460498,-7.477456,0.999992,0.000361,-0.007639,0.013772,-0.001436,0.013868,-0.007735,-86.178948,0.013899,
990,1260,1.323574,-6.829873,0.999990,0.000363,-0.007778,0.012633,0.001366,0.012724,-0.007869,86.188725,0.012843,
1130,730,0.270050,-15.220692,0.999995,0.000276,-0.004010,0.006597,-0.003594,0.007700,-0.005113,-72.937772,0.007837,
1550,580,-1.259115,-15.356396,0.999996,0.000261,-0.005456,0.010269,0.001014,0.010334,-0.005521,86.326422,0.010342,
870,1270,2.148076,-7.294458,0.999995,0.000254,-0.006597,0.011931,-0.000605,0.011951,-0.006617,-88.131309,0.011974,
1820,900,-3.787270,-11.256975,0.999996,0.000232,-0.004532,0.009255,-0.000528,0.009275,-0.004552,-87.811271,0.009275,
1860,1200,-3.848540,-8.548649,0.999996,0.000219,-0.004527,0.009342,0.000500,0.009360,-0.004545,87.937665,0.009361,
1190,510,0.106536,-16.846760,0.999998,0.000167,-0.002529,0.006813,-0.000375,0.006828,-0.002544,-87.704673,0.006902,
1330,1860,-0.114156,-1.120165,0.999998,0.000166,-0.001336,0.006771,0.000141,0.006773,-0.001338,89.005704,0.007175,
1570,740,-1.810382,-13.486894,0.999996,0.000294,-0.006814,0.011902,0.000126,0.011903,-0.006815,89.612780,0.011945,
1090,860,0.937820,-13.662298,0.999992,0.000368,-0.005938,0.009547,-0.004479,0.010750,-0.007141,-74.975411,0.010941,
1900,1830,-1.934216,-2.440003,0.999997,0.000000,-0.004819,0.009632,0.000238,0.009636,-0.004823,89.055455,0.009636,
1110,1160,1.235156,-6.348556,0.999994,0.000000,-0.002210,0.006830,0.005310,0.009283,-0.004663,65.203174,0.009283,
1560,930,-2.653177,-11.192264,0.999995,0.000282,-0.004943,0.011787,-0.001444,0.011911,-0.005067,-85.101840,0.011955,
1040,840,1.158873,-13.197628,0.999993,0.000294,-0.007713,0.012676,-0.002435,0.012962,-0.008000,-83.284090,0.013080,
1050,180,0.204281,-19.103998,0.999997,0.000191,-0.001538,0.006997,0.000351,0.007012,-0.001552,87.651708,0.007366,
950,1210,1.892791,-7.740430,0.999995,0.000293,-0.007218,0.013103,-0.000412,0.013111,-0.007226,-88.838340,0.013134,
620,1730,2.069787,-3.192614,0.999997,0.000224,-0.004809,0.009958,0.000077,0.009959,-0.004809,89.701659,0.009961,
1480,1120,-2.259888,-8.786162,0.999994,0.000281,-0.005779,0.013993,0.000733,0.014020,-0.005806,87.880627,0.014088,
1770,1910,-0.883252,-1.134553,0.999997,0.000206,-0.003902,0.009701,0.001934,0.009971,-0.004172,82.062263,0.010015,
1080,250,0.242260,-18.622843,0.999996,0.000222,-0.001682,0.007279,0.000181,0.007282,-0.001686,88.845610,0.007624,
660,480,2.349115,-15.529508,0.999996,0.000230,-0.005099,0.010210,-0.000149,0.010211,-0.005100,-89.443217,0.010211,
1450,1060,-2.411110,-9.520849,0.999992,0.000329,-0.005886,0.016802,-0.000487,0.016813,-0.005896,-88.770285,0.017061,
1250,60,-0.005600,-19.916533,0.999998,0.000167,-0.000314,0.006065,-0.000042,0.006065,-0.000315,-89.625326,0.006829,
1610,1090,-3.000312,-9.414088,0.999996,0.000241,-0.004157,0.010775,0.001016,0.010844,-0.004226,86.125450,0.010932,
1640,2010,-0.101767,-0.180324,0.999997,0.000225,-0.000300,0.007080,0.001843,0.007515,-0.000735,76.727486,0.008286,
1220,1410,0.025459,-4.126047,0.999998,0.000174,-0.002282,0.005356,0.000394,0.005376,-0.002302,87.054110,0.005395,
1340,1580,-0.286067,-3.161672,0.999997,0.000184,-0.002836,0.007397,-0.000785,0.007456,-0.002896,-85.640109,0.007518,
1690,1650,-1.576453,-3.503470,0.999996,0.000229,-0.004728,0.009966,-0.000121,0.009967,-0.004729,-89.528099,0.009972,
1240,1450,-0.020114,-3.896969,0.999998,0.000150,-0.002397,0.005918,-0.000276,0.005928,-0.002406,-88.103434,0.005962,
610,1990,0.556978,-0.531407,0.999994,0.000305,-0.004346,0.010942,-0.002933,0.011486,-0.004890,-79.505120,0.011528,
1390,1890,-0.155327,-0.942154,0.999998,0.000163,-0.001088,0.006816,0.000398,0.006836,-0.001108,87.122029,0.007338,
930,1580,0.999796,-3.708241,0.999996,0.000250,-0.004507,0.009425,0.000854,0.009477,-0.004559,86.505178,0.009479,
1810,680,-3.007750,-13.452273,0.999997,0.000205,-0.005166,0.010199,-0.000391,0.010209,-0.005176,-88.543026,0.010209,
1730,1570,-1.989495,-4.444519,0.999997,0.000209,-0.005129,0.010254,-0.000240,0.010257,-0.005133,-89.107166,0.010257,
1420,1190,-1.313778,-7.247287,0.999995,0.000249,-0.007263,0.013283,-0.002507,0.013585,-0.007564,-83.141408,0.013614,
1820,1970,-0.596276,-0.626866,0.999991,0.000334,-0.003236,0.010317,0.003189,0.011030,-0.003949,77.398407,0.011177,
1290,1910,-0.045342,-0.778215,0.999998,0.000142,-0.000702,0.006457,0.000164,0.006461,-0.000706,88.686754,0.007088,
1780,1310,-3.085123,-7.300989,0.999996,0.000210,-0.005237,0.010308,0.000683,0.010338,-0.005267,87.487878,0.010339,
950,1920,0.259766,-0.791985,0.999997,0.000201,-0.001448,0.007242,-0.000876,0.007329,-0.001535,-84.303111,0.007730,
1090,440,0.364550,-17.201139,0.999997,0.000215,-0.002995,0.007711,-0.000738,0.007762,-0.003046,-86.076935,0.007821,
1820,880,-3.741560,-11.441294,0.999996,0.000238,-0.004624,0.009485,-0.000692,0.009519,-0.004658,-87.197440,0.009520,
870,1250,2.237100,-7.539001,0.999994,0.000289,-0.006527,0.012030,-0.000829,0.012067,-0.006564,-87.448247,0.012082,
1240,680,-0.017041,-15.862070,0.999998,0.000176,-0.002094,0.004674,0.000337,0.004691,-0.002110,87.158336,0.004699,
830,420,1.345990,-16.678732,0.999995,0.000258,-0.004677,0.009816,-0.000309,0.009823,-0.004683,-88.779724,0.009826,
1440,1160,-1.693318,-7.910212,0.999992,0.000347,-0.007011,0.014202,-0.001203,0.014270,-0.007079,-86.764081,0.014270,
1140,310,0.171910,-18.237071,0.999998,0.000146,-0.002098,0.007199,-0.000169,0.007202,-0.002101,-88.956246,0.007407,
1740,610,-2.404432,-14.383940,0.999995,0.000253,-0.005458,0.010513,-0.000104,0.010514,-0.005458,-89.628493,0.010516,
1010,680,0.865089,-14.795261,0.999994,0.000269,-0.006093,0.010316,-0.002308,0.010634,-0.006411,-82.143776,0.010709,
1740,50,-0.191430,-19.914889,0.999997,0.000194,-0.001176,0.008028,-0.002847,0.008838,-0.001986,-74.127836,0.009274,
740,1240,3.040863,-7.921638,0.999996,0.000229,-0.005307,0.010527,-0.001076,0.010600,-0.005380,-86.129207,0.010601,
1520,380,-0.796658,-17.357190,0.999996,0.000233,-0.003622,0.008741,0.000350,0.008751,-0.003631,88.379575,0.008793,
1900,1820,-1.984208,-2.535853,0.999997,0.000000,-0.004787,0.009638,0.000137,0.009640,-0.004789,89.455856,0.009640,
1640,140,-0.484580,-19.246051,0.999997,0.000232,-0.001892,0.008214,-0.001654,0.008477,-0.002156,-80.938996,0.008812,
1110,910,1.389312,-13.692495,0.999990,0.000000,-0.002051,0.007860,-0.006459,0.011046,-0.005237,-63.747982,0.011051,
1860,1220,-3.786360,-8.359059,0.999996,0.000231,-0.004607,0.009352,0.000469,0.009368,-0.004623,88.079215,0.009368,
1870,380,-2.384282,-16.321091,0.999996,0.000235,-0.004981,0.009901,0.000107,0.009901,-0.004982,89.588045,0.009901,
1310,180,-0.079492,-19.148961,0.999998,0.000198,-0.001072,0.006620,-0.000145,0.006622,-0.001074,-88.923951,0.007108,
1310,1860,-0.087961,-1.111743,0.999998,0.000150,-0.001125,0.006710,0.000153,0.006713,-0.001128,88.878196,0.007189,
800,2010,0.113361,-0.185516,0.999998,0.000171,-0.000835,0.007179,-0.001903,0.007608,-0.001264,-77.295459,0.008153,
1040,820,1.056015,-13.454173,0.999994,0.000300,-0.007822,0.012228,-0.002630,0.012567,-0.008161,-82.649777,0.012753,
780,1620,1.620735,-3.784412,0.999996,0.000232,-0.004906,0.010046,0.000271,0.010051,-0.004911,88.963748,0.010052,
1690,1630,-1.628305,-3.704541,0.999996,0.000245,-0.004862,0.010037,-0.000213,0.010040,-0.004865,-89.180669,0.010042,
1530,1100,-2.628333,-9.216541,0.999994,0.000300,-0.004564,0.012156,0.001241,0.012248,-0.004655,85.778123,0.012365,
1340,1560,-0.290026,-3.313841,0.999997,0.000201,-0.002907,0.007413,-0.000876,0.007487,-0.002980,-85.182953,0.007539,
710,340,1.682111,-17.114479,0.999996,0.000237,-0.004825,0.010009,0.000040,0.010009,-0.004825,89.845879,0.010011,
860,1790,0.826020,-1.950104,0.999997,0.000212,-0.003422,0.008844,-0.000521,0.008866,-0.003444,-87.573717,0.008939,
820,1920,0.470297,-0.875084,0.999997,0.000224,-0.001911,0.008152,-0.001666,0.008420,-0.002180,-80.839415,0.008741,
1410,1660,-0.449171,-2.685530,0.999995,0.000254,-0.003140,0.007957,-0.000642,0.007994,-0.003177,-86.699060,0.008050,
610,1970,0.748727,-0.777191,0.999996,0.000244,-0.004590,0.011148,-0.002529,0.011545,-0.004986,-81.089981,0.011580,
1400,380,-0.403459,-17.617526,0.999997,0.000215,-0.002919,0.007884,0.000523,0.007909,-0.002944,87.234197,0.007995,
850,1080,3.039185,-9.525203,0.999997,0.000238,-0.004067,0.010715,-0.000889,0.010768,-0.004120,-86.571736,0.010866,
1610,1070,-3.049636,-9.632304,0.999996,0.000246,-0.003978,0.010621,0.000691,0.010654,-0.004010,87.294683,0.010762,
1190,530,0.105702,-16.711164,0.999998,0.000162,-0.002552,0.006754,-0.000455,0.006776,-0.002574,-87.208787,0.006841,
600,1730,2.164101,-3.267227,0.999997,0.000206,-0.004866,0.009912,0.000116,0.009913,-0.004867,89.550009,0.009913,
990,1020,2.578213,-10.183437,0.999991,0.000373,-0.004520,0.014336,0.000059,0.014336,-0.004520,89.820618,0.014659,
1560,1920,-0.321429,-0.817141,0.999997,0.000196,-0.001435,0.007582,0.001179,0.007733,-0.001587,82.675370,0.008169,
1480,1100,-2.386163,-9.073551,0.999993,0.000294,-0.005245,0.013939,0.000759,0.013969,-0.005275,87.737389,0.014108,
1130,710,0.267873,-15.350698,0.999996,0.000233,-0.003808,0.006734,-0.003228,0.007644,-0.004718,-74.258514,0.007714,
1840,1250,-3.598474,-8.034915,0.999996,0.000230,-0.004769,0.009574,0.000579,0.009597,-0.004793,87.692708,0.009597,
870,1230,2.329705,-7.778388,0.999993,0.000306,-0.006382,0.011994,-0.001048,0.012053,-0.006441,-86.747830,0.012063,
1070,1460,0.496727,-4.253817,0.999996,0.000224,-0.004187,0.008302,0.002080,0.008639,-0.004525,80.786979,0.008642,
1820,860,-3.676310,-11.637156,0.999996,0.000252,-0.004710,0.009652,-0.000784,0.009695,-0.004753,-86.886561,0.009696,
1290,1890,-0.057785,-0.910443,0.999998,0.000158,-0.000861,0.006558,0.000155,0.006562,-0.000864,88.801423,0.007130,
1730,1550,-2.044724,-4.651091,0.999997,0.000212,-0.005160,0.010280,-0.000232,0.010284,-0.005164,-89.137617,0.010284,
810,420,1.440670,-16.617088,0.999996,0.000248,-0.004695,0.009856,-0.000254,0.009861,-0.004700,-88.999023,0.009864,
1890,680,-3.411641,-13.215560,0.999995,0.000266,-0.004964,0.010080,-0.000103,0.010080,-0.004965,-89.606291,0.010081,
670,1980,0.459523,-0.497696,0.999996,0.000243,-0.001643,0.009762,-0.003915,0.010977,-0.002858,-72.763392,0.011389,
1350,540,-0.325487,-16.492251,0.999996,0.000233,-0.003264,0.007500,0.001342,0.007665,-0.003429,83.001160,0.007679,
1780,380,-1.940756,-16.623357,0.999997,0.000226,-0.004876,0.010100,0.000055,0.010100,-0.004877,89.788036,0.010102,
1250,1920,-0.013718,-0.710473,0.999998,0.000153,-0.000794,0.006376,-0.000004,0.006376,-0.000794,-89.967930,0.006949,
990,1340,1.060452,-5.870485,0.999995,0.000285,-0.006790,0.011234,0.001967,0.011446,-0.007002,83.843841,0.011541,
1860,1240,-3.723564,-8.174188,0.999996,0.000239,-0.004651,0.009318,0.000414,0.009331,-0.004663,88.302638,0.009331,
1440,1140,-1.854862,-8.198056,0.999992,0.000337,-0.006608,0.014714,-0.001189,0.014780,-0.006674,-86.819013,0.014803,
1070,1080,1.907786,-8.459332,0.999963,0.000000,-0.007945,0.023617,0.007644,0.025371,-0.009699,77.077429,0.025605,
1740,590,-2.341133,-14.592148,0.999993,0.000295,-0.005428,0.010449,-0.000011,0.010449,-0.005428,-89.959280,0.010452,
1570,1960,-0.212554,-0.522395,0.999998,0.000187,-0.001165,0.007210,0.001277,0.007401,-0.001356,81.519570,0.007881,
1850,400,-2.346620,-16.188276,0.999997,0.000216,-0.004976,0.010028,0.000140,0.010029,-0.004977,89.466740,0.010030,
790,1700,1.360088,-2.962258,0.999995,0.000249,-0.004539,0.009694,-0.000004,0.009694,-0.004539,-89.982900,0.009701,
1390,1420,-0.497113,-4.577956,0.999995,0.000246,-0.004558,0.008343,-0.002491,0.008807,-0.005023,-79.441812,0.008836,
950,640,1.158273,-14.890148,0.999996,0.000244,-0.005942,0.010485,-0.001410,0.010605,-0.006062,-85.130645,0.010642,
1040,800,0.955994,-13.697228,0.999993,0.000301,-0.007626,0.011821,-0.002803,0.012217,-0.008022,-81.959634,0.012415,
1240,660,-0.019033,-15.960836,0.999998,0.000177,-0.002186,0.005067,0.000310,0.005080,-0.002199,87.557361,0.005095,
1230,1860,0.001790,-1.099631,0.999998,0.000168,-0.001244,0.006625,-0.000006,0.006625,-0.001244,-89.957891,0.007043,
940,1130,2.439737,-8.826796,0.999993,0.000319,-0.005391,0.012626,-0.001359,0.012728,-0.005493,-85.711817,0.012768,
1630,1760,-1.010660,-2.278718,0.999997,0.000214,-0.003595,0.009293,0.000468,0.009310,-0.003612,87.922488,0.009388,
1340,1540,-0.291571,-3.460193,0.999997,0.000207,-0.002976,0.007361,-0.000994,0.007456,-0.003071,-84.559850,0.007495,
1130,180,0.106385,-19.140046,0.999997,0.000197,-0.001282,0.006687,0.000133,0.006689,-0.001284,89.044079,0.007100,
1640,1190,-2.788294,-8.342882,0.999994,0.000273,-0.005517,0.011256,0.001357,0.011365,-0.005626,85.405165,0.011365,
1200,1410,0.071935,-4.149011,0.999998,0.000150,-0.002369,0.005522,0.000806,0.005603,-0.002451,84.228469,0.005618,
610,1950,0.930355,-0.985208,0.999995,0.000248,-0.004723,0.010652,-0.001887,0.010880,-0.004951,-83.104412,0.010895,
1400,360,-0.384847,-17.776566,0.999996,0.000229,-0.002741,0.007772,0.000364,0.007785,-0.002753,88.021788,0.007895,
1690,1610,-1.680580,-3.906138,0.999996,0.000240,-0.004992,0.010103,-0.000260,0.010108,-0.004997,-89.013849,0.010108,
950,1630,0.840760,-3.185166,0.999997,0.000223,-0.003835,0.008929,0.000564,0.008954,-0.003859,87.474996,0.008982,
1610,1050,-3.071502,-9.841557,0.999996,0.000237,-0.003838,0.010490,0.000385,0.010501,-0.003848,88.461077,0.010625,
830,410,1.319967,-16.777779,0.999995,0.000263,-0.004624,0.009750,-0.000282,0.009755,-0.004629,-88.876070,0.009759,
600,1710,2.232481,-3.465933,0.999998,0.000207,-0.004882,0.009898,0.000138,0.009899,-0.004883,89.465127,0.009900,
1480,1080,-2.489474,-9.345160,0.999993,0.000297,-0.004771,0.013737,0.000589,0.013756,-0.004790,88.177751,0.013966,
1390,1660,-0.388408,-2.642957,0.999996,0.000265,-0.002868,0.007785,-0.000556,0.007814,-0.002897,-87.018134,0.007900,
1820,1060,-3.941725,-9.780964,0.999997,0.000227,-0.004283,0.009073,0.000263,0.009078,-0.004288,88.871534,0.009083,
1650,100,-0.333912,-19.566183,0.999997,0.000232,-0.001511,0.007871,-0.001853,0.008224,-0.001864,-79.224679,0.008624,
780,1600,1.673122,-3.987812,0.999996,0.000241,-0.004990,0.010088,0.000299,0.010094,-0.004995,88.864329,0.010094,
1000,100,0.133047,-19.635772,0.999998,0.000196,-0.000620,0.006758,0.000751,0.006833,-0.000695,84.243154,0.007521,
1290,1870,-0.062010,-1.039565,0.999998,0.000152,-0.000989,0.006615,0.000122,0.006617,-0.000991,89.082134,0.007138,
870,1210,2.426318,-8.020862,0.999993,0.000303,-0.006162,0.011901,-0.001230,0.011984,-0.006245,-86.123075,0.011988,
1890,1430,-3.228463,-6.386135,0.999995,0.000263,-0.005037,0.010131,0.000101,0.010132,-0.005038,89.618761,0.010132,
1780,350,-1.843541,-16.927875,0.999996,0.000217,-0.004805,0.010042,-0.000032,0.010042,-0.004805,-89.876405,0.010045,
1890,670,-3.378039,-13.317119,0.999996,0.000246,-0.004995,0.010129,-0.000096,0.010130,-0.004995,-89.637543,0.010130,
670,1960,0.621986,-0.693813,0.999996,0.000285,-0.002410,0.009590,-0.003271,0.010423,-0.003244,-75.701378,0.010668,
1730,1530,-2.098607,-4.856724,0.999995,0.000237,-0.005222,0.010305,-0.000199,0.010307,-0.005225,-89.267678,0.010308,
1720,610,-2.292765,-14.440628,0.999996,0.000239,-0.005555,0.010552,-0.000065,0.010553,-0.005555,-89.767795,0.010558,
1440,1120,-2.017369,-8.489377,0.999993,0.000312,-0.006345,0.015043,-0.001317,0.015124,-0.006426,-86.488741,0.015181,
1070,980,1.932667,-11.565605,0.999980,0.000000,-0.007783,0.023871,-0.006757,0.025253,-0.009165,-78.440016,0.025567,
1010,1920,0.187205,-0.762327,0.999998,0.000186,-0.000979,0.006895,-0.000646,0.006947,-0.001032,-85.342684,0.007498,
1150,720,0.199551,-15.416574,0.999997,0.000212,-0.003361,0.005745,-0.003086,0.006692,-0.004308,-72.934188,0.006784,
970,1340,1.196512,-5.994620,0.999995,0.000273,-0.006831,0.011417,0.001583,0.011553,-0.006967,85.078908,0.011634,
1370,1580,-0.372691,-3.223557,0.999996,0.000226,-0.003191,0.007754,-0.000992,0.007843,-0.003280,-84.861898,0.007878,
1860,1260,-3.661178,-7.987189,0.999996,0.000248,-0.004733,0.009492,0.000417,0.009504,-0.004745,88.322278,0.009504,
1850,380,-2.285954,-16.390098,0.999997,0.000207,-0.004925,0.010022,0.000121,0.010023,-0.004926,89.535894,0.010024,
870,1480,1.488602,-4.918709,0.999994,0.000293,-0.005576,0.010470,0.000708,0.010501,-0.005608,87.477660,0.010509,
710,1540,2.191193,-4.828668,0.999996,0.000223,-0.005190,0.010274,0.000149,0.010276,-0.005192,89.446679,0.010276,
650,200,1.383218,-18.351002,0.999995,0.000256,-0.004491,0.010277,0.001086,0.010356,-0.004571,85.816375,0.010380,
740,1090,3.489020,-9.462407,0.999995,0.000247,-0.004418,0.009919,-0.000668,0.009951,-0.004449,-87.338631,0.009969,
1340,1520,-0.294294,-3.604298,0.999997,0.000213,-0.003074,0.007338,-0.001139,0.007461,-0.003197,-83.829058,0.007486,
940,450,0.914105,-16.722663,0.999998,0.000193,-0.004256,0.009189,-0.000744,0.009230,-0.004297,-86.843932,0.009238,
1040,780,0.883561,-13.930520,0.999993,0.000305,-0.007333,0.011450,-0.002980,0.011912,-0.007795,-81.197935,0.012100,
1630,1740,-1.066588,-2.463593,0.999997,0.000236,-0.003782,0.009307,0.000250,0.009312,-0.003786,88.904196,0.009366,
740,1220,3.116602,-8.134750,0.999996,0.000246,-0.005205,0.010524,-0.001131,0.010605,-0.005286,-85.908435,0.010605,
1490,1100,-2.433515,-9.108983,0.999994,0.000265,-0.005060,0.013498,0.000953,0.013547,-0.005109,87.068729,0.013683,
1640,120,-0.400997,-19.409262,0.999996,0.000232,-0.001621,0.008070,-0.001767,0.008382,-0.001933,-79.983292,0.008778,
1810,1250,-3.453330,-7.973154,0.999996,0.000242,-0.004942,0.009886,0.000769,0.009926,-0.004982,87.040184,0.009926,
870,1190,2.523600,-8.258874,0.999993,0.000309,-0.005905,0.011794,-0.001319,0.011892,-0.006002,-85.760222,0.011892,
1900,1810,-2.027654,-2.632576,0.999997,0.000000,-0.004787,0.009621,0.000090,0.009622,-0.004788,89.641110,0.009622,
1000,120,0.169499,-19.499311,0.999998,0.000200,-0.000846,0.006927,0.000761,0.007001,-0.000920,84.464470,0.007609,
1110,180,0.131101,-19.131123,0.999998,0.000165,-0.001173,0.006736,0.000200,0.006741,-0.001178,88.551150,0.007201,
1400,340,-0.365633,-17.930733,0.999997,0.000208,-0.002592,0.007649,0.000246,0.007655,-0.002597,88.622516,0.007786,
610,1930,1.089790,-1.200032,0.999996,0.000239,-0.004846,0.010641,-0.001428,0.010772,-0.004977,-84.776610,0.010782,
630,640,2.991009,-13.796625,0.999997,0.000207,-0.005089,0.010195,0.000189,0.010198,-0.005091,89.290892,0.010198,
1690,1810,-1.073299,-1.938979,0.999997,0.000195,-0.003912,0.009556,0.000846,0.009609,-0.003965,86.419692,0.009657,
1520,1820,-0.507356,-1.569542,0.999997,0.000202,-0.002521,0.008132,0.000515,0.008157,-0.002546,87.239102,0.008347,
1010,720,0.936258,-14.365820,0.999994,0.000304,-0.006703,0.010964,-0.002383,0.011280,-0.007018,-82.450779,0.011392,
1610,1030,-3.090098,-10.052312,0.999997,0.000243,-0.003783,0.010568,0.000060,0.010568,-0.003783,89.761851,0.010709,
1210,1860,0.026621,-1.102853,0.999999,0.000157,-0.001174,0.006642,-0.000014,0.006643,-0.001174,-89.900814,0.007090,
1730,1510,-2.156633,-5.065128,0.999995,0.000244,-0.005310,0.010370,-0.000142,0.010372,-0.005311,-89.481295,0.010373,
1880,590,-3.067552,-14.162313,0.999995,0.000261,-0.005057,0.010174,-0.000021,0.010174,-0.005057,-89.919840,0.010174,
1720,230,-1.124736,-18.305936,0.999997,0.000190,-0.003748,0.009733,-0.001127,0.009827,-0.003841,-85.255233,0.009905,
1120,1470,0.305613,-3.980429,0.999996,0.000252,-0.003435,0.007264,0.001686,0.007523,-0.003695,81.255618,0.007523,
1290,1850,-0.072222,-1.177409,0.999998,0.000160,-0.001149,0.006743,0.000126,0.006745,-0.001151,89.084548,0.007216,
1370,1560,-0.379859,-3.381180,0.999996,0.000226,-0.003331,0.007774,-0.001197,0.007902,-0.003459,-83.919073,0.007922,
1800,1950,-0.714216,-0.796124,0.999995,0.000250,-0.002790,0.009976,0.003042,0.010664,-0.003478,77.259576,0.010877,
1310,1540,-0.205135,-3.397774,0.999998,0.000184,-0.002863,0.007125,-0.000973,0.007219,-0.002957,-84.488027,0.007258,
1480,1060,-2.564663,-9.617981,0.999992,0.000321,-0.004418,0.014229,0.000378,0.014236,-0.004426,88.839840,0.014572,
1860,1700,-2.251403,-3.555400,0.999996,0.000245,-0.004887,0.009918,-0.000105,0.009919,-0.004888,-89.592283,0.009919,
780,1580,1.724953,-4.191374,0.999996,0.000230,-0.005044,0.010112,0.000316,0.010118,-0.005051,88.806364,0.010118,
1300,1730,-0.133261,-2.016792,0.999998,0.000165,-0.001942,0.007136,-0.000031,0.007136,-0.001942,-89.805853,0.007379,
1600,1250,-2.281635,-7.560783,0.999996,0.000291,-0.006465,0.011943,0.000890,0.011986,-0.006508,87.238038,0.012001,
1560,1900,-0.380919,-0.969320,0.999997,0.000202,-0.001672,0.007722,0.001143,0.007859,-0.001809,83.163804,0.008232,
1130,690,0.268440,-15.479820,0.999997,0.000224,-0.003671,0.006741,-0.002942,0.007514,-0.004445,-75.264304,0.007556,
1850,440,-2.467531,-15.787123,0.999995,0.000268,-0.005002,0.010049,0.000132,0.010050,-0.005003,89.497879,0.010050,
1190,550,0.104593,-16.576564,0.999998,0.000180,-0.002565,0.006575,-0.000499,0.006602,-0.002592,-86.881845,0.006653,
1340,1500,-0.294425,-3.751032,0.999997,0.000210,-0.003161,0.007291,-0.001300,0.007450,-0.003320,-83.015895,0.007465,
1890,660,-3.344041,-13.418534,0.999996,0.000258,-0.005022,0.010126,-0.000100,0.010127,-0.005023,-89.620641,0.010127,
850,1500,1.552909,-4.781723,0.999995,0.000262,-0.005463,0.010401,0.000583,0.010423,-0.005484,87.897266,0.010427,
650,180,1.270186,-18.558927,0.999995,0.000259,-0.004364,0.010315,0.001410,0.010449,-0.004498,84.562644,0.010483,
1040,1790,0.337666,-1.688496,0.999998,0.000215,-0.002295,0.007518,-0.000053,0.007519,-0.002295,-89.691327,0.007706,
1480,990,-2.544764,-10.612301,0.999992,0.000353,-0.004534,0.014110,-0.000390,0.014118,-0.004542,-88.803090,0.014414,
1040,760,0.821738,-14.158353,0.999995,0.000270,-0.007011,0.011009,-0.003013,0.011499,-0.007502,-80.754164,0.011676,
1550,1980,-0.141748,-0.375807,0.999998,0.000170,-0.000578,0.006982,0.001243,0.007182,-0.000778,80.896840,0.007882,
1440,1100,-2.159994,-8.794957,0.999989,0.000389,-0.006252,0.016205,-0.001484,0.016302,-0.006350,-86.235895,0.016435,
990,1920,0.205701,-0.769978,0.999998,0.000188,-0.001049,0.006989,-0.000729,0.007055,-0.001114,-84.856368,0.007585,
1130,720,0.269913,-15.284170,0.999995,0.000251,-0.003910,0.006677,-0.003413,0.007682,-0.004915,-73.593447,0.007781,
1900,1800,-2.070330,-2.730369,0.999997,0.000000,-0.004805,0.009574,0.000092,0.009574,-0.004805,89.632273,0.009574,
1070,1340,0.556606,-5.293045,0.999996,0.000237,-0.005656,0.009120,0.003349,0.009844,-0.006379,77.809098,0.009987,
870,1170,2.616921,-8.496180,0.999995,0.000290,-0.005578,0.011739,-0.001448,0.011860,-0.005698,-85.254652,0.011863,
1470,1100,-2.330738,-9.023327,0.999991,0.000325,-0.005485,0.014447,0.000416,0.014455,-0.005493,88.804301,0.014593,
1820,320,-1.940947,-17.100254,0.999996,0.000237,-0.004873,0.009972,-0.000048,0.009972,-0.004874,-89.815860,0.009973,
1090,180,0.154446,-19.121997,0.999998,0.000157,-0.001078,0.006815,0.000303,0.006827,-0.001090,87.805055,0.007335,
1680,1980,-0.271772,-0.419887,0.999996,0.000236,-0.001376,0.007746,0.002147,0.008226,-0.001856,77.398220,0.008629,
1070,1860,0.193592,-1.148990,0.999998,0.000192,-0.001327,0.007031,-0.000330,0.007044,-0.001340,-87.742145,0.007481,
1400,320,-0.345086,-18.083040,0.999996,0.000224,-0.002423,0.007622,0.000139,0.007624,-0.002425,89.205557,0.007790,
1860,1680,-2.319235,-3.754002,0.999996,0.000234,-0.004943,0.009953,-0.000075,0.009953,-0.004943,-89.711465,0.009953,
610,1910,1.239670,-1.412221,0.999996,0.000223,-0.004903,0.010389,-0.001056,0.010461,-0.004976,-86.068195,0.010465,
1780,400,-2.001063,-16.420148,0.999996,0.000218,-0.004920,0.010135,0.000129,0.010136,-0.004921,89.509880,0.010137,
1870,590,-3.017233,-14.193466,0.999996,0.000247,-0.005058,0.010161,-0.000034,0.010161,-0.005058,-89.873771,0.010161,
1720,250,-1.207640,-18.108172,0.999997,0.000216,-0.003924,0.009805,-0.000951,0.009871,-0.003990,-86.054594,0.009931,
1730,1930,-0.616332,-0.868409,0.999996,0.000233,-0.002542,0.009045,0.002375,0.009512,-0.003010,78.854477,0.009724,
1040,1470,0.622006,-4.308009,0.999996,0.000234,-0.004458,0.008786,0.001887,0.009049,-0.004722,82.046465,0.009052,
1290,1830,-0.079536,-1.311562,0.999998,0.000171,-0.001271,0.006825,0.000080,0.006826,-0.001272,89.436368,0.007260,
850,1480,1.599384,-4.991666,0.999996,0.000255,-0.005575,0.010486,0.000571,0.010506,-0.005595,87.965286,0.010514,
1290,1540,-0.147525,-3.362752,0.999997,0.000197,-0.002689,0.006957,-0.000614,0.006996,-0.002728,-86.373359,0.007052,
880,1450,1.500300,-5.198896,0.999995,0.000275,-0.005790,0.010546,0.000746,0.010580,-0.005824,87.392376,0.010598,
1480,1040,-2.602630,-9.915354,0.999993,0.000339,-0.004270,0.013958,0.000170,0.013959,-0.004271,89.466606,0.014305,
1630,1680,-1.221556,-3.034329,0.999997,0.000236,-0.004229,0.009546,-0.000007,0.009546,-0.004229,-89.971918,0.009567,
1070,970,1.896584,-11.779580,0.999980,0.000000,-0.007221,0.021895,-0.007523,0.023724,-0.009050,-76.335725,0.023945,
660,150,1.043034,-18.896458,0.999997,0.000213,-0.003806,0.010208,0.002070,0.010507,-0.004105,81.772668,0.010590,
1610,270,-0.863555,-18.154893,0.999997,0.000201,-0.003421,0.008928,-0.000527,0.008951,-0.003443,-87.559644,0.009030,
1040,740,0.779508,-14.372239,0.999995,0.000257,-0.006642,0.010622,-0.003028,0.011137,-0.007158,-80.335358,0.011287,
650,440,2.282543,-15.904907,0.999996,0.000217,-0.005054,0.010113,-0.000148,0.010114,-0.005056,-89.439700,0.010114,
780,1560,1.774580,-4.394653,0.999996,0.000235,-0.005133,0.010238,0.000326,0.010244,-0.005139,88.783693,0.010244,
1620,1190,-2.676831,-8.309870,0.999996,0.000244,-0.005621,0.011461,0.001366,0.011569,-0.005729,85.457708,0.011570,
1630,1380,-1.975162,-6.140650,0.999997,0.000223,-0.006132,0.011129,-0.000058,0.011130,-0.006132,-89.807422,0.011149,
1340,1920,-0.080076,-0.723880,0.999998,0.000143,-0.000876,0.006517,0.000224,0.006524,-0.000883,88.268738,0.007079,
1240,640,-0.019226,-16.065679,0.999998,0.000155,-0.002261,0.005400,0.000309,0.005412,-0.002274,87.695336,0.005435,
1020,1790,0.385731,-1.712243,0.999997,0.000222,-0.002238,0.007644,-0.000172,0.007647,-0.002241,-89.000569,0.007862,
1880,680,-3.362298,-13.247978,0.999997,0.000226,-0.004978,0.010068,-0.000128,0.010069,-0.004979,-89.513743,0.010069,
1560,1880,-0.438276,-1.126599,0.999997,0.000214,-0.001946,0.007860,0.001007,0.007962,-0.002048,84.195985,0.008269,
1580,1250,-2.153327,-7.499583,0.999997,0.000244,-0.006658,0.012183,0.000707,0.012210,-0.006684,87.854421,0.012228,
1130,670,0.269945,-15.617240,0.999997,0.000225,-0.003579,0.006772,-0.002665,0.007418,-0.004225,-76.375417,0.007442,
1050,1340,0.672526,-5.447984,0.999995,0.000236,-0.006055,0.009869,0.003065,0.010438,-0.006625,79.474241,0.010564,
1310,1920,-0.056160,-0.716583,0.999998,0.000147,-0.000719,0.006430,0.000181,0.006434,-0.000723,88.553748,0.007049,
950,1650,0.812719,-3.006843,0.999997,0.000218,-0.003735,0.008802,0.000465,0.008819,-0.003752,87.876837,0.008852,
720,1090,3.579916,-9.473790,0.999996,0.000227,-0.004465,0.009776,-0.000561,0.009798,-0.004487,-87.749455,0.009810,
1850,420,-2.409646,-15.987199,0.999996,0.000227,-0.004983,0.010006,0.000136,0.010007,-0.004985,89.478955,0.010007,
920,1130,2.544129,-8.873928,0.999995,0.000274,-0.005221,0.012172,-0.001450,0.012292,-0.005341,-85.266603,0.012327,
830,430,1.372192,-16.579413,0.999995,0.000278,-0.004730,0.009872,-0.000330,0.009880,-0.004737,-88.706203,0.009883,
1190,570,0.103603,-16.446875,0.999998,0.000174,-0.002586,0.006438,-0.000583,0.006476,-0.002624,-86.317798,0.006514,
1580,1630,-1.119539,-3.376793,0.999996,0.000227,-0.004322,0.009467,-0.000412,0.009479,-0.004335,-88.291845,0.009491,
940,430,0.884038,-16.905140,0.999998,0.000214,-0.004003,0.009037,-0.000617,0.009067,-0.004032,-87.297094,0.009085,
1000,140,0.206172,-19.358164,0.999997,0.000184,-0.001022,0.007033,0.000689,0.007092,-0.001081,85.149098,0.007641,
1050,1860,0.224085,-1.163269,0.999998,0.000204,-0.001643,0.007148,-0.000325,0.007160,-0.001655,-87.886005,0.007497,
1690,1070,-3.373872,-9.654393,0.999994,0.000268,-0.004236,0.010003,0.000411,0.010015,-0.004248,88.347295,0.010053,
740,1200,3.189956,-8.345290,0.999996,0.000260,-0.005089,0.010379,-0.001102,0.010457,-0.005167,-85.945266,0.010458,
1820,280,-1.789825,-17.507116,0.999996,0.000244,-0.004802,0.010149,-0.000270,0.010154,-0.004807,-88.964933,0.010159,
870,1150,2.710307,-8.731429,0.999996,0.000250,-0.005241,0.011463,-0.001424,0.011583,-0.005362,-85.162822,0.011594,
1400,300,-0.325828,-18.236062,0.999997,0.000205,-0.002301,0.007580,0.000082,0.007581,-0.002302,89.524010,0.007773,
1800,1970,-0.561542,-0.602905,0.999996,0.000237,-0.002021,0.009817,0.003717,0.010887,-0.003091,73.938367,0.011221,
1250,440,-0.045255,-17.347122,0.999996,0.000239,-0.002418,0.007040,0.000254,0.007047,-0.002425,88.464634,0.007160,
1630,1660,-1.271951,-3.226545,0.999996,0.000267,-0.004447,0.009645,-0.000207,0.009648,-0.004451,-89.158990,0.009658,
590,520,2.819741,-14.900954,0.999996,0.000232,-0.005062,0.010116,-0.000048,0.010116,-0.005062,-89.819931,0.010116,
1010,700,0.900256,-14.582415,0.999996,0.000263,-0.006377,0.010658,-0.002352,0.010977,-0.006696,-82.282247,0.011065,
1440,1300,-0.929177,-6.085543,0.999996,0.000234,-0.007147,0.011353,-0.002625,0.011718,-0.007512,-82.078943,0.011872,
1170,1540,0.156073,-3.366957,0.999996,0.000220,-0.002722,0.006976,0.000663,0.007021,-0.002767,86.108119,0.007073,
1860,1660,-2.383910,-3.954446,0.999996,0.000244,-0.004983,0.009976,-0.000111,0.009977,-0.004984,-89.576250,0.009977,
1140,50,0.014276,-19.975495,0.999999,0.000161,-0.000234,0.006042,0.000219,0.006050,-0.000242,88.003420,0.006850,
1020,1470,0.711767,-4.393528,0.999995,0.000245,-0.004713,0.009127,0.001789,0.009355,-0.004941,82.753815,0.009360,
910,70,0.127636,-19.818897,0.999998,0.000174,-0.000523,0.006921,0.001268,0.007131,-0.000733,80.596805,0.007846,
1070,960,1.863602,-11.990751,0.999980,0.000000,-0.006650,0.020144,-0.007638,0.022168,-0.008674,-75.155825,0.022342,
1730,1950,-0.493229,-0.687064,0.999995,0.000259,-0.002158,0.008668,0.002439,0.009192,-0.002682,77.871978,0.009454,
1340,1940,-0.067562,-0.593585,0.999998,0.000159,-0.000744,0.006445,0.000268,0.006455,-0.000754,87.867777,0.007059,
610,1890,1.365006,-1.615689,0.999997,0.000219,-0.004886,0.010355,-0.000787,0.010396,-0.004927,-87.052690,0.010401,
1280,1330,-0.102652,-4.594079,0.999997,0.000189,-0.002524,0.004408,-0.002158,0.005025,-0.003141,-74.046946,0.005077,
1600,1190,-2.562558,-8.272614,0.999993,0.000286,-0.005809,0.011682,0.001368,0.011789,-0.005915,85.554686,0.011789,
1050,1920,0.141979,-0.745276,0.999998,0.000158,-0.001097,0.006757,-0.000432,0.006780,-0.001120,-86.861823,0.007269,
1640,100,-0.320964,-19.569063,0.999997,0.000215,-0.001261,0.007769,-0.001820,0.008122,-0.001615,-79.021752,0.008599,
950,1980,0.121735,-0.367298,0.999997,0.000174,-0.000720,0.006838,-0.000986,0.006964,-0.000847,-82.687680,0.007600,
820,710,2.175352,-13.581895,0.999995,0.000289,-0.006197,0.011296,0.000269,0.011300,-0.006201,89.118963,0.011318,
780,1540,1.826750,-4.600581,0.999996,0.000229,-0.005244,0.010346,0.000330,0.010353,-0.005251,88.786441,0.010354,
1870,680,-3.312867,-13.279354,0.999996,0.000256,-0.004994,0.010064,-0.000170,0.010066,-0.004996,-89.353782,0.010066,
1610,1010,-3.075721,-10.266345,0.999997,0.000239,-0.003780,0.010517,-0.000334,0.010525,-0.003788,-88.661634,0.010662,
830,450,1.418110,-16.380390,0.999996,0.000248,-0.004818,0.009938,-0.000389,0.009948,-0.004829,-88.489733,0.009950,
1190,1390,0.091804,-4.269929,0.999997,0.000228,-0.002462,0.005336,0.001273,0.005539,-0.002664,80.961959,0.005540,
1810,1690,-2.040236,-3.482051,0.999997,0.000201,-0.004958,0.010066,-0.000022,0.010066,-0.004958,-89.916249,0.010067,
1080,1740,0.304761,-2.017589,0.999997,0.000197,-0.002134,0.007488,0.000046,0.007488,-0.002134,89.727858,0.007716,
1290,1810,-0.087576,-1.450418,0.999998,0.000154,-0.001421,0.006910,0.000106,0.006912,-0.001423,89.268769,0.007300,
1220,310,0.022310,-18.271562,0.999998,0.000157,-0.001942,0.006990,-0.000096,0.006991,-0.001943,-89.381530,0.007218,
1860,590,-2.966893,-14.224645,0.999996,0.000218,-0.005063,0.010152,-0.000057,0.010152,-0.005064,-89.785742,0.010152,
1750,1100,-3.591316,-9.377408,0.999995,0.000261,-0.004475,0.009811,0.000727,0.009848,-0.004512,87.092477,0.009860,
1520,1800,-0.555839,-1.734837,0.999996,0.000229,-0.002695,0.008124,0.000384,0.008138,-0.002708,87.968470,0.008288,
1350,520,-0.322775,-16.642742,0.999997,0.000198,-0.003135,0.007544,0.001128,0.007661,-0.003252,84.036972,0.007690,
1900,1790,-2.115834,-2.825537,0.999997,0.000000,-0.004808,0.009568,0.000077,0.009569,-0.004808,89.693675,0.009569,
740,1180,3.253644,-8.551886,0.999996,0.000248,-0.004994,0.010297,-0.001124,0.010379,-0.005076,-85.816668,0.010380,
670,40,0.180391,-19.980955,0.999997,0.000232,-0.000329,0.008450,0.003823,0.009882,-0.001761,69.473237,0.010542,
950,1670,0.779626,-2.831889,0.999997,0.000213,-0.003678,0.008739,0.000393,0.008751,-0.003690,88.186751,0.008787,
1060,250,0.276284,-18.606248,0.999997,0.000203,-0.001958,0.007353,0.000127,0.007355,-0.001959,89.215634,0.007618,
660,460,2.289909,-15.735095,0.999996,0.000222,-0.005070,0.010120,-0.000173,0.010122,-0.005072,-89.346194,0.010122,
1520,1250,-1.729299,-7.250354,0.999992,0.000341,-0.007398,0.012774,-0.000085,0.012775,-0.007398,-89.759077,0.012828,
1030,1340,0.797428,-5.595660,0.999995,0.000290,-0.006372,0.010447,0.002750,0.010885,-0.006811,80.946208,0.010999,
1690,1030,-3.407154,-10.054820,0.999996,0.000241,-0.004172,0.009980,0.000059,0.009980,-0.004172,89.762893,0.010025,
580,520,2.869558,-14.870298,0.999997,0.000205,-0.005098,0.010103,-0.000070,0.010103,-0.005099,-89.734304,0.010104,
1780,420,-2.060046,-16.218484,0.999997,0.000207,-0.004941,0.010112,0.000158,0.010113,-0.004942,89.399076,0.010114,
1410,660,-0.601083,-15.251184,0.999994,0.000291,-0.005159,0.009047,0.002631,0.009519,-0.005631,79.838609,0.009572,
1480,970,-2.466057,-10.883066,0.999994,0.000293,-0.004896,0.013713,-0.000662,0.013737,-0.004919,-87.966429,0.013920,
1340,1960,-0.049698,-0.464741,0.999998,0.000175,-0.000590,0.006326,0.000258,0.006336,-0.000599,87.867862,0.006996,
900,1980,0.148176,-0.376605,0.999998,0.000176,-0.000723,0.007013,-0.001286,0.007221,-0.000931,-80.806293,0.007856,
1070,950,1.812214,-12.173342,0.999984,0.000000,-0.005970,0.018404,-0.007690,0.020628,-0.008193,-73.874541,0.020772,
1860,1640,-2.442923,-4.155177,0.999996,0.000264,-0.004974,0.009981,-0.000110,0.009981,-0.004975,-89.578478,0.009981,
1350,1580,-0.313804,-3.182705,0.999997,0.000198,-0.002856,0.007505,-0.000818,0.007569,-0.002920,-85.513424,0.007634,
1430,1490,-0.642014,-4.162242,0.999996,0.000250,-0.004398,0.008766,-0.001701,0.008982,-0.004614,-82.754510,0.008983,
1270,1540,-0.097514,-3.346911,0.999998,0.000158,-0.002529,0.006780,-0.000390,0.006797,-0.002545,-87.603685,0.006868,
1730,1970,-0.382179,-0.523096,0.999996,0.000224,-0.001824,0.008194,0.002433,0.008753,-0.002384,77.044553,0.009051,
910,1980,0.143821,-0.376902,0.999997,0.000183,-0.000581,0.006985,-0.001265,0.007191,-0.000787,-80.754797,0.007888,
1340,1410,-0.296646,-4.403465,0.999996,0.000215,-0.003657,0.007068,-0.002413,0.007586,-0.004175,-77.887375,0.007598,
1130,50,0.017147,-19.975354,0.999999,0.000161,-0.000246,0.006052,0.000242,0.006061,-0.000255,87.798187,0.006857,
1640,80,-0.238546,-19.722944,0.999997,0.000189,-0.000930,0.007585,-0.001928,0.008001,-0.001346,-77.817921,0.008568,
1350,1920,-0.089128,-0.726993,0.999998,0.000141,-0.000839,0.006555,0.000269,0.006565,-0.000849,87.922920,0.007141,
780,1520,1.877991,-4.811307,0.999997,0.000237,-0.005345,0.010392,0.000317,0.010398,-0.005352,88.844878,0.010400,
730,1660,1.756784,-3.537512,0.999996,0.000244,-0.004873,0.010147,0.000103,0.010148,-0.004874,89.606281,0.010150,
1830,1380,-3.093866,-6.712977,0.999998,0.000169,-0.005103,0.010120,0.000346,0.010128,-0.005111,88.700055,0.010128,
1560,1190,-2.321426,-8.178351,0.999995,0.000262,-0.006291,0.012339,0.001249,0.012422,-0.006375,86.180301,0.012424,
1240,620,-0.020938,-16.174875,0.999998,0.000148,-0.002335,0.005736,0.000284,0.005745,-0.002345,87.990171,0.005778,
1610,970,-3.012919,-10.690915,0.999997,0.000227,-0.004128,0.010749,-0.000986,0.010814,-0.004193,-86.223689,0.010904,
830,470,1.461179,-16.179970,0.999996,0.000219,-0.004925,0.009964,-0.000437,0.009977,-0.004938,-88.319651,0.009977,
590,1650,2.477146,-4.097257,0.999994,0.000272,-0.005420,0.010003,0.000119,0.010004,-0.005421,89.559748,0.010016,
800,710,2.296384,-13.523062,0.999995,0.000278,-0.006055,0.011185,0.000414,0.011194,-0.006065,88.625836,0.011208,
700,1090,3.667090,-9.481788,0.999997,0.000236,-0.004437,0.009619,-0.000487,0.009636,-0.004454,-88.016626,0.009645,
1340,310,-0.208914,-18.219760,0.999998,0.000179,-0.002193,0.007273,0.000203,0.007277,-0.002197,88.772590,0.007465,
610,1870,1.491974,-1.827365,0.999996,0.000248,-0.004872,0.010208,-0.000625,0.010234,-0.004898,-87.630055,0.010237,
1130,650,0.270307,-15.755142,0.999996,0.000219,-0.003520,0.006834,-0.002384,0.007357,-0.004042,-77.638236,0.007369,
1730,1100,-3.501441,-9.367809,0.999995,0.000263,-0.004458,0.009987,0.000780,0.010029,-0.004500,86.919064,0.010047,
1090,760,0.501549,-14.630330,0.999993,0.000319,-0.005898,0.008953,-0.004011,0.009967,-0.006912,-75.811977,0.010213,
1810,1670,-2.103300,-3.686131,0.999997,0.000207,-0.004933,0.010098,-0.000086,0.010098,-0.004933,-89.673556,0.010099,
1080,1720,0.324426,-2.172323,0.999997,0.000197,-0.002292,0.007578,0.000099,0.007579,-0.002293,89.425859,0.007773,
1040,750,0.799626,-14.267396,0.999995,0.000255,-0.006826,0.010806,-0.003029,0.011312,-0.007332,-80.518861,0.011477,
1190,1370,0.088743,-4.372910,0.999997,0.000221,-0.002443,0.005013,0.001453,0.005287,-0.002716,79.350346,0.005287,
1690,490,-1.797800,-15.794123,0.999996,0.000214,-0.005115,0.010206,0.000308,0.010212,-0.005121,88.849803,0.010212,
1900,1890,-1.596265,-1.849554,0.999996,0.000000,-0.004927,0.010069,0.000769,0.010109,-0.004966,87.071070,0.010109,
900,250,0.652324,-18.410441,0.999997,0.000221,-0.002813,0.008535,0.000592,0.008565,-0.002844,87.021557,0.008725,
650,1280,3.360125,-7.677962,0.999996,0.000232,-0.005001,0.009976,-0.000690,0.010007,-0.005033,-87.367413,0.010007,
1350,500,-0.318344,-16.791337,0.999997,0.000169,-0.003037,0.007501,0.000973,0.007591,-0.003126,84.767966,0.007630,
1520,1780,-0.595811,-1.895537,0.999996,0.000226,-0.002903,0.008313,0.000268,0.008320,-0.002910,88.629790,0.008444,
660,440,2.232312,-15.937853,0.999997,0.000208,-0.005065,0.010107,-0.000158,0.010108,-0.005066,-89.402191,0.010108,
570,520,2.920833,-14.837927,0.999995,0.000257,-0.005132,0.010086,-0.000100,0.010086,-0.005133,-89.623939,0.010087,
790,1340,2.375665,-6.720688,0.999994,0.000305,-0.006000,0.011075,-0.000494,0.011089,-0.006014,-88.343144,0.011102,
900,1960,0.206171,-0.519412,0.999998,0.000193,-0.000994,0.007183,-0.001249,0.007370,-0.001181,-81.503417,0.007916,
740,1160,3.321830,-8.758923,0.999996,0.000238,-0.004865,0.010264,-0.001143,0.010350,-0.004950,-85.705135,0.010353,
1700,990,-3.420798,-10.454542,0.999996,0.000279,-0.004240,0.009941,-0.000360,0.009950,-0.004249,-88.545886,0.009985,
1330,780,-0.304874,-14.918290,0.999995,0.000270,-0.004689,0.006442,0.004253,0.007881,-0.006128,71.305737,0.008276,
1070,30,0.009404,-20.095754,0.999999,0.000000,-0.000075,0.006135,0.000455,0.006168,-0.000108,85.830626,0.007060,
710,1660,1.852138,-3.601728,0.999996,0.000218,-0.004940,0.010139,0.000109,0.010139,-0.004940,89.586275,0.010141,
890,1980,0.158119,-0.381328,0.999997,0.000182,-0.000911,0.007078,-0.001330,0.007294,-0.001126,-80.794429,0.007853,
1860,1620,-2.503002,-4.357520,0.999995,0.000267,-0.004966,0.010029,-0.000100,0.010030,-0.004966,-89.618292,0.010030,
1730,1990,-0.269380,-0.359889,0.999996,0.000242,-0.001255,0.008077,0.002647,0.008776,-0.001954,75.215411,0.009215,
1330,1920,-0.071685,-0.719996,0.999998,0.000148,-0.000868,0.006488,0.000190,0.006493,-0.000873,88.523044,0.007047,
1340,1980,-0.039894,-0.340802,0.999998,0.000164,-0.000428,0.006218,0.000297,0.006232,-0.000441,87.443604,0.006955,
780,1940,0.470807,-0.746566,0.999996,0.000228,-0.002167,0.008469,-0.002114,0.008874,-0.002572,-79.158890,0.009131,
1610,950,-2.961523,-10.906150,0.999996,0.000251,-0.004422,0.010808,-0.001111,0.010889,-0.004503,-85.848823,0.010943,
580,1650,2.526165,-4.129347,0.999996,0.000267,-0.007577,0.010062,0.000335,0.010068,-0.007583,88.912073,0.010490,
1640,60,-0.158234,-19.874620,0.999997,0.000200,-0.000595,0.007296,-0.001869,0.007716,-0.001015,-77.327138,0.008385,
1130,630,0.269620,-15.898933,0.999996,0.000238,-0.003437,0.006909,-0.002115,0.007325,-0.003853,-78.881034,0.007328,
1320,310,-0.165630,-18.240008,0.999998,0.000173,-0.002059,0.007198,0.000144,0.007201,-0.002061,89.109680,0.007417,
1540,1190,-2.192538,-8.112488,0.999995,0.000263,-0.006535,0.012709,0.001086,0.012770,-0.006596,86.779412,0.012772,
1700,410,-1.636414,-16.575325,0.999996,0.000254,-0.004836,0.010063,0.000175,0.010065,-0.004838,89.325457,0.010067,
1370,840,-0.781673,-13.916054,0.999994,0.000302,-0.006486,0.009770,0.004380,0.010875,-0.007591,75.840191,0.011156,
1850,1380,-3.195406,-6.769626,0.999998,0.000183,-0.005057,0.010063,0.000288,0.010069,-0.005063,88.908540,0.010069,
1780,440,-2.118089,-16.014774,0.999997,0.000215,-0.004981,0.010128,0.000170,0.010130,-0.004983,89.353781,0.010130,
1680,550,-1.902943,-15.203629,0.999996,0.000270,-0.005370,0.010407,0.000273,0.010412,-0.005375,89.007202,0.010413,
950,1690,0.749110,-2.656656,0.999996,0.000246,-0.003586,0.008628,0.000323,0.008636,-0.003595,88.486573,0.008677,
830,910,2.928602,-11.326670,0.999996,0.000242,-0.004949,0.010975,0.001380,0.011094,-0.005068,85.081804,0.011108,
1290,1790,-0.094506,-1.588345,0.999998,0.000159,-0.001527,0.006944,0.000059,0.006945,-0.001528,89.603703,0.007299,
1000,1470,0.810425,-4.484571,0.999996,0.000235,-0.005018,0.009449,0.001755,0.009659,-0.005228,83.181489,0.009670,
1120,50,0.020825,-19.974643,0.999998,0.000162,-0.000233,0.006065,0.000271,0.006077,-0.000245,87.544766,0.006880,
1190,1350,0.085974,-4.471342,0.999997,0.000213,-0.002410,0.004630,0.001674,0.005008,-0.002788,77.284121,0.005018,
1900,1010,-4.286309,-10.225078,0.999997,0.000000,-0.004038,0.008200,-0.000234,0.008204,-0.004043,-88.905265,0.008204,
750,1280,2.835503,-7.477502,0.999996,0.000243,-0.005615,0.010844,-0.000923,0.010896,-0.005667,-86.799418,0.010899,
1690,470,-1.747202,-15.996672,0.999996,0.000210,-0.005043,0.010121,0.000291,0.010127,-0.005048,88.901866,0.010127,
660,420,2.174542,-16.141957,0.999996,0.000213,-0.005045,0.010145,-0.000143,0.010146,-0.005047,-89.459839,0.010146,
880,270,0.772314,-18.201327,0.999997,0.000199,-0.003472,0.008755,0.000412,0.008769,-0.003486,88.070750,0.008830,
660,830,3.502565,-11.953940,0.999997,0.000228,-0.004825,0.009709,0.000791,0.009752,-0.004867,86.895236,0.009752,
1080,1700,0.338375,-2.322610,0.999997,0.000204,-0.002419,0.007623,0.000238,0.007629,-0.002425,88.644885,0.007796,
1290,720,-0.128957,-15.544188,0.999997,0.000201,-0.002748,0.004910,0.002405,0.005603,-0.003441,73.933059,0.005651,
1810,1650,-2.164651,-3.887686,0.999996,0.000229,-0.004968,0.010109,-0.000129,0.010110,-0.004969,-89.508636,0.010111,
1250,1540,-0.046862,-3.331664,0.999998,0.000159,-0.002524,0.006714,-0.000360,0.006728,-0.002538,-87.772477,0.006795,
1440,560,-0.681767,-16.000548,0.999996,0.000231,-0.004414,0.008845,0.001596,0.009034,-0.004603,83.233360,0.009035,
1880,100,-1.013291,-19.097194,0.999995,0.000277,-0.004580,0.011286,-0.002289,0.011610,-0.004904,-81.951313,0.011656,
1520,1760,-0.640974,-2.067993,0.999997,0.000199,-0.003062,0.008355,0.000142,0.008357,-0.003064,89.287898,0.008455,
1240,600,-0.020543,-16.293377,0.999998,0.000168,-0.002404,0.005975,0.000250,0.005983,-0.002412,88.294852,0.006020,
900,1940,0.262198,-0.665829,0.999997,0.000194,-0.001235,0.007442,-0.001268,0.007623,-0.001417,-81.852371,0.008110,
800,1550,1.698307,-4.433338,0.999994,0.000263,-0.005171,0.010237,0.000382,0.010247,-0.005180,88.582018,0.010247,
1410,540,-0.541648,-16.295613,0.999996,0.000244,-0.003939,0.008352,0.001530,0.008540,-0.004126,83.009470,0.008542,
1870,1040,-4.166853,-9.972185,0.999997,0.000204,-0.004131,0.008621,0.000205,0.008625,-0.004134,89.081042,0.008627,
740,1140,3.379335,-8.963149,0.999996,0.000240,-0.004690,0.010016,-0.000944,0.010077,-0.004751,-86.341369,0.010082,
1230,1920,0.001523,-0.709750,0.999999,0.000137,-0.000809,0.006379,-0.000009,0.006379,-0.000809,-89.926592,0.006946,
610,1850,1.602069,-2.027072,0.999996,0.000238,-0.004880,0.010066,-0.000437,0.010079,-0.004893,-88.326745,0.010080,
1740,480,-2.027970,-15.734970,0.999996,0.000228,-0.005095,0.010240,0.000207,0.010243,-0.005097,89.227228,0.010243,
1060,2020,0.018035,-0.096245,0.999998,0.000000,-0.000204,0.006102,-0.000382,0.006125,-0.000227,-86.545468,0.006945,
1410,1980,-0.064126,-0.348298,0.999998,0.000196,-0.000526,0.006403,0.000516,0.006441,-0.000564,85.767739,0.007134,
1350,490,-0.316366,-16.865590,0.999997,0.000189,-0.002984,0.007470,0.000898,0.007546,-0.003060,85.127769,0.007591,
980,1410,0.991991,-5.171397,0.999995,0.000249,-0.005886,0.010232,0.001813,0.010433,-0.006087,83.660891,0.010481,
1640,260,-0.935142,-18.186986,0.999997,0.000191,-0.003376,0.009136,-0.000773,0.009184,-0.003424,-86.478173,0.009282,
1350,840,-0.655227,-14.233091,0.999994,0.000330,-0.005447,0.007807,0.004370,0.009118,-0.006759,73.299638,0.009465,
1520,1190,-2.058429,-8.034960,0.999995,0.000273,-0.006843,0.013018,0.000850,0.013054,-0.006879,87.552423,0.013061,
1610,930,-2.894736,-11.125759,0.999996,0.000274,-0.004732,0.011079,-0.001352,0.011194,-0.004847,-85.148704,0.011227,
780,1960,0.365450,-0.574625,0.999997,0.000207,-0.001720,0.008080,-0.002090,0.008507,-0.002147,-78.451569,0.008847,
1660,550,-1.794427,-15.269462,0.999996,0.000236,-0.005418,0.010407,0.000352,0.010414,-0.005426,88.726068,0.010418,
1860,1600,-2.562590,-4.558398,0.999995,0.000265,-0.004988,0.010103,-0.000091,0.010103,-0.004988,-89.653163,0.010104,
980,1470,0.911876,-4.574282,0.999996,0.000237,-0.005102,0.009699,0.001566,0.009863,-0.005266,84.025748,0.009870,
1820,190,-1.360856,-18.431691,0.999993,0.000319,-0.004540,0.010320,-0.001043,0.010393,-0.004613,-86.003803,0.010415,
1420,50,-0.038093,-19.968780,0.999999,0.000143,-0.000340,0.006207,-0.000505,0.006245,-0.000378,-85.614131,0.007003,
830,890,2.854829,-11.545816,0.999996,0.000244,-0.005216,0.011061,0.001351,0.011172,-0.005328,85.287975,0.011176,
960,180,0.344415,-19.042180,0.999996,0.000229,-0.002011,0.007524,0.000678,0.007572,-0.002059,85.951800,0.007831,
1900,1520,-2.999006,-5.495696,0.999996,0.000000,-0.005036,0.010160,-0.000004,0.010160,-0.005036,-89.985313,0.010160,
1690,450,-1.695398,-16.200638,0.999996,0.000224,-0.004984,0.010119,0.000260,0.010124,-0.004989,89.015343,0.010124,
880,250,0.716552,-18.375782,0.999998,0.000182,-0.003267,0.008678,0.000551,0.008703,-0.003293,87.363736,0.008789,
1190,1330,0.084450,-4.561238,0.999997,0.000197,-0.002385,0.004207,0.001848,0.004690,-0.002867,75.359356,0.004729,
1350,440,-0.302284,-17.240057,0.999997,0.000187,-0.002758,0.007472,0.000624,0.007510,-0.002796,86.521607,0.007591,
1200,310,0.060390,-18.263516,0.999998,0.000185,-0.001896,0.007025,-0.000091,0.007026,-0.001897,-89.414851,0.007269,
1290,1990,-0.012810,-0.272014,0.999998,0.000182,-0.000210,0.006093,0.000175,0.006098,-0.000214,88.413217,0.006920,
800,810,2.689529,-12.396093,0.999996,0.000232,-0.005771,0.011196,0.001092,0.011266,-0.005841,86.334107,0.011268,
1820,1250,-3.502762,-7.994065,0.999995,0.000251,-0.004891,0.009793,0.000701,0.009826,-0.004924,87.271050,0.009826,
1810,1630,-2.222725,-4.093323,0.999997,0.000202,-0.005034,0.010137,-0.000138,0.010139,-0.005035,-89.479858,0.010139,
1880,90,-0.919363,-19.209606,0.999995,0.000261,-0.004535,0.011815,-0.002643,0.012232,-0.004951,-81.040175,0.012305,
1090,190,0.163372,-19.055416,0.999998,0.000175,-0.001151,0.006887,0.000303,0.006898,-0.001162,87.846111,0.007387,
1210,1540,0.054695,-3.333251,0.999998,0.000197,-0.002532,0.006737,0.000374,0.006752,-0.002547,87.690627,0.006819,
1440,520,-0.652810,-16.354086,0.999996,0.000242,-0.004212,0.008711,0.001387,0.008858,-0.004359,83.944461,0.008858,
1370,780,-0.518173,-14.483776,0.999992,0.000338,-0.006106,0.009045,0.004242,0.010152,-0.007213,75.376439,0.010448,
740,1120,3.425606,-9.161076,0.999997,0.000219,-0.004540,0.009951,-0.000847,0.010000,-0.004589,-86.665306,0.010011,
1520,1740,-0.677153,-2.231014,0.999997,0.000211,-0.003186,0.008522,0.000034,0.008522,-0.003186,89.834562,0.008612,
1110,1920,0.092677,-0.727839,0.999998,0.000174,-0.000814,0.006514,-0.000279,0.006525,-0.000825,-87.824738,0.007106,
1780,880,-3.551351,-11.493678,0.999995,0.000269,-0.004807,0.009893,-0.000952,0.009954,-0.004868,-86.308883,0.009955,
1240,580,-0.020887,-16.414988,0.999998,0.000193,-0.002470,0.006224,0.000251,0.006232,-0.002477,88.346167,0.006275,
1350,470,-0.310798,-17.014768,0.999998,0.000179,-0.002894,0.007478,0.000765,0.007534,-0.002950,85.804614,0.007593,
1390,1980,-0.053625,-0.345055,0.999998,0.000166,-0.000354,0.006351,0.000470,0.006384,-0.000387,86.006167,0.007159,
620,320,2.052808,-17.015375,0.999997,0.000224,-0.004867,0.009968,-0.000063,0.009968,-0.004867,-89.757759,0.009969,
660,400,2.114264,-16.346729,0.999996,0.000236,-0.004993,0.010110,-0.000109,0.010111,-0.004994,-89.586282,0.010111,
1770,1100,-3.682078,-9.386549,0.999994,0.000290,-0.004497,0.009624,0.000632,0.009652,-0.004526,87.441240,0.009658,
900,1920,0.325140,-0.817247,0.999997,0.000200,-0.001526,0.007582,-0.001184,0.007733,-0.001677,-82.714889,0.008136,
1500,1190,-1.917567,-7.936802,0.999993,0.000335,-0.007142,0.013357,0.000463,0.013368,-0.007153,88.706999,0.013378,
960,1410,1.111099,-5.275877,0.999996,0.000253,-0.005986,0.010494,0.001560,0.010640,-0.006132,84.640957,0.010681,
780,1980,0.275264,-0.420787,0.999997,0.000204,-0.001364,0.007766,-0.002162,0.008252,-0.001851,-77.329306,0.008660,
1610,910,-2.816279,-11.350977,0.999996,0.000252,-0.005045,0.011209,-0.001423,0.011333,-0.005169,-85.032937,0.011348,
1740,460,-1.970918,-15.939713,0.999997,0.000210,-0.005050,0.010129,0.000198,0.010131,-0.005052,89.251407,0.010131,
1060,1080,1.973603,-8.690521,0.999974,0.000000,-0.008414,0.022627,0.006256,0.023841,-0.009628,79.023919,0.023987,
1630,1490,-1.667207,-4.943252,0.999996,0.000234,-0.005503,0.010438,-0.000482,0.010452,-0.005518,-88.269987,0.010458,
1860,1580,-2.621684,-4.763007,0.999995,0.000271,-0.005013,0.010101,-0.000078,0.010102,-0.005014,-89.703707,0.010102,
1640,530,-1.638403,-15.543416,0.999995,0.000242,-0.005298,0.010325,0.000490,0.010340,-0.005313,88.204197,0.010341,
1410,50,-0.034493,-19.970637,0.999999,0.000136,-0.000341,0.006182,-0.000476,0.006217,-0.000376,-85.850397,0.006971,
830,870,2.771637,-11.771144,0.999995,0.000255,-0.005480,0.011267,0.001391,0.011382,-0.005594,85.282665,0.011383,
960,160,0.303759,-19.188669,0.999997,0.000197,-0.001752,0.007445,0.000772,0.007509,-0.001816,85.235867,0.007835,
1900,1500,-3.060370,-5.699974,0.999996,0.000000,-0.005022,0.010242,0.000020,0.010242,-0.005022,89.926149,0.010243,
1190,1310,0.086591,-4.643161,0.999997,0.000196,-0.002377,0.003840,0.002063,0.004462,-0.002999,73.212380,0.004549,
1690,430,-1.642993,-16.405057,0.999996,0.000230,-0.004895,0.010046,0.000230,0.010050,-0.004898,89.117003,0.010051,
1820,170,-1.238363,-18.642074,0.999994,0.000316,-0.004457,0.010444,-0.001339,0.010563,-0.004576,-84.905181,0.010594,
1470,1440,-0.879426,-4.806531,0.999995,0.000261,-0.005326,0.009776,-0.001777,0.009982,-0.005533,-83.379488,0.010002,
1020,250,0.364259,-18.559937,0.999998,0.000174,-0.002085,0.007627,0.000245,0.007633,-0.002091,88.553487,0.007889,
1150,440,0.199745,-17.301640,0.999998,0.000202,-0.002677,0.007287,-0.000571,0.007320,-0.002710,-86.730728,0.007402,
1870,90,-0.874174,-19.254454,0.999994,0.000309,-0.004549,0.011501,-0.002556,0.011898,-0.004946,-81.168241,0.011954,
1180,310,0.097807,-18.257359,0.999998,0.000145,-0.001811,0.007066,-0.000034,0.007066,-0.001811,-89.782917,0.007341,
770,1340,2.493866,-6.773621,0.999996,0.000247,-0.005839,0.010937,-0.000544,0.010954,-0.005856,-88.146143,0.010963,
1020,750,0.938193,-14.104842,0.999996,0.000222,-0.007096,0.011331,-0.002582,0.011686,-0.007451,-82.172277,0.011833,
740,1100,3.469826,-9.365138,0.999996,0.000229,-0.004469,0.009970,-0.000804,0.010014,-0.004514,-86.823278,0.010031,
1350,780,-0.405989,-14.705198,0.999994,0.000347,-0.005440,0.007763,0.004399,0.009094,-0.006771,73.161052,0.009450,
1450,1640,-0.593476,-2.932995,0.999997,0.000243,-0.003317,0.008324,-0.000580,0.008353,-0.003345,-87.156542,0.008408,
570,1650,2.609425,-4.175773,0.999902,0.001496,-0.008815,0.010140,0.000473,0.010152,-0.008826,88.572375,0.011037,
1420,830,-1.081169,-13.361900,0.999991,0.000368,-0.007805,0.012361,0.002645,0.012702,-0.008146,82.650926,0.012870,
1870,1030,-4.175038,-10.058278,0.999997,0.000207,-0.004124,0.008627,0.000052,0.008627,-0.004124,89.766517,0.008630,
1090,210,0.186848,-18.912843,0.999998,0.000169,-0.001335,0.007014,0.000262,0.007023,-0.001344,88.205249,0.007455,
1030,1280,0.941491,-6.262096,0.999996,0.000254,-0.007399,0.011647,0.002730,0.012031,-0.007783,82.000936,0.012203,
1130,610,0.272916,-16.036639,0.999996,0.000231,-0.003353,0.007000,-0.001846,0.007319,-0.003672,-80.187310,0.007319,
620,830,3.691780,-11.881970,0.999997,0.000201,-0.004689,0.009407,0.000568,0.009430,-0.004712,87.695142,0.009430,
1810,1610,-2.282174,-4.296112,0.999996,0.000218,-0.005049,0.010131,-0.000143,0.010132,-0.005050,-89.460803,0.010132,
790,960,3.258421,-10.767652,0.999996,0.000247,-0.004354,0.010287,0.000906,0.010342,-0.004410,86.474170,0.010380,
570,890,4.081906,-11.230923,0.999991,0.000343,-0.004179,0.008546,0.000104,0.008547,-0.004180,89.532964,0.008547,
1090,1920,0.108705,-0.732385,0.999997,0.000184,-0.000736,0.006590,-0.000370,0.006609,-0.000755,-87.116301,0.007235,
1060,1070,2.009891,-8.921694,0.999977,0.000000,-0.009248,0.024928,0.005199,0.025701,-0.010021,81.539102,0.025908,
800,1910,0.556735,-0.976678,0.999996,0.000301,-0.002678,0.008521,-0.001630,0.008753,-0.002911,-81.886001,0.008915,
900,1900,0.383389,-0.971097,0.999997,0.000213,-0.001747,0.007786,-0.001123,0.007917,-0.001878,-83.370844,0.008273,
660,380,2.054588,-16.548804,0.999997,0.000192,-0.004971,0.010091,-0.000063,0.010091,-0.004971,-89.760614,0.010091,
1650,1100,-3.145784,-9.330343,0.999994,0.000281,-0.004358,0.010460,0.000991,0.010526,-0.004424,86.192074,0.010570,
1350,450,-0.304510,-17.166383,0.999997,0.000187,-0.002784,0.007482,0.000668,0.007525,-0.002827,86.290062,0.007602,
1610,890,-2.735360,-11.575637,0.999996,0.000284,-0.005355,0.011400,-0.001430,0.011521,-0.005476,-85.155821,0.011526,
1520,1720,-0.717038,-2.411082,0.999996,0.000221,-0.003272,0.008834,-0.000021,0.008834,-0.003272,-89.900506,0.008933,
790,70,0.239910,-19.786624,0.999997,0.000209,-0.001333,0.007646,0.002057,0.008095,-0.001782,77.690454,0.008507,
1860,1190,-3.879405,-8.642780,0.999995,0.000239,-0.004474,0.009200,0.000466,0.009216,-0.004489,88.048421,0.009217,
900,1410,1.473839,-5.550978,0.999996,0.000278,-0.006150,0.010987,0.000836,0.011028,-0.006190,87.212741,0.011055,
1000,580,0.806963,-15.723760,0.999997,0.000240,-0.004955,0.009382,-0.001726,0.009587,-0.005160,-83.229242,0.009596,
1400,50,-0.031313,-19.971610,0.999998,0.000153,-0.000266,0.006160,-0.000462,0.006193,-0.000299,-85.905986,0.006985,
1740,440,-1.917329,-16.142457,0.999996,0.000231,-0.005016,0.010105,0.000200,0.010108,-0.005019,89.241561,0.010108,
1860,1560,-2.678806,-4.962916,0.999996,0.000250,-0.005030,0.010078,-0.000061,0.010078,-0.005030,-89.769599,0.010078,
1640,1540,-1.602735,-4.457808,0.999995,0.000248,-0.005228,0.010265,-0.000468,0.010279,-0.005242,-88.270879,0.010280,
1450,1440,-0.774773,-4.710539,0.999996,0.000241,-0.005183,0.009481,-0.002026,0.009756,-0.005457,-82.274785,0.009779,
1690,410,-1.588638,-16.606474,0.999995,0.000258,-0.004782,0.010004,0.000165,0.010006,-0.004784,89.360494,0.010009,
1190,1290,0.092390,-4.715570,0.999997,0.000209,-0.002542,0.003438,0.002258,0.004195,-0.003299,71.468140,0.004418,
1880,380,-2.433742,-16.285989,0.999997,0.000245,-0.004981,0.009856,0.000097,0.009857,-0.004982,89.624432,0.009857,
1900,1230,-3.937358,-8.367214,0.999996,0.000000,-0.004489,0.009234,0.000198,0.009237,-0.004492,89.172318,0.009238,
1310,1580,-0.199300,-3.109650,0.999998,0.000204,-0.002810,0.007178,-0.000716,0.007229,-0.002861,-85.918322,0.007282,
1000,250,0.404999,-18.541321,0.999997,0.000207,-0.002026,0.007781,0.000360,0.007794,-0.002040,87.902406,0.008084,
1070,520,0.471619,-16.510058,0.999997,0.000182,-0.003572,0.008055,-0.001323,0.008203,-0.003721,-83.591755,0.008215,
1860,90,-0.826408,-19.299424,0.999997,0.000218,-0.004576,0.011181,-0.002464,0.011557,-0.004952,-81.317862,0.011597,
1090,230,0.206035,-18.773128,0.999997,0.000201,-0.001484,0.007081,0.000194,0.007086,-0.001488,88.705157,0.007472,
1300,310,-0.128006,-18.250637,0.999998,0.000169,-0.001803,0.007138,0.000027,0.007138,-0.001804,89.825219,0.007423,
1270,1860,-0.045258,-1.104881,0.999999,0.000153,-0.001123,0.006671,0.000076,0.006672,-0.001123,89.439545,0.007145,
870,1130,2.792195,-8.958446,0.999996,0.000246,-0.004854,0.011327,-0.001463,0.011458,-0.004985,-84.875197,0.011491,
830,850,2.684789,-11.998585,0.999995,0.000253,-0.005718,0.011349,0.001306,0.011448,-0.005817,85.649822,0.011449,
770,960,3.346829,-10.758887,0.999996,0.000228,-0.004411,0.010168,0.000838,0.010216,-0.004459,86.721001,0.010243,
1410,600,-0.572840,-15.779744,0.999995,0.000251,-0.004469,0.008660,0.002074,0.008980,-0.004788,81.235065,0.008987,
740,1520,2.090104,-4.939285,0.999996,0.000268,-0.005300,0.010334,0.000180,0.010336,-0.005303,89.341051,0.010337,
1810,1590,-2.340795,-4.497916,0.999996,0.000229,-0.005049,0.010159,-0.000143,0.010160,-0.005050,-89.461073,0.010160,
1010,1280,1.090423,-6.431145,0.999995,0.000283,-0.007515,0.012077,0.002128,0.012305,-0.007744,83.873090,0.012442,
890,1340,1.743761,-6.388387,0.999997,0.000264,-0.006651,0.011696,0.000307,0.011701,-0.006656,89.041672,0.011738,
1070,1920,0.123558,-0.737670,0.999998,0.000141,-0.000859,0.006675,-0.000401,0.006696,-0.000881,-86.962180,0.007277,
690,760,3.103642,-12.719350,0.999994,0.000290,-0.005232,0.010278,0.000761,0.010315,-0.005269,87.196938,0.010316,
1200,1730,0.063153,-2.004056,0.999998,0.000192,-0.001957,0.007052,0.000110,0.007054,-0.001958,89.301274,0.007282,
1400,280,-0.305014,-18.387726,0.999997,0.000207,-0.002146,0.007498,-0.000019,0.007498,-0.002146,-89.884260,0.007724,
690,2000,0.267365,-0.296554,0.999997,0.000265,-0.001221,0.008729,-0.003470,0.009820,-0.002311,-72.553883,0.010268,
1770,740,-3.015511,-12.933637,0.999997,0.000219,-0.005274,0.010368,-0.000712,0.010401,-0.005306,-87.398691,0.010401,
1060,1060,2.025368,-9.191145,0.999974,0.000000,-0.009824,0.026660,0.004135,0.027123,-0.010287,83.614546,0.027385,
1020,1210,1.353734,-7.227796,0.999991,0.000353,-0.007855,0.013369,0.001671,0.013500,-0.007986,85.525949,0.013575,
800,1930,0.469669,-0.811375,0.999996,0.000258,-0.002279,0.008273,-0.001798,0.008571,-0.002577,-80.591104,0.008795,
900,1390,1.525631,-5.771991,0.999993,0.000337,-0.006333,0.011157,0.000729,0.011187,-0.006364,87.615883,0.011222,
900,1880,0.442984,-1.129877,0.999996,0.000235,-0.002032,0.007874,-0.001012,0.007976,-0.002135,-84.223808,0.008259,
1740,420,-1.860983,-16.345460,0.999995,0.000259,-0.004962,0.010134,0.000175,0.010136,-0.004964,89.334317,0.010137,
600,830,3.784690,-11.839537,0.999997,0.000206,-0.004593,0.009292,0.000426,0.009305,-0.004606,88.246194,0.009305,
660,360,1.987462,-16.750411,0.999997,0.000197,-0.004962,0.010065,0.000008,0.010065,-0.004962,89.970250,0.010065,
790,510,1.761476,-15.642664,0.999996,0.000227,-0.005178,0.010267,-0.000336,0.010274,-0.005185,-88.752480,0.010274,
1860,1540,-2.739514,-5.167965,0.999996,0.000242,-0.005028,0.010175,-0.000058,0.010175,-0.005029,-89.781885,0.010175,
1190,1270,0.105820,-4.778376,0.999997,0.000217,-0.002869,0.003039,0.002363,0.003868,-0.003698,70.671208,0.004372,
1450,1580,-0.653527,-3.444285,0.999996,0.000234,-0.003960,0.008639,-0.001095,0.008734,-0.004055,-85.068117,0.008741,
1650,140,-0.502195,-19.239539,0.999997,0.000214,-0.002183,0.008306,-0.001655,0.008561,-0.002438,-81.244118,0.008821,
1550,1100,-2.717212,-9.249697,0.999995,0.000262,-0.004461,0.011718,0.001262,0.011816,-0.004559,85.568007,0.011918,
1090,600,0.417138,-15.947202,0.999995,0.000255,-0.003803,0.007839,-0.001986,0.008168,-0.004132,-80.582875,0.008168,
1450,1420,-0.795615,-4.901369,0.999997,0.000236,-0.005393,0.009549,-0.002146,0.009851,-0.005695,-81.986323,0.009891,
920,1790,0.639396,-1.849210,0.999996,0.000244,-0.002687,0.008374,-0.000461,0.008393,-0.002707,-87.618512,0.008567,
660,690,3.008024,-13.368451,0.999997,0.000189,-0.005171,0.010190,0.000450,0.010203,-0.005184,88.321716,0.010203,
1810,1570,-2.398257,-4.704389,0.999996,0.000244,-0.005084,0.010184,-0.000135,0.010185,-0.005085,-89.494018,0.010185,
1130,590,0.271345,-16.179277,0.999997,0.000232,-0.003244,0.007106,-0.001566,0.007337,-0.003476,-81.582910,0.007341,
690,1020,3.755717,-10.150737,0.999997,0.000193,-0.004318,0.009521,0.000161,0.009522,-0.004320,89.335213,0.009536,
920,1550,1.092550,-4.025823,0.999996,0.000264,-0.004727,0.009625,0.000846,0.009674,-0.004777,86.636758,0.009675,
820,1090,3.140516,-9.433332,0.999997,0.000181,-0.004259,0.010497,-0.000950,0.010558,-0.004319,-86.332346,0.010616,
1090,250,0.227026,-18.628607,0.999997,0.000203,-0.001661,0.007243,0.000154,0.007245,-0.001664,89.008886,0.007590,
830,830,2.600474,-12.227373,0.999993,0.000289,-0.005913,0.011480,0.001203,0.011563,-0.005996,86.061036,0.011566,
1840,90,-0.733632,-19.395217,0.999997,0.000198,-0.004589,0.010677,-0.002354,0.011032,-0.004943,-81.430500,0.011051,
1170,180,0.065358,-19.150103,0.999998,0.000191,-0.000910,0.006621,0.000129,0.006623,-0.000912,89.020751,0.007179,
1350,430,-0.298705,-17.314581,0.999997,0.000211,-0.002729,0.007466,0.000585,0.007500,-0.002763,86.727646,0.007586,
1710,180,-0.861912,-18.803031,0.999996,0.000206,-0.003071,0.009315,-0.001716,0.009548,-0.003304,-82.253996,0.009698,
1480,1020,-2.612976,-10.178450,0.999992,0.000342,-0.004249,0.013810,-0.000069,0.013811,-0.004250,-89.779987,0.014147,
1840,1190,-3.788496,-8.606339,0.999996,0.000221,-0.004612,0.009421,0.000640,0.009450,-0.004641,87.394330,0.009451,
1610,870,-2.644327,-11.809218,0.999993,0.000332,-0.005667,0.011566,-0.001419,0.011682,-0.005783,-85.323416,0.011682,
1210,1920,0.016880,-0.711448,0.999998,0.000195,-0.000776,0.006367,-0.000019,0.006367,-0.000776,-89.851002,0.006948,
1280,1780,-0.080328,-1.656062,0.999998,0.000163,-0.001623,0.006963,0.000035,0.006963,-0.001623,89.767275,0.007286,
1640,1580,-1.506833,-4.050796,0.999996,0.000213,-0.004971,0.009998,-0.000426,0.010010,-0.004984,-88.372120,0.010010,
1060,1050,2.034388,-9.456432,0.999968,0.000000,-0.010239,0.026766,0.002770,0.026972,-0.010445,85.743328,0.027199,
870,370,1.059153,-17.266748,0.999997,0.000194,-0.004121,0.009283,-0.000196,0.009286,-0.004124,-89.163861,0.009305,
1800,810,-3.420554,-12.156470,0.999995,0.000276,-0.004949,0.009947,-0.000836,0.009994,-0.004996,-86.796481,0.009994,
1520,1700,-0.758021,-2.588881,0.999997,0.000210,-0.003425,0.008689,-0.000187,0.008692,-0.003428,-89.113950,0.008756,
1040,720,0.739328,-14.587343,0.999995,0.000257,-0.006297,0.010218,-0.002948,0.010728,-0.006808,-80.177025,0.010857,
1900,1220,-3.966561,-8.462842,0.999997,0.000000,-0.004477,0.009285,0.000214,0.009288,-0.004480,89.109151,0.009290,
1190,1540,0.105067,-3.348363,0.999998,0.000154,-0.002526,0.006819,0.000382,0.006835,-0.002542,87.662250,0.006909,
1520,1310,-1.478539,-6.501662,0.999995,0.000249,-0.007161,0.012019,-0.000854,0.012057,-0.007199,-87.454120,0.012132,
830,1280,2.364452,-7.293038,0.999994,0.000341,-0.006239,0.011552,-0.000762,0.011584,-0.006272,-87.552991,0.011597,
1240,560,-0.021079,-16.542268,0.999998,0.000177,-0.002501,0.006387,0.000234,0.006393,-0.002507,88.496076,0.006442,
1430,1930,-0.149745,-0.685720,0.999998,0.000186,-0.001002,0.006799,0.000555,0.006838,-0.001042,85.947349,0.007368,
700,920,3.575935,-11.119121,0.999996,0.000239,-0.004597,0.009682,0.000745,0.009721,-0.004636,87.021297,0.009724,
620,340,2.118763,-16.817495,0.999996,0.000229,-0.004842,0.009933,-0.000097,0.009934,-0.004843,-89.622556,0.009935,
1690,390,-1.534869,-16.806843,0.999995,0.000246,-0.004664,0.009886,0.000094,0.009886,-0.004665,89.628294,0.009891,
940,250,0.553664,-18.462334,0.999997,0.000221,-0.002638,0.008178,0.000453,0.008197,-0.002657,87.607080,0.008364,
1130,570,0.274138,-16.318502,0.999997,0.000212,-0.003139,0.007173,-0.001354,0.007348,-0.003314,-82.642111,0.007359,
1000,560,0.783625,-15.912509,0.999997,0.000232,-0.004728,0.009205,-0.001543,0.009374,-0.004897,-83.756375,0.009377,
1480,1630,-0.714696,-3.095882,0.999998,0.000197,-0.003842,0.008724,-0.000714,0.008764,-0.003883,-86.760467,0.008783,
1660,1910,-0.550020,-0.972623,0.999994,0.000285,-0.002551,0.008483,0.001614,0.008715,-0.002782,81.848784,0.008902,
1780,860,-3.486013,-11.693778,0.999995,0.000265,-0.004889,0.009890,-0.000945,0.009950,-0.004949,-86.357698,0.009950,
1790,680,-2.904687,-13.504704,0.999996,0.000229,-0.005237,0.010308,-0.000421,0.010319,-0.005249,-88.448545,0.010320,
880,1410,1.599117,-5.632245,0.999995,0.000242,-0.006165,0.011045,0.000637,0.011069,-0.006189,87.884602,0.011094,
900,1860,0.499370,-1.287679,0.999996,0.000242,-0.002241,0.008141,-0.000934,0.008224,-0.002324,-84.900637,0.008479,
830,810,2.510896,-12.460729,0.999993,0.000314,-0.006108,0.011531,0.001065,0.011595,-0.006173,86.556841,0.011603,
850,1960,0.270612,-0.543765,0.999996,0.000221,-0.001166,0.007489,-0.001587,0.007771,-0.001448,-79.928898,0.008265,
970,1020,2.661887,-10.176096,0.999997,0.000230,-0.004025,0.012995,0.000097,0.012996,-0.004026,89.672909,0.013305,
1870,740,-3.518695,-12.683836,0.999997,0.000230,-0.004862,0.009779,-0.000295,0.009785,-0.004868,-88.844313,0.009785,
1720,370,-1.616176,-16.917541,0.999995,0.000255,-0.004762,0.009966,-0.000062,0.009966,-0.004762,-89.757314,0.009970,
1140,710,0.233110,-15.413288,0.999997,0.000193,-0.003537,0.006280,-0.003093,0.007173,-0.004430,-73.894221,0.007239,
790,490,1.712029,-15.848805,0.999996,0.000223,-0.005115,0.010171,-0.000342,0.010179,-0.005123,-88.719321,0.010179,
1280,370,-0.106584,-17.828933,0.999998,0.000166,-0.002152,0.007097,0.000127,0.007098,-0.002154,89.214392,0.007279,
960,140,0.253837,-19.340022,0.999997,0.000188,-0.001520,0.007228,0.000801,0.007301,-0.001592,84.811375,0.007678,
580,1130,4.118715,-9.213641,0.999998,0.000173,-0.004033,0.008696,-0.000297,0.008703,-0.004040,-88.664441,0.008710,
1190,1250,0.134486,-4.829386,0.999996,0.000233,-0.003499,0.002767,0.002227,0.003477,-0.004210,72.296431,0.004498,
900,750,1.800803,-13.394327,0.999992,0.000304,-0.006930,0.012053,-0.000120,0.012053,-0.006931,-89.638695,0.012099,
1150,180,0.081954,-19.147653,0.999997,0.000202,-0.001067,0.006657,0.000152,0.006660,-0.001070,88.875204,0.007153,
1860,1520,-2.797548,-5.373099,0.999996,0.000235,-0.005042,0.010182,-0.000054,0.010182,-0.005042,-89.797288,0.010182,
900,1550,1.189694,-4.095058,0.999996,0.000278,-0.004943,0.009825,0.000802,0.009869,-0.004987,86.901439,0.009869,
1350,410,-0.288337,-17.464016,0.999997,0.000221,-0.002667,0.007430,0.000536,0.007459,-0.002696,86.970530,0.007554,
1560,1860,-0.492284,-1.286149,0.999996,0.000233,-0.002139,0.008127,0.000931,0.008211,-0.002223,84.857407,0.008493,
740,1540,2.034729,-4.731007,0.999995,0.000260,-0.005200,0.010318,0.000218,0.010321,-0.005203,89.194620,0.010321,
1060,1040,2.045352,-9.735080,0.999953,0.000000,-0.010691,0.026944,0.001637,0.027015,-0.010762,87.513906,0.027200,
800,1090,3.226282,-9.441069,0.999996,0.000215,-0.004294,0.010336,-0.000869,0.010387,-0.004346,-86.612210,0.010433,
1610,850,-2.553140,-12.039824,0.999993,0.000320,-0.005936,0.011655,-0.001274,0.011747,-0.006028,-85.879761,0.011748,
660,340,1.921923,-16.952115,0.999996,0.000235,-0.004941,0.010039,0.000028,0.010039,-0.004941,89.894647,0.010039,
1810,1550,-2.458257,-4.909163,0.999996,0.000268,-0.005134,0.010170,-0.000142,0.010172,-0.005136,-89.467114,0.010172,
890,1220,2.251781,-7.846900,0.999995,0.000227,-0.006539,0.012205,-0.001011,0.012260,-0.006593,-86.920811,0.012271,
1400,260,-0.280836,-18.535442,0.999997,0.000202,-0.002008,0.007354,-0.000091,0.007355,-0.002009,-89.443988,0.007603,
1880,200,-1.706889,-18.055735,0.999996,0.000221,-0.004884,0.009855,-0.000400,0.009866,-0.004895,-88.445053,0.009866,
1290,120,-0.036770,-19.541983,0.999998,0.000171,-0.000541,0.006378,-0.000178,0.006383,-0.000545,-88.524950,0.007076,
1650,1090,-3.170400,-9.434815,0.999995,0.000270,-0.004267,0.010444,0.000927,0.010502,-0.004325,86.408810,0.010557,
1900,1210,-3.996967,-8.555431,0.999997,0.000000,-0.004432,0.009191,0.000198,0.009194,-0.004435,89.166666,0.009196,
1370,1380,-0.418068,-4.790507,0.999995,0.000273,-0.004547,0.007944,-0.002959,0.008609,-0.005213,-77.323418,0.008673,
1520,1680,-0.789026,-2.757992,0.999997,0.000179,-0.003570,0.008699,-0.000328,0.008707,-0.003579,-88.470421,0.008753,
1740,400,-1.805181,-16.548761,0.999996,0.000243,-0.004894,0.010163,0.000108,0.010164,-0.004895,89.587174,0.010166,
1430,1910,-0.174982,-0.821368,0.999997,0.000183,-0.001214,0.006935,0.000531,0.006969,-0.001248,86.284202,0.007432,
1740,910,-3.445290,-11.233284,0.999997,0.000216,-0.004671,0.009956,-0.000908,0.010012,-0.004728,-86.460154,0.010017,
1040,700,0.712012,-14.789096,0.999994,0.000281,-0.005945,0.009926,-0.002812,0.010410,-0.006428,-80.243709,0.010505,
1240,540,-0.021252,-16.672671,0.999998,0.000182,-0.002535,0.006563,0.000207,0.006568,-0.002540,88.695535,0.006624,
870,1110,2.875409,-9.186340,0.999996,0.000259,-0.004513,0.011092,-0.001233,0.011189,-0.004609,-85.509136,0.011247,
1290,1250,-0.194670,-4.967263,0.999996,0.000256,-0.003742,0.003604,-0.003044,0.004701,-0.004840,-70.173275,0.005510,
810,1280,2.485214,-7.345582,0.999996,0.000288,-0.006061,0.011303,-0.000829,0.011342,-0.006101,-87.271625,0.011353,
1770,680,-2.799482,-13.559973,0.999994,0.000270,-0.005347,0.010451,-0.000419,0.010462,-0.005358,-88.482305,0.010463,
1200,1330,0.062679,-4.528211,0.999997,0.000195,-0.002224,0.004002,0.001440,0.004319,-0.002541,77.589288,0.004341,
700,900,3.528706,-11.313025,0.999996,0.000237,-0.004718,0.009808,0.000861,0.009859,-0.004769,86.618134,0.009861,
1190,1920,0.031701,-0.712270,0.999998,0.000167,-0.000679,0.006383,-0.000071,0.006384,-0.000680,-89.423880,0.007012,
830,1960,0.295019,-0.550586,0.999997,0.000199,-0.001114,0.007660,-0.001780,0.008008,-0.001461,-78.958481,0.008529,
1810,1520,-2.543849,-5.215663,0.999993,0.000311,-0.005144,0.010216,-0.000058,0.010216,-0.005144,-89.783767,0.010216,
770,420,1.630096,-16.497583,0.999996,0.000243,-0.004894,0.010033,-0.000206,0.010036,-0.004897,-89.208172,0.010037,
790,470,1.661915,-16.052721,0.999996,0.000231,-0.005048,0.010135,-0.000320,0.010141,-0.005055,-88.792453,0.010141,
900,1840,0.556990,-1.455175,0.999996,0.000234,-0.002468,0.008249,-0.000812,0.008311,-0.002530,-85.691714,0.008520,
760,1470,2.126283,-5.398559,0.999994,0.000279,-0.005499,0.010562,0.000115,0.010563,-0.005500,89.588501,0.010566,
1780,840,-3.423664,-11.892941,0.999994,0.000278,-0.004910,0.009860,-0.000888,0.009913,-0.004963,-86.570796,0.009913,
960,120,0.214057,-19.480767,0.999998,0.000193,-0.001279,0.007132,0.000872,0.007222,-0.001369,84.143180,0.007672,
1360,390,-0.307209,-17.598359,0.999997,0.000212,-0.002541,0.007554,0.000385,0.007569,-0.002556,87.820796,0.007701,
1560,1840,-0.552313,-1.452043,0.999997,0.000220,-0.002386,0.008232,0.000819,0.008295,-0.002449,85.614659,0.008523,
1060,1030,2.056585,-10.006011,0.999955,0.000000,-0.010764,0.027421,0.000307,0.027424,-0.010767,89.539317,0.027634,
910,720,1.624535,-13.797683,0.999992,0.000328,-0.006863,0.011760,-0.000553,0.011776,-0.006879,-88.299643,0.011832,
1130,550,0.272493,-16.461967,0.999997,0.000209,-0.003029,0.007212,-0.001183,0.007347,-0.003164,-83.493964,0.007370,
580,1080,4.188986,-9.635639,0.999997,0.000201,-0.003956,0.008267,0.000009,0.008267,-0.003956,89.959618,0.008269,
1610,830,-2.461619,-12.276319,0.999993,0.000294,-0.006146,0.011750,-0.001153,0.011824,-0.006220,-86.328229,0.011830,
1350,390,-0.281171,-17.611168,0.999997,0.000195,-0.002572,0.007479,0.000451,0.007499,-0.002592,87.433042,0.007617,
1730,1440,-2.365112,-5.801908,0.999995,0.000261,-0.005506,0.010521,0.000089,0.010521,-0.005507,89.683006,0.010525,
930,900,2.349028,-11.626062,0.999997,0.000214,-0.005995,0.012663,0.001356,0.012761,-0.006093,85.864285,0.012766,
1290,180,-0.061210,-19.150515,0.999998,0.000179,-0.000948,0.006605,-0.000115,0.006607,-0.000950,-89.129841,0.007144,
1080,530,0.438721,-16.461895,0.999997,0.000193,-0.003593,0.007968,-0.001441,0.008145,-0.003770,-82.999756,0.008152,
870,1220,2.377575,-7.898998,0.999992,0.000311,-0.006288,0.011959,-0.001145,0.012031,-0.006359,-86.424574,0.012037,
1400,240,-0.258921,-18.683872,0.999998,0.000192,-0.001810,0.007333,-0.000184,0.007337,-0.001814,-88.847645,0.007643,
1810,1530,-2.514022,-5.111895,0.999995,0.000289,-0.005152,0.010213,-0.000096,0.010214,-0.005153,-89.640873,0.010214,
1400,830,-0.923197,-13.598331,0.999994,0.000299,-0.007469,0.011643,0.003243,0.012178,-0.008005,80.626045,0.012377,
1900,1200,-4.028619,-8.647704,0.999997,0.000000,-0.004386,0.008922,0.000153,0.008924,-0.004388,89.343336,0.008924,
1370,1360,-0.424508,-4.955222,0.999996,0.000255,-0.004765,0.008080,-0.003184,0.008826,-0.005511,-76.817121,0.008917,
1720,350,-1.553927,-17.116794,0.999995,0.000233,-0.004690,0.009954,-0.000139,0.009955,-0.004691,-89.455559,0.009961,
1370,1660,-0.334936,-2.612844,0.999996,0.000225,-0.002585,0.007557,-0.000404,0.007573,-0.002601,-87.721444,0.007696,
1520,1660,-0.821863,-2.937647,0.999998,0.000176,-0.003666,0.008817,-0.000402,0.008830,-0.003679,-88.156527,0.008871,
1190,1230,0.190066,-4.881024,0.999994,0.000275,-0.004514,0.002880,0.001456,0.003157,-0.004790,79.253355,0.004870,
740,950,3.459089,-10.846709,0.999994,0.000269,-0.004481,0.009996,0.000855,0.010047,-0.004531,86.630174,0.010063,
1800,1250,-3.402802,-7.952400,0.999995,0.000250,-0.004970,0.009958,0.000815,0.010002,-0.005015,86.885662,0.010002,
1280,310,-0.092920,-18.257681,0.999997,0.000194,-0.001840,0.007066,0.000051,0.007066,-0.001840,89.674902,0.007331,
1850,680,-3.212168,-13.340263,0.999996,0.000212,-0.005034,0.010082,-0.000280,0.010087,-0.005040,-88.937517,0.010087,
870,1070,2.984999,-9.625539,0.999997,0.000213,-0.003943,0.010817,-0.000743,0.010855,-0.003980,-87.123707,0.010982,
1430,1890,-0.209682,-0.964986,0.999998,0.000188,-0.001379,0.006998,0.000461,0.007023,-0.001404,86.860386,0.007433,
1240,520,-0.021972,-16.804656,0.999998,0.000189,-0.002536,0.006684,0.000188,0.006688,-0.002539,88.833087,0.006752,
1220,1310,0.023082,-4.559106,0.999998,0.000172,-0.002034,0.003223,0.000609,0.003293,-0.002104,83.474430,0.003335,
1040,680,0.690604,-14.984020,0.999994,0.000281,-0.005636,0.009638,-0.002665,0.010089,-0.006087,-80.381719,0.010161,
700,880,3.467743,-11.514166,0.999996,0.000261,-0.004850,0.010019,0.001026,0.010090,-0.004921,86.072435,0.010091,
1740,1850,-1.084211,-1.649639,0.999996,0.000230,-0.004069,0.009844,0.001187,0.009944,-0.004170,85.159865,0.009987,
960,100,0.165158,-19.624756,0.999998,0.000198,-0.001081,0.006951,0.000912,0.007053,-0.001183,83.600060,0.007555,
1650,1070,-3.208527,-9.645032,0.999997,0.000221,-0.004120,0.010269,0.000555,0.010291,-0.004142,87.794275,0.010356,
1360,1990,-0.035145,-0.279176,0.999998,0.000169,-0.000284,0.006216,0.000373,0.006238,-0.000305,86.727649,0.007033,
1060,1020,2.037344,-10.285906,0.999961,0.000000,-0.010463,0.027821,-0.001311,0.027866,-0.010508,-88.041009,0.028145,
1010,400,0.587221,-17.344657,0.999997,0.000227,-0.003188,0.008316,-0.000476,0.008336,-0.003208,-87.633494,0.008409,
790,450,1.607631,-16.257483,0.999997,0.000219,-0.004950,0.010086,-0.000282,0.010091,-0.004955,-88.924071,0.010092,
570,1080,4.227801,-9.645102,0.999945,0.000885,-0.003880,0.008140,0.000068,0.008141,-0.003881,89.678245,0.008144,
1610,810,-2.370252,-12.514240,0.999994,0.000274,-0.006312,0.011809,-0.000965,0.011861,-0.006363,-86.959960,0.011871,
1560,1820,-0.603976,-1.617900,0.999997,0.000207,-0.002561,0.008366,0.000690,0.008409,-0.002605,86.398963,0.008610,
1900,1190,-4.054944,-8.736367,0.999998,0.000000,-0.004354,0.008634,0.000092,0.008634,-0.004355,89.595427,0.008634,
1130,530,0.274499,-16.604122,0.999997,0.000204,-0.002974,0.007275,-0.001051,0.007382,-0.003081,-84.205757,0.007415,
740,1470,2.233375,-5.462266,0.999996,0.000219,-0.005428,0.010535,0.000053,0.010535,-0.005428,89.809286,0.010537,
1470,120,-0.173786,-19.496050,0.999998,0.000183,-0.000883,0.006978,-0.000806,0.007060,-0.000964,-84.205266,0.007657,
910,900,2.467275,-11.568133,0.999995,0.000245,-0.005697,0.012283,0.001437,0.012397,-0.005811,85.459323,0.012405,
1090,690,0.437990,-15.224391,0.999994,0.000291,-0.004764,0.008175,-0.003127,0.008891,-0.005480,-77.100230,0.008971,
1200,710,0.062637,-15.692224,0.999996,0.000230,-0.002229,0.004358,-0.001323,0.004614,-0.002485,-79.059517,0.004618,
1430,1500,-0.635647,-4.073590,0.999995,0.000244,-0.004334,0.008707,-0.001642,0.008910,-0.004538,-82.934341,0.008911,
1780,820,-3.357411,-12.090786,0.999995,0.000256,-0.004993,0.010059,-0.000927,0.010116,-0.005050,-86.487988,0.010116,
1570,1380,-1.597797,-5.914995,0.999996,0.000265,-0.006418,0.011285,-0.000592,0.011304,-0.006438,-88.088148,0.011341,
960,1730,0.643191,-2.289006,0.999998,0.000197,-0.003299,0.008579,0.000107,0.008580,-0.003299,89.485797,0.008656,
1810,1510,-2.573486,-5.319275,0.999995,0.000262,-0.005139,0.010225,-0.000039,0.010225,-0.005139,-89.855178,0.010225,
900,1820,0.611924,-1.620512,0.999997,0.000224,-0.002634,0.008402,-0.000707,0.008447,-0.002679,-86.348234,0.008633,
1410,1860,-0.219713,-1.160393,0.999997,0.000197,-0.001622,0.007126,0.000335,0.007138,-0.001634,87.812951,0.007480,
930,700,1.425895,-14.126335,0.999994,0.000284,-0.006708,0.011461,-0.000961,0.011511,-0.006758,-86.979681,0.011569,
1790,1000,-3.814653,-10.339916,0.999997,0.000190,-0.004333,0.009400,-0.000291,0.009407,-0.004339,-88.786317,0.009416,
570,350,2.390407,-16.536572,0.999879,0.001260,-0.005576,0.010021,0.000667,0.010049,-0.005605,87.557066,0.010072,
1650,120,-0.418352,-19.403309,0.999996,0.000261,-0.001872,0.008129,-0.001782,0.008437,-0.002180,-80.192704,0.008759,
1190,830,0.207576,-15.263875,0.999991,0.000350,-0.004895,0.002966,-0.001168,0.003135,-0.005065,-81.726147,0.005113,
900,1790,0.693845,-1.877797,0.999996,0.000207,-0.002929,0.008552,-0.000488,0.008573,-0.002950,-87.568307,0.008710,
930,1660,0.868278,-2.966467,0.999996,0.000239,-0.003727,0.008916,0.000344,0.008925,-0.003737,88.442182,0.008965,
1040,660,0.673207,-15.171189,0.999995,0.000270,-0.005368,0.009371,-0.002528,0.009792,-0.005790,-80.532450,0.009847,
1830,680,-3.111117,-13.396699,0.999996,0.000244,-0.005086,0.010127,-0.000360,0.010135,-0.005095,-88.644472,0.010135,
1860,1990,-0.586040,-0.565354,0.999994,0.000275,-0.004217,0.011166,0.003110,0.011771,-0.004822,78.992375,0.011835,
700,860,3.402554,-11.716406,0.999995,0.000277,-0.004914,0.010016,0.000998,0.010082,-0.004980,86.191728,0.010082,
1240,500,-0.021233,-16.938466,0.999998,0.000182,-0.002539,0.006782,0.000178,0.006785,-0.002543,88.906175,0.006856,
1430,1870,-0.236961,-1.102477,0.999997,0.000198,-0.001566,0.007122,0.000391,0.007139,-0.001583,87.430508,0.007499,
910,1600,1.056569,-3.582707,0.999996,0.000242,-0.004439,0.009472,0.000658,0.009504,-0.004470,87.297731,0.009509,
950,960,2.571051,-10.921335,0.999993,0.000293,-0.004622,0.012600,0.001155,0.012678,-0.004699,86.180037,0.012818,
1400,220,-0.233529,-18.828558,0.999998,0.000190,-0.001668,0.007162,-0.000229,0.007168,-0.001674,-88.516974,0.007500,
1350,370,-0.269998,-17.764527,0.999998,0.000175,-0.002469,0.007522,0.000329,0.007533,-0.002480,88.115861,0.007678,
1220,1330,0.021873,-4.491597,0.999998,0.000167,-0.001984,0.003714,0.000542,0.003765,-0.002035,84.616210,0.003769,
1370,1920,-0.106131,-0.731174,0.999998,0.000138,-0.000772,0.006592,0.000358,0.006610,-0.000789,87.226827,0.007220,
950,680,1.243768,-14.451754,0.999994,0.000289,-0.006480,0.011132,-0.001392,0.011241,-0.006589,-85.508769,0.011297,
620,360,2.186280,-16.616644,0.999995,0.000272,-0.004889,0.010023,-0.000079,0.010023,-0.004890,-89.696693,0.010024,
670,1220,3.468805,-8.237643,0.999995,0.000255,-0.004875,0.009782,-0.000841,0.009830,-0.004923,-86.725444,0.009831,
870,1050,3.007082,-9.837702,0.999997,0.000216,-0.003769,0.010633,-0.000415,0.010645,-0.003781,-88.351576,0.010792,
960,80,0.123873,-19.758763,0.999998,0.000186,-0.000824,0.006798,0.000912,0.006905,-0.000932,83.267667,0.007494,
1610,790,-2.281441,-12.751816,0.999995,0.000257,-0.006418,0.011787,-0.000795,0.011822,-0.006453,-87.503720,0.011838,
1410,520,-0.531437,-16.461098,0.999995,0.000264,-0.003733,0.008278,0.001301,0.008417,-0.003872,83.888911,0.008426,
720,1470,2.342431,-5.524222,0.999995,0.000249,-0.005392,0.010467,0.000023,0.010467,-0.005392,89.918462,0.010469,
1130,510,0.271287,-16.750899,0.999997,0.000189,-0.002923,0.007268,-0.000924,0.007351,-0.003006,-84.863768,0.007392,
920,250,0.603581,-18.435604,0.999997,0.000211,-0.002514,0.008371,0.000587,0.008403,-0.002545,86.924528,0.008618,
1690,370,-1.481857,-17.001368,0.999996,0.000215,-0.004535,0.009775,-0.000022,0.009775,-0.004535,-89.911364,0.009784,
1520,1640,-0.852744,-3.112745,0.999997,0.000201,-0.003802,0.008916,-0.000508,0.008936,-0.003822,-87.718231,0.008967,
1000,540,0.765876,-16.093998,0.999996,0.000253,-0.004456,0.009072,-0.001372,0.009210,-0.004593,-84.268084,0.009210,
590,670,3.293696,-13.371983,0.999995,0.000273,-0.004966,0.010072,0.000157,0.010073,-0.004968,89.403610,0.010074,
900,1800,0.666986,-1.791547,0.999996,0.000217,-0.002843,0.008517,-0.000569,0.008545,-0.002872,-87.137961,0.008697,
1740,830,-3.187758,-12.052607,0.999997,0.000217,-0.005162,0.010379,-0.001069,0.010452,-0.005235,-86.084280,0.010452,
1900,1180,-4.079290,-8.820041,0.999997,0.000000,-0.004329,0.008384,0.000045,0.008384,-0.004330,89.796000,0.008386,
1650,1050,-3.228579,-9.848744,0.999996,0.000232,-0.003992,0.010212,0.000348,0.010220,-0.004000,88.598363,0.010300,
1810,1060,-3.897948,-9.779666,0.999997,0.000210,-0.004328,0.009170,0.000277,0.009175,-0.004333,88.824587,0.009180,
1560,1250,-2.016712,-7.426032,0.999996,0.000251,-0.006898,0.012412,0.000513,0.012425,-0.006911,88.480546,0.012451,
1340,1990,-0.028905,-0.277394,0.999999,0.000149,-0.000358,0.006178,0.000297,0.006191,-0.000371,87.400002,0.006945,
1810,980,-3.884845,-10.520187,0.999998,0.000181,-0.004308,0.009147,-0.000194,0.009150,-0.004311,-89.174096,0.009155,
1450,120,-0.158957,-19.500734,0.999998,0.000176,-0.000874,0.006881,-0.000705,0.006944,-0.000938,-84.846342,0.007536,
1810,1490,-2.635175,-5.523865,0.999996,0.000239,-0.005130,0.010263,-0.000006,0.010263,-0.005130,-89.976761,0.010263,
570,340,2.360537,-16.634618,0.999883,0.001244,-0.004888,0.009959,0.000149,0.009961,-0.004890,89.426125,0.009961,
1390,1440,-0.490137,-4.410626,0.999996,0.000245,-0.004368,0.008260,-0.002286,0.008661,-0.004769,-80.050042,0.008675,
1230,180,0.002238,-19.159307,0.999998,0.000174,-0.001136,0.006570,-0.000001,0.006570,-0.001136,-89.992985,0.007023,
1340,490,-0.286791,-16.885124,0.999997,0.000196,-0.002900,0.007362,0.000840,0.007431,-0.002968,85.351261,0.007480,
790,430,1.558641,-16.458815,0.999995,0.000255,-0.004810,0.009954,-0.000257,0.009959,-0.004814,-89.001484,0.009960,
740,1560,1.981021,-4.526601,0.999996,0.000228,-0.005148,0.010258,0.000248,0.010262,-0.005152,89.077451,0.010262,
1460,1630,-0.637480,-3.039722,0.999997,0.000240,-0.003608,0.008497,-0.000708,0.008539,-0.003649,-86.662216,0.008568,
1190,70,0.013783,-19.855054,0.999998,0.000177,-0.000281,0.006109,0.000144,0.006112,-0.000284,88.706949,0.006900,
1060,1010,2.048021,-10.576164,0.999975,0.000000,-0.010200,0.027413,-0.002515,0.027580,-0.010367,-86.192123,0.027862,
660,320,1.859254,-17.153890,0.999997,0.000225,-0.004864,0.010048,0.000104,0.010049,-0.004865,89.601852,0.010050,
1240,1320,-0.016327,-4.522375,0.999997,0.000186,-0.001960,0.003436,-0.000408,0.003467,-0.001991,-85.697434,0.003479,
1390,1920,-0.120895,-0.737172,0.999997,0.000173,-0.000829,0.006673,0.000421,0.006696,-0.000852,86.799572,0.007290,
700,830,3.304891,-12.016964,0.999997,0.000200,-0.005072,0.010133,0.000989,0.010197,-0.005136,86.294992,0.010197,
1400,200,-0.207217,-18.971257,0.999998,0.000203,-0.001493,0.007080,-0.000320,0.007092,-0.001505,-87.862421,0.007473,
700,840,3.338351,-11.914797,0.999996,0.000240,-0.005013,0.010047,0.000972,0.010110,-0.005075,86.321701,0.010110,
1130,490,0.268510,-16.897483,0.999997,0.000195,-0.002882,0.007299,-0.000850,0.007370,-0.002953,-85.258949,0.007418,
1610,990,-3.057205,-10.475679,0.999996,0.000258,-0.003926,0.010541,-0.000579,0.010564,-0.003949,-87.713103,0.010675,
1430,1850,-0.272371,-1.251235,0.999998,0.000187,-0.001722,0.007285,0.000346,0.007298,-0.001736,87.805065,0.007625,
1020,690,0.819610,-14.754753,0.999995,0.000252,-0.006115,0.010248,-0.002486,0.010618,-0.006484,-81.550536,0.010704,
620,380,2.251018,-16.413747,0.999995,0.000268,-0.004940,0.010080,-0.000094,0.010080,-0.004941,-89.639648,0.010081,
1690,350,-1.422125,-17.198744,0.999996,0.000222,-0.004427,0.009816,-0.000122,0.009817,-0.004428,-89.510680,0.009832,
1570,310,-0.827905,-17.876253,0.999996,0.000239,-0.003549,0.008883,-0.000150,0.008885,-0.003551,-89.309831,0.008945,
1780,800,-3.280785,-12.296160,0.999996,0.000238,-0.005090,0.010172,-0.000907,0.010226,-0.005144,-86.612624,0.010226,
1040,860,1.296648,-12.936886,0.999992,0.000330,-0.007392,0.013207,-0.002351,0.013472,-0.007656,-83.571601,0.013514,
880,450,1.180169,-16.537235,0.999998,0.000215,-0.004560,0.009630,-0.000519,0.009649,-0.004579,-87.907769,0.009653,
1350,350,-0.256254,-17.915314,0.999997,0.000194,-0.002384,0.007363,0.000329,0.007374,-0.002395,88.067978,0.007523,
960,60,0.080149,-19.897398,0.999998,0.000197,-0.000604,0.006602,0.000893,0.006711,-0.000713,83.042365,0.007372,
1650,1030,-3.244822,-10.055295,0.999996,0.000239,-0.003984,0.010252,0.000033,0.010252,-0.003984,89.867890,0.010337,
1000,520,0.749421,-16.273522,0.999996,0.000229,-0.004249,0.008954,-0.001248,0.009071,-0.004366,-84.647708,0.009073,
1740,380,-1.743195,-16.753398,0.999997,0.000247,-0.004896,0.010100,0.000059,0.010101,-0.004896,89.773556,0.010102,
580,660,3.308184,-13.440324,0.999996,0.000234,-0.004722,0.010169,0.000069,0.010169,-0.004723,89.735343,0.010178,
1900,1170,-4.101630,-8.902328,0.999997,0.000000,-0.004285,0.008267,0.000069,0.008267,-0.004285,89.684022,0.008269,
830,740,2.223897,-13.269883,0.999992,0.000328,-0.006329,0.011462,0.000476,0.011475,-0.006342,88.469552,0.011496,
1790,1060,-3.810479,-9.773435,0.999995,0.000249,-0.004345,0.009333,0.000279,0.009338,-0.004350,88.831208,0.009346,
1080,1990,0.040988,-0.280432,0.999999,0.000155,-0.000230,0.006262,-0.000446,0.006292,-0.000260,-86.084821,0.007120,
1740,810,-3.113404,-12.262393,0.999995,0.000249,-0.005260,0.010435,-0.001031,0.010502,-0.005327,-86.257231,0.010502,
650,1220,3.565758,-8.271649,0.999994,0.000267,-0.004791,0.009638,-0.000750,0.009676,-0.004830,-87.032650,0.009676,
1010,940,2.132723,-11.471861,0.999993,0.000293,-0.006074,0.014933,-0.000445,0.014943,-0.006083,-88.786083,0.015028,
890,1600,1.144773,-3.641446,0.999996,0.000264,-0.004506,0.009590,0.000548,0.009611,-0.004528,87.776406,0.009616,
1810,1470,-2.695863,-5.730401,0.999996,0.000247,-0.005153,0.010262,0.000054,0.010262,-0.005154,89.798037,0.010262,
1340,550,-0.295213,-16.444224,0.999997,0.000188,-0.003128,0.007301,0.001271,0.007454,-0.003280,83.148873,0.007472,
660,50,0.266062,-19.896494,0.999995,0.000262,-0.000932,0.008785,0.003849,0.010125,-0.002272,70.806968,0.010626,
570,1530,2.935076,-5.370997,0.999995,0.000265,-0.005053,0.010180,-0.000010,0.010180,-0.005053,-89.963294,0.010180,
1810,1000,-3.900451,-10.334298,0.999997,0.000206,-0.004307,0.009233,-0.000303,0.009239,-0.004314,-88.717911,0.009246,
790,410,1.509204,-16.656698,0.999996,0.000247,-0.004706,0.009902,-0.000169,0.009904,-0.004708,-89.336913,0.009908,
870,1030,3.026749,-10.052779,0.999996,0.000243,-0.003735,0.010720,-0.000078,0.010720,-0.003735,-89.691889,0.010883,
1540,190,-0.439461,-18.932134,0.999996,0.000233,-0.001886,0.007866,-0.000910,0.007950,-0.001971,-84.715913,0.008280,
1060,1000,2.061683,-10.867374,0.999961,0.000000,-0.009807,0.027053,-0.003928,0.027467,-0.010221,-83.984007,0.027764,
1190,810,0.147582,-15.316643,0.999995,0.000272,-0.003663,0.002783,-0.002128,0.003422,-0.004302,-73.282826,0.004546,
860,1490,1.521713,-4.851222,0.999996,0.000276,-0.005516,0.010428,0.000645,0.010454,-0.005542,87.688529,0.010460,
1610,1320,-2.059115,-6.760913,0.999995,0.000279,-0.006472,0.011598,0.000239,0.011602,-0.006475,89.242920,0.011628,
1410,1920,-0.138688,-0.744268,0.999998,0.000147,-0.001079,0.006745,0.000453,0.006771,-0.001105,86.699228,0.007265,
1240,1340,-0.016878,-4.446231,0.999998,0.000168,-0.001953,0.003955,-0.000401,0.003982,-0.001980,-86.134033,0.003982,
680,830,3.407816,-11.986771,0.999998,0.000203,-0.004971,0.009924,0.000879,0.009976,-0.005023,86.635218,0.009976,
1390,1390,-0.508077,-4.835417,0.999995,0.000250,-0.004828,0.008498,-0.002740,0.009040,-0.005369,-78.822277,0.009093,
1130,470,0.263883,-17.043647,0.999997,0.000196,-0.002830,0.007379,-0.000778,0.007438,-0.002889,-85.666678,0.007499,
900,1780,0.718052,-1.962952,0.999997,0.000198,-0.003023,0.008636,-0.000429,0.008652,-0.003039,-87.897274,0.008779,
1520,1620,-0.879344,-3.290728,0.999998,0.000200,-0.004008,0.009056,-0.000635,0.009087,-0.004039,-87.223860,0.009106,
1600,1160,-2.705049,-8.626995,0.999996,0.000246,-0.005315,0.011511,0.001437,0.011633,-0.005437,85.151938,0.011641,
1570,330,-0.871926,-17.696585,0.999996,0.000237,-0.003782,0.009055,0.000011,0.009055,-0.003782,89.948865,0.009095,
660,300,1.785338,-17.355900,0.999997,0.000226,-0.004775,0.010116,0.000258,0.010121,-0.004780,89.006437,0.010126,
1430,1830,-0.297978,-1.394461,0.999998,0.000194,-0.001913,0.007401,0.000239,0.007407,-0.001919,88.531109,0.007688,
1400,710,-0.591696,-14.859553,0.999994,0.000277,-0.005710,0.009335,0.003179,0.009979,-0.006354,78.546778,0.010102,
950,1990,0.095848,-0.297535,0.999998,0.000167,-0.000603,0.006731,-0.000981,0.006860,-0.000732,-82.511672,0.007535,
880,430,1.142581,-16.727678,0.999997,0.000222,-0.004409,0.009498,-0.000430,0.009512,-0.004422,-88.229001,0.009519,
1000,500,0.730601,-16.451236,0.999996,0.000240,-0.004113,0.008866,-0.001157,0.008968,-0.004216,-84.944797,0.008974,
1740,360,-1.687225,-16.955278,0.999995,0.000257,-0.004897,0.010015,-0.000019,0.010015,-0.004897,-89.926529,0.010016,
1690,330,-1.362203,-17.397132,0.999995,0.000247,-0.004386,0.009864,-0.000184,0.009866,-0.004389,-89.262047,0.009886,
740,1580,1.925619,-4.319034,0.999997,0.000219,-0.005095,0.010216,0.000251,0.010220,-0.005099,89.061038,0.010220,
1840,390,-2.267394,-16.324098,0.999996,0.000219,-0.004940,0.010052,0.000132,0.010053,-0.004941,89.493982,0.010054,
1540,1250,-1.875707,-7.347130,0.999996,0.000240,-0.007154,0.012613,0.000245,0.012616,-0.007157,89.289599,0.012654,
1900,1160,-4.123471,-8.985898,0.999997,0.000000,-0.004260,0.008275,0.000140,0.008276,-0.004262,89.362274,0.008277,
1030,950,2.084750,-11.520325,0.999990,0.000362,-0.006549,0.016177,-0.002210,0.016390,-0.006762,-84.497499,0.016474,
1350,330,-0.246808,-18.059019,0.999997,0.000198,-0.002282,0.007378,0.000227,0.007384,-0.002288,88.656058,0.007560,
630,1220,3.660939,-8.305949,0.999994,0.000304,-0.004710,0.009517,-0.000675,0.009549,-0.004742,-87.288155,0.009549,
1650,1010,-3.231443,-10.258339,0.999996,0.000218,-0.003982,0.010213,-0.000338,0.010221,-0.003990,-88.636945,0.010303,
1370,120,-0.091692,-19.526260,0.999998,0.000164,-0.000649,0.006555,-0.000414,0.006579,-0.000673,-86.719050,0.007239,
720,1450,2.403220,-5.735132,0.999995,0.000255,-0.005420,0.010459,-0.000067,0.010459,-0.005421,-89.756972,0.010462,
620,820,3.660513,-11.976487,0.999996,0.000215,-0.004714,0.009402,0.000531,0.009422,-0.004734,87.846767,0.009422,
1720,830,-3.082969,-12.082690,0.999995,0.000263,-0.005293,0.010577,-0.001131,0.010657,-0.005373,-85.944786,0.010658,
1060,1990,0.046909,-0.283046,0.999998,0.000145,-0.000410,0.006307,-0.000495,0.006344,-0.000446,-85.806867,0.007081,
1340,530,-0.294250,-16.588586,0.999997,0.000185,-0.003027,0.007384,0.001102,0.007499,-0.003142,84.025391,0.007532,
700,820,3.271010,-12.120530,0.999996,0.000232,-0.005142,0.010217,0.001009,0.010283,-0.005208,86.257431,0.010283,
1780,780,-3.211333,-12.500221,0.999997,0.000225,-0.005132,0.010152,-0.000822,0.010196,-0.005176,-86.930095,0.010196,
660,40,0.180500,-19.980654,0.999997,0.000213,-0.000577,0.008502,0.003890,0.009941,-0.002016,69.702417,0.010510,
1800,850,-3.552108,-11.764297,0.999995,0.000263,-0.004786,0.009729,-0.000849,0.009778,-0.004836,-86.665712,0.009779,
1060,990,2.025906,-11.109199,0.999964,0.000000,-0.008932,0.025196,-0.004837,0.025869,-0.009604,-82.086559,0.026153,
630,1020,4.016142,-10.148370,0.999997,0.000223,-0.004263,0.009053,0.000146,0.009055,-0.004264,89.373690,0.009060,
1810,1450,-2.758042,-5.936337,0.999996,0.000229,-0.005177,0.010233,0.000119,0.010234,-0.005178,89.557639,0.010234,
890,1580,1.181153,-3.832481,0.999996,0.000238,-0.004716,0.009663,0.000621,0.009690,-0.004743,87.529758,0.009690,
1330,870,-0.874053,-14.408246,0.999997,0.000240,-0.003255,0.004370,0.002783,0.005277,-0.004162,71.935308,0.005563,
1190,770,0.091874,-15.427752,0.999997,0.000249,-0.002625,0.003379,-0.002292,0.004154,-0.003400,-71.320522,0.004426,
860,1510,1.476125,-4.642123,0.999995,0.000275,-0.005397,0.010320,0.000647,0.010347,-0.005424,87.647820,0.010351,
1450,1500,-0.722366,-4.150904,0.999997,0.000226,-0.004428,0.008967,-0.001515,0.009136,-0.004598,-83.626130,0.009136,
1410,180,-0.198142,-19.105527,0.999998,0.000201,-0.001487,0.006993,-0.000346,0.007007,-0.001501,-87.665603,0.007378,
590,1850,1.698730,-2.118737,0.999996,0.000230,-0.004903,0.009931,-0.000431,0.009944,-0.004916,-88.337480,0.009944,
780,830,2.884075,-12.139328,0.999996,0.000236,-0.005505,0.010856,0.001187,0.010942,-0.005590,85.870564,0.010943,
1240,1360,-0.016707,-4.363225,0.999998,0.000184,-0.002022,0.004376,-0.000359,0.004396,-0.002042,-86.801721,0.004400,
790,390,1.455556,-16.855193,0.999996,0.000218,-0.004634,0.009841,-0.000113,0.009842,-0.004635,-89.550959,0.009848,
870,1010,3.011702,-10.266807,0.999997,0.000235,-0.003751,0.010681,0.000353,0.010690,-0.003759,88.600139,0.010846,
1400,180,-0.185452,-19.112703,0.999998,0.000184,-0.001352,0.006957,-0.000349,0.006971,-0.001366,-87.601015,0.007388,
1610,250,-0.808615,-18.325674,0.999997,0.000206,-0.003222,0.008903,-0.000699,0.008943,-0.003262,-86.710179,0.009051,
660,720,3.113821,-13.059635,0.999996,0.000214,-0.005119,0.010204,0.000544,0.010223,-0.005138,87.968984,0.010223,
1900,1150,-4.144982,-9.069366,0.999997,0.000000,-0.004227,0.008365,0.000215,0.008369,-0.004230,89.021265,0.008369,
1430,1810,-0.329976,-1.548396,0.999998,0.000185,-0.002095,0.007528,0.000169,0.007531,-0.002098,88.997011,0.007773,
1040,120,0.134418,-19.510333,0.999997,0.000225,-0.000996,0.006745,0.000558,0.006785,-0.001036,85.894792,0.007310,
1610,1300,-2.133296,-6.994440,0.999994,0.000311,-0.006484,0.011653,0.000437,0.011663,-0.006495,88.621968,0.011689,
1130,450,0.258923,-17.192668,0.999997,0.000207,-0.002763,0.007419,-0.000689,0.007465,-0.002809,-86.147884,0.007541,
830,790,2.426987,-12.690166,0.999993,0.000301,-0.006225,0.011522,0.000895,0.011567,-0.006270,87.121704,0.011580,
1690,310,-1.300403,-17.594534,0.999995,0.000249,-0.004336,0.009711,-0.000277,0.009716,-0.004341,-88.871027,0.009734,
1520,1600,-0.909241,-3.474100,0.999998,0.000192,-0.004254,0.009215,-0.000767,0.009259,-0.004297,-86.750924,0.009267,
950,1970,0.144844,-0.437420,0.999998,0.000191,-0.000821,0.006890,-0.000962,0.007008,-0.000940,-82.996382,0.007608,
1860,760,-3.540045,-12.516482,0.999996,0.000231,-0.004862,0.009794,-0.000394,0.009805,-0.004873,-88.460439,0.009805,
950,700,1.291766,-14.226232,0.999995,0.000246,-0.006745,0.011397,-0.001308,0.011491,-0.006839,-85.897981,0.011560,
1000,480,0.711068,-16.628870,0.999996,0.000251,-0.004039,0.008810,-0.001064,0.008898,-0.004126,-85.298564,0.008906,
940,1730,0.706282,-2.327654,0.999998,0.000188,-0.003194,0.008743,-0.000032,0.008743,-0.003194,-89.846910,0.008848,
900,1760,0.766755,-2.136671,0.999996,0.000228,-0.003228,0.008726,-0.000309,0.008734,-0.003236,-88.522643,0.008831,
1400,610,-0.532073,-15.740464,0.999995,0.000248,-0.004440,0.008519,0.002260,0.008902,-0.004823,80.385032,0.008913,
1570,350,-0.919472,-17.513157,0.999997,0.000219,-0.003981,0.009080,0.000140,0.009082,-0.003982,89.387179,0.009104,
1550,1380,-1.470812,-5.831483,0.999996,0.000246,-0.006475,0.011252,-0.000869,0.011294,-0.006517,-87.199723,0.011339,
1090,670,0.430655,-15.389995,0.999995,0.000265,-0.004555,0.008063,-0.002891,0.008694,-0.005186,-77.692051,0.008748,
880,330,0.926329,-17.660480,0.999998,0.000176,-0.003889,0.009173,0.000000,0.009173,-0.003889,-89.998472,0.009209,
1060,980,2.004651,-11.370795,0.999980,0.000000,-0.008221,0.022901,-0.005620,0.023884,-0.009205,-80.071426,0.024093,
750,90,0.392575,-19.604373,0.999997,0.000211,-0.001383,0.008105,0.002399,0.008678,-0.001955,76.586852,0.009103,
1350,310,-0.229209,-18.209438,0.999997,0.000184,-0.002169,0.007308,0.000153,0.007311,-0.002172,89.075865,0.007509,
620,800,3.598123,-12.166112,0.999996,0.000236,-0.004792,0.009631,0.000538,0.009651,-0.004813,87.867525,0.009651,
630,1280,3.459136,-7.722832,0.999996,0.000248,-0.004923,0.009870,-0.000592,0.009894,-0.004947,-87.710625,0.009894,
1880,160,-1.467311,-18.460745,0.999995,0.000256,-0.004897,0.010194,-0.000826,0.010239,-0.004943,-86.875541,0.010241,
800,830,2.771854,-12.172455,0.999997,0.000218,-0.005640,0.011055,0.001185,0.011138,-0.005723,85.959367,0.011140,
1650,990,-3.215007,-10.465276,0.999997,0.000203,-0.004052,0.010222,-0.000459,0.010237,-0.004067,-88.161846,0.010309,
730,340,1.585380,-17.180513,0.999995,0.000251,-0.004763,0.009986,0.000097,0.009986,-0.004763,89.622955,0.009990,
700,800,3.196557,-12.327587,0.999996,0.000249,-0.005221,0.010267,0.000959,0.010326,-0.005280,86.468736,0.010327,
1860,1730,-2.151513,-3.257907,0.999997,0.000209,-0.004866,0.009917,-0.000102,0.009918,-0.004867,-89.605290,0.009919,
1740,340,-1.620767,-17.157617,0.999995,0.000254,-0.004815,0.010009,-0.000072,0.010010,-0.004816,-89.720300,0.010012,
1840,470,-2.506330,-15.512458,0.999996,0.000230,-0.005067,0.010171,0.000126,0.010173,-0.005068,89.527767,0.010173,
1480,1000,-2.578540,-10.463675,0.999992,0.000352,-0.004402,0.014271,-0.000303,0.014276,-0.004407,-89.069550,0.014620,
1840,1990,-0.495377,-0.489684,0.999994,0.000281,-0.004394,0.010440,0.002746,0.010932,-0.004886,79.843550,0.010953,
1830,1500,-2.706421,-5.481951,0.999993,0.000289,-0.005098,0.010213,-0.000039,0.010213,-0.005098,-89.852492,0.010213,
1260,710,-0.057369,-15.699833,0.999998,0.000180,-0.002168,0.004329,0.001186,0.004538,-0.002378,79.972241,0.004540,
1520,1570,-0.956804,-3.759205,0.999996,0.000243,-0.004582,0.009406,-0.000933,0.009467,-0.004644,-86.202633,0.009468,
680,450,2.159758,-15.902609,0.999995,0.000263,-0.005027,0.010118,-0.000169,0.010120,-0.005029,-89.362163,0.010120,
820,1030,3.215749,-10.055033,0.999995,0.000263,-0.003961,0.010262,-0.000042,0.010262,-0.003961,-89.832097,0.010351,
1020,1450,0.727434,-4.577074,0.999996,0.000236,-0.004995,0.009280,0.001979,0.009549,-0.005265,82.251702,0.009566,
660,740,3.185528,-12.857175,0.999996,0.000218,-0.005092,0.010116,0.000628,0.010142,-0.005118,87.638312,0.010142,
990,1140,2.077530,-8.465473,0.999994,0.000289,-0.006444,0.014064,-0.000389,0.014071,-0.006451,-88.914569,0.014087,
1430,1790,-0.354252,-1.696864,0.999997,0.000194,-0.002275,0.007553,0.000063,0.007554,-0.002275,89.633695,0.007750,
1190,120,0.028071,-19.541896,0.999998,0.000182,-0.000602,0.006371,0.000119,0.006373,-0.000604,89.023080,0.007037,
1290,830,-0.286559,-15.111748,0.999994,0.000279,-0.004507,0.003393,0.001982,0.003862,-0.004976,76.679475,0.005223,
1690,290,-1.235732,-17.786230,0.999996,0.000217,-0.004225,0.009668,-0.000447,0.009683,-0.004240,-88.159121,0.009707,
1330,860,-0.747520,-14.449383,0.999996,0.000245,-0.003774,0.004771,0.002758,0.005583,-0.004587,73.579666,0.005956,
1190,750,0.087157,-15.498240,0.999997,0.000193,-0.002454,0.003701,-0.002103,0.004351,-0.003104,-72.825538,0.004481,
1650,940,-3.108267,-10.986669,0.999996,0.000252,-0.004517,0.010439,-0.001028,0.010509,-0.004587,-86.086082,0.010537,
880,1490,1.411421,-4.775489,0.999994,0.000276,-0.005505,0.010384,0.000781,0.010422,-0.005543,87.191093,0.010429,
1400,140,-0.135212,-19.386763,0.999998,0.000182,-0.001001,0.006741,-0.000406,0.006762,-0.001023,-87.006298,0.007290,
1200,1990,0.009851,-0.273749,0.999998,0.000145,-0.000305,0.006088,-0.000088,0.006089,-0.000306,-89.208860,0.006861,
720,890,3.401947,-11.434027,0.999996,0.000255,-0.004848,0.010137,0.001062,0.010212,-0.004923,85.964973,0.010214,
950,660,1.199865,-14.674421,0.999996,0.000240,-0.006212,0.010848,-0.001414,0.010964,-0.006329,-85.294250,0.011008,
1610,210,-0.680926,-18.680407,0.999996,0.000230,-0.002804,0.008591,-0.001006,0.008680,-0.002892,-84.991891,0.008839,
1430,180,-0.229545,-19.092437,0.999998,0.000192,-0.001513,0.007081,-0.000426,0.007102,-0.001534,-87.168584,0.007475,
1130,430,0.251820,-17.341013,0.999997,0.000205,-0.002710,0.007407,-0.000641,0.007448,-0.002751,-86.389684,0.007532,
1060,30,0.010210,-20.093898,0.999998,0.000000,-0.000264,0.006147,0.000461,0.006180,-0.000297,85.903582,0.006971,
1520,1580,-0.943428,-3.665455,0.999997,0.000224,-0.004495,0.009359,-0.000903,0.009418,-0.004554,-86.284640,0.009420,
1860,1500,-2.858423,-5.577217,0.999996,0.000218,-0.005073,0.010194,-0.000016,0.010194,-0.005073,-89.941163,0.010194,
1240,1380,-0.017511,-4.274132,0.999997,0.000190,-0.002105,0.004766,-0.000343,0.004783,-0.002122,-87.148757,0.004793,
950,1950,0.187102,-0.573624,0.999997,0.000201,-0.001089,0.007057,-0.000990,0.007175,-0.001207,-83.171733,0.007684,
790,370,1.403275,-17.053419,0.999996,0.000238,-0.004595,0.009732,-0.000071,0.009732,-0.004595,-89.716563,0.009737,
1340,1480,-0.297136,-3.895582,0.999997,0.000223,-0.003258,0.007271,-0.001520,0.007487,-0.003473,-81.946956,0.007493,
1900,1140,-4.167016,-9.152541,0.999997,0.000000,-0.004192,0.008504,0.000285,0.008510,-0.004198,88.713498,0.008510,
580,1850,1.747743,-2.166173,0.999996,0.000235,-0.005028,0.009982,-0.000462,0.009997,-0.005042,-88.237010,0.009997,
830,770,2.342579,-12.924111,0.999993,0.000291,-0.006313,0.011517,0.000728,0.011547,-0.006343,87.666518,0.011566,
730,660,2.526839,-13.871733,0.999994,0.000287,-0.005565,0.010587,0.000337,0.010594,-0.005572,88.804779,0.010599,
900,1740,0.813155,-2.313446,0.999996,0.000239,-0.003431,0.008864,-0.000126,0.008865,-0.003432,-89.412557,0.008940,
870,990,2.994325,-10.481288,0.999996,0.000267,-0.003903,0.010769,0.000624,0.010795,-0.003930,87.568547,0.010927,
1690,660,-2.284299,-13.997256,0.999994,0.000291,-0.005791,0.010761,-0.000209,0.010764,-0.005793,-89.278095,0.010774,
1000,460,0.690417,-16.806327,0.999996,0.000242,-0.003921,0.008692,-0.000971,0.008767,-0.003996,-85.624806,0.008778,
1570,370,-0.962235,-17.330250,0.999997,0.000225,-0.004095,0.009156,0.000240,0.009160,-0.004099,88.962504,0.009177,
1730,1380,-2.563590,-6.439583,0.999994,0.000294,-0.005597,0.010638,0.000409,0.010649,-0.005607,88.557521,0.010654,
1090,650,0.422873,-15.553250,0.999995,0.000252,-0.004348,0.007977,-0.002627,0.008514,-0.004884,-78.456460,0.008545,
1140,1730,0.181048,-2.030377,0.999998,0.000183,-0.002183,0.007217,0.000206,0.007222,-0.002187,88.742970,0.007407,
630,620,2.927031,-14.000872,0.999997,0.000199,-0.005111,0.010181,0.000150,0.010182,-0.005112,89.436242,0.010182,
750,70,0.279965,-19.766497,0.999997,0.000220,-0.000994,0.007864,0.002473,0.008507,-0.001638,75.409561,0.009028,
1360,770,-0.441095,-14.677219,0.999996,0.000254,-0.005597,0.008264,0.004277,0.009478,-0.006810,74.161171,0.009775,
1020,1430,0.748740,-4.768372,0.999994,0.000295,-0.005227,0.009386,0.002133,0.009691,-0.005532,81.863197,0.009723,
780,90,0.345298,-19.623086,0.999996,0.000218,-0.001575,0.007945,0.002087,0.008382,-0.002012,78.163455,0.008752,
1650,970,-3.183535,-10.671710,0.999996,0.000221,-0.004203,0.010411,-0.000849,0.010460,-0.004252,-86.685318,0.010521,
610,1280,3.557412,-7.774522,0.999995,0.000244,-0.004875,0.009763,-0.000484,0.009779,-0.004891,-88.108614,0.009779,
700,2010,0.191799,-0.213150,0.999998,0.000196,-0.001147,0.008275,-0.003166,0.009240,-0.002112,-73.047372,0.009684,
630,1580,2.485174,-4.675261,0.999995,0.000248,-0.005066,0.010149,0.000122,0.010150,-0.005066,89.539103,0.010150,
1520,1490,-1.071315,-4.531377,0.999997,0.000221,-0.005220,0.009963,-0.001237,0.010063,-0.005320,-85.373517,0.010068,
1690,270,-1.163744,-17.983695,0.999996,0.000225,-0.004106,0.009570,-0.000631,0.009599,-0.004135,-87.363593,0.009630,
660,760,3.257369,-12.655594,0.999996,0.000228,-0.005061,0.009998,0.000707,0.010031,-0.005094,87.316982,0.010031,
1540,310,-0.730821,-17.930630,0.999996,0.000243,-0.003089,0.008582,-0.000134,0.008584,-0.003090,-89.341090,0.008695,
1430,1770,-0.385813,-1.852811,0.999996,0.000238,-0.002461,0.007717,0.000021,0.007717,-0.002461,89.879898,0.007884,
700,780,3.123010,-12.532341,0.999996,0.000245,-0.005253,0.010296,0.000881,0.010346,-0.005302,86.766950,0.010347,
1480,1420,-0.958540,-5.052952,0.999995,0.000246,-0.005744,0.010050,-0.001825,0.010258,-0.005952,-83.495179,0.010302,
1750,940,-3.558603,-10.931831,0.999996,0.000210,-0.004521,0.009817,-0.000819,0.009863,-0.004568,-86.742810,0.009872,
1070,1600,0.438772,-3.125009,0.999997,0.000208,-0.003385,0.007955,0.000979,0.008039,-0.003469,85.100202,0.008064,
1050,2020,0.020777,-0.099570,0.999999,0.000000,-0.000244,0.006141,-0.000434,0.006170,-0.000273,-86.127154,0.006972,
1900,1130,-4.188066,-9.239114,0.999997,0.000000,-0.004175,0.008629,0.000343,0.008638,-0.004184,88.465042,0.008639,
1400,120,-0.110465,-19.520394,0.999998,0.000174,-0.000817,0.006656,-0.000470,0.006685,-0.000847,-86.411724,0.007280,
800,1030,3.292756,-10.053586,0.999995,0.000252,-0.004033,0.010136,-0.000055,0.010136,-0.004034,-89.776966,0.010206,
1130,410,0.245208,-17.491269,0.999997,0.000206,-0.002662,0.007364,-0.000596,0.007399,-0.002698,-86.612234,0.007489,
1520,1560,-0.971731,-3.853822,0.999997,0.000237,-0.004639,0.009445,-0.000966,0.009511,-0.004705,-86.094263,0.009512,
1510,180,-0.359051,-19.033834,0.999997,0.000188,-0.001974,0.007565,-0.000697,0.007616,-0.002024,-85.843358,0.007889,
950,1190,2.009692,-8.007260,0.999994,0.000307,-0.006920,0.013130,-0.000717,0.013156,-0.006945,-87.953537,0.013162,
1180,1990,0.014121,-0.274299,0.999998,0.000169,-0.000213,0.006096,-0.000147,0.006100,-0.000217,-88.668172,0.006921,
950,320,0.665893,-17.896164,0.999997,0.000193,-0.003218,0.008593,-0.000014,0.008593,-0.003218,-89.933389,0.008683,
1600,1600,-1.269027,-3.724355,0.999997,0.000234,-0.004768,0.009776,-0.000507,0.009794,-0.004786,-88.005492,0.009795,
750,440,1.784113,-16.228785,0.999995,0.000261,-0.004984,0.010116,-0.000232,0.010120,-0.004988,-89.118153,0.010120,
1290,290,-0.105258,-18.394713,0.999998,0.000162,-0.001698,0.007063,-0.000042,0.007063,-0.001698,-89.725121,0.007374,
1350,290,-0.219303,-18.353073,0.999998,0.000175,-0.002034,0.007296,0.000078,0.007297,-0.002034,89.518623,0.007531,
830,750,2.263506,-13.154660,0.999993,0.000326,-0.006329,0.011476,0.000561,0.011494,-0.006347,88.196104,0.011514,
1860,1460,-2.982891,-5.985394,0.999997,0.000224,-0.005091,0.010156,0.000041,0.010156,-0.005091,89.847333,0.010156,
1310,120,-0.047434,-19.541808,0.999998,0.000172,-0.000613,0.006412,-0.000204,0.006418,-0.000619,-88.340480,0.007080,
670,820,3.421672,-12.068489,0.999996,0.000237,-0.004935,0.009904,0.000846,0.009952,-0.004983,86.748448,0.009952,
1190,730,0.083755,-15.578328,0.999997,0.000205,-0.002392,0.004098,-0.001899,0.004613,-0.002906,-74.831401,0.004665,
700,890,3.499286,-11.412682,0.999995,0.000268,-0.004787,0.009927,0.000957,0.009989,-0.004849,86.293383,0.009991,
900,1720,0.856233,-2.493223,0.999997,0.000237,-0.003668,0.009029,0.000025,0.009029,-0.003668,89.887617,0.009082,
790,350,1.346755,-17.243615,0.999996,0.000253,-0.004549,0.009744,0.000022,0.009744,-0.004549,89.911288,0.009751,
1680,1190,-3.002303,-8.398585,0.999996,0.000246,-0.005199,0.010773,0.001233,0.010868,-0.005293,85.613099,0.010869,
1780,760,-3.138506,-12.703527,0.999997,0.000215,-0.005176,0.010226,-0.000743,0.010262,-0.005212,-87.243212,0.010262,
1000,440,0.666342,-16.979922,0.999996,0.000243,-0.003769,0.008601,-0.000849,0.008659,-0.003827,-86.090972,0.008678,
900,1770,0.742825,-2.049436,0.999997,0.000192,-0.003128,0.008709,-0.000379,0.008721,-0.003141,-88.169833,0.008834,
1500,1110,-2.428601,-9.007566,0.999993,0.000296,-0.005187,0.013163,0.001146,0.013234,-0.005258,86.440342,0.013327,
1840,450,-2.447021,-15.716587,0.999996,0.000221,-0.005042,0.010114,0.000130,0.010115,-0.005043,89.507531,0.010115,
1550,640,-1.383460,-14.720045,0.999995,0.000283,-0.006062,0.010878,0.000982,0.010934,-0.006119,86.692292,0.010960,
620,1090,4.012792,-9.522880,0.999997,0.000239,-0.004267,0.008818,-0.000153,0.008820,-0.004269,-89.329455,0.008822,
1740,320,-1.554183,-17.359477,0.999995,0.000254,-0.004697,0.010005,-0.000176,0.010007,-0.004699,-89.315861,0.010013,
660,450,2.261062,-15.836311,0.999996,0.000223,-0.005065,0.010099,-0.000165,0.010101,-0.005067,-89.377208,0.010101,
1120,1730,0.226755,-2.053738,0.999997,0.000191,-0.002240,0.007338,0.000241,0.007344,-0.002246,88.558229,0.007526,
1570,810,-2.108539,-12.634637,0.999994,0.000268,-0.006770,0.012306,-0.000691,0.012331,-0.006795,-87.928876,0.012352,
620,780,3.526859,-12.362385,0.999995,0.000251,-0.004883,0.009824,0.000545,0.009844,-0.004903,87.881347,0.009844,
1810,1430,-2.823664,-6.141106,0.999997,0.000209,-0.005187,0.010231,0.000180,0.010233,-0.005189,89.330280,0.010234,
930,60,0.093734,-19.890406,0.999998,0.000173,-0.000396,0.006713,0.001098,0.006878,-0.000562,81.416849,0.007639,
1650,950,-3.133798,-10.881951,0.999995,0.000259,-0.004406,0.010410,-0.001006,0.010478,-0.004474,-86.134780,0.010515,
1430,1750,-0.409155,-2.004799,0.999996,0.000240,-0.002605,0.007738,-0.000113,0.007739,-0.002607,-89.373242,0.007875,
1050,30,0.016683,-20.093371,0.999998,0.000000,-0.000305,0.006169,0.000471,0.006203,-0.000339,85.860793,0.006975,
660,780,3.328369,-12.452734,0.999996,0.000233,-0.005026,0.010056,0.000774,0.010095,-0.005066,87.069601,0.010095,
630,1560,2.543929,-4.880388,0.999995,0.000284,-0.005068,0.010147,0.000099,0.010148,-0.005069,89.626875,0.010148,
1400,100,-0.086277,-19.654238,0.999998,0.000161,-0.000680,0.006497,-0.000477,0.006528,-0.000711,-86.217072,0.007163,
1360,250,-0.205819,-18.635557,0.999997,0.000194,-0.001686,0.007149,-0.000096,0.007150,-0.001687,-89.378524,0.007475,
1690,250,-1.091469,-18.170113,0.999997,0.000218,-0.003956,0.009559,-0.000804,0.009607,-0.004004,-86.607190,0.009651,
1480,1440,-0.931026,-4.852665,0.999995,0.000261,-0.005440,0.009914,-0.001718,0.010104,-0.005630,-83.692087,0.010126,
1490,180,-0.319060,-19.053184,0.999998,0.000169,-0.001831,0.007434,-0.000634,0.007477,-0.001874,-86.105110,0.007781,
1040,80,0.080888,-19.775591,0.999998,0.000168,-0.000623,0.006455,0.000552,0.006498,-0.000665,85.567113,0.007150,
700,2000,0.254992,-0.293882,0.999996,0.000283,-0.001463,0.008565,-0.003242,0.009522,-0.002420,-73.556042,0.009899,
1860,1440,-3.045881,-6.189173,0.999996,0.000253,-0.005049,0.010177,0.000090,0.010178,-0.005050,89.661893,0.010178,
1520,1540,-1.002446,-4.045354,0.999997,0.000222,-0.004711,0.009506,-0.001017,0.009579,-0.004783,-85.928723,0.009579,
950,1930,0.239748,-0.721054,0.999997,0.000195,-0.001321,0.007188,-0.000923,0.007287,-0.001420,-83.879540,0.007726,
1130,390,0.236688,-17.638029,0.999997,0.000202,-0.002612,0.007366,-0.000515,0.007393,-0.002638,-87.051581,0.007493,
1590,1320,-1.926671,-6.690808,0.999996,0.000247,-0.006638,0.011740,0.000047,0.011740,-0.006638,89.852875,0.011773,
1350,250,-0.189635,-18.641510,0.999997,0.000188,-0.001722,0.007103,-0.000041,0.007103,-0.001722,-89.734589,0.007411,
830,730,2.184528,-13.384940,0.999993,0.000320,-0.006297,0.011424,0.000386,0.011433,-0.006305,88.751557,0.011453,
1750,920,-3.513516,-11.127624,0.999997,0.000204,-0.004568,0.009754,-0.000794,0.009798,-0.004612,-86.835063,0.009804,
1600,1580,-1.313320,-3.924255,0.999996,0.000265,-0.004887,0.009871,-0.000556,0.009892,-0.004908,-87.847089,0.009892,
1070,1580,0.449616,-3.287709,0.999996,0.000242,-0.003456,0.008028,0.001104,0.008133,-0.003561,84.560361,0.008154,
1710,1380,-2.448490,-6.382761,0.999997,0.000277,-0.005705,0.010748,0.000346,0.010755,-0.005712,88.794358,0.010762,
1140,1670,0.209591,-2.470373,0.999997,0.000185,-0.002538,0.007314,0.000441,0.007334,-0.002558,87.439921,0.007445,
1740,790,-3.041080,-12.471289,0.999997,0.000262,-0.005318,0.010468,-0.000977,0.010528,-0.005378,-86.470618,0.010529,
1090,630,0.419021,-15.715834,0.999996,0.000243,-0.004124,0.007901,-0.002339,0.008340,-0.004563,-79.372870,0.008353,
690,820,3.321394,-12.104629,0.999997,0.000202,-0.005090,0.010116,0.000957,0.010176,-0.005150,86.411293,0.010176,
1240,1990,-0.004227,-0.272996,0.999998,0.000168,-0.000324,0.006083,0.000022,0.006083,-0.000324,89.804775,0.006844,
1470,1120,-2.198341,-8.724861,0.999994,0.000273,-0.005956,0.014303,0.000387,0.014310,-0.005963,88.905569,0.014377,
870,970,2.944023,-10.701211,0.999995,0.000275,-0.004104,0.010917,0.000977,0.010980,-0.004168,86.293902,0.011086,
1760,350,-1.748542,-16.991963,0.999994,0.000279,-0.004789,0.010049,-0.000036,0.010049,-0.004789,-89.859972,0.010053,
720,1030,3.630871,-10.054159,0.999996,0.000277,-0.004299,0.009702,-0.000056,0.009703,-0.004299,-89.772727,0.009724,
750,420,1.730525,-16.430805,0.999998,0.000193,-0.004948,0.010127,-0.000193,0.010130,-0.004950,-89.267279,0.010130,
1900,1120,-4.210132,-9.327342,0.999997,0.000000,-0.004145,0.008595,0.000271,0.008600,-0.004150,88.781725,0.008602,
1520,1470,-1.106259,-4.733505,0.999996,0.000267,-0.005457,0.010119,-0.001274,0.010223,-0.005560,-85.354760,0.010236,
1290,270,-0.095215,-18.537877,0.999998,0.000171,-0.001572,0.006999,-0.000045,0.006999,-0.001572,-89.700273,0.007345,
1670,540,-1.822789,-15.340865,0.999997,0.000224,-0.005364,0.010385,0.000330,0.010392,-0.005371,88.799478,0.010394,
1690,1060,-3.381253,-9.753734,0.999996,0.000212,-0.004182,0.009969,0.000347,0.009978,-0.004191,88.594342,0.010020,
1740,300,-1.483416,-17.561914,0.999995,0.000269,-0.004619,0.009993,-0.000334,0.010000,-0.004627,-88.691544,0.010009,
1070,1090,1.874840,-8.259959,0.999963,0.000000,-0.006818,0.020546,0.008116,0.022772,-0.009044,74.661925,0.022932,
1190,710,0.086841,-15.666090,0.999997,0.000205,-0.002413,0.004537,-0.001715,0.004937,-0.002813,-76.869254,0.004953,
1250,120,-0.012741,-19.545409,0.999998,0.000159,-0.000671,0.006332,-0.000028,0.006332,-0.000672,-89.774768,0.006957,
620,760,3.456198,-12.560482,0.999996,0.000235,-0.004924,0.009816,0.000490,0.009832,-0.004940,88.097561,0.009832,
660,1220,3.518223,-8.254580,0.999995,0.000250,-0.004829,0.009695,-0.000788,0.009738,-0.004872,-86.902328,0.009738,
1430,1730,-0.435850,-2.163574,0.999996,0.000233,-0.002765,0.007899,-0.000189,0.007903,-0.002769,-88.987507,0.008020,
1690,230,-1.009297,-18.367269,0.999997,0.000212,-0.003776,0.009491,-0.000983,0.009563,-0.003849,-85.786396,0.009623,
1570,790,-2.018003,-12.878652,0.999994,0.000289,-0.006843,0.012196,-0.000444,0.012206,-0.006853,-88.665021,0.012237,
1760,50,-0.218112,-19.908922,0.999997,0.000209,-0.001296,0.008272,-0.003122,0.009201,-0.002225,-73.434471,0.009601,
1130,370,0.228018,-17.786093,0.999997,0.000216,-0.002511,0.007433,-0.000409,0.007450,-0.002527,-87.647550,0.007577,
1400,80,-0.063508,-19.781174,0.999998,0.000158,-0.000492,0.006405,-0.000503,0.006442,-0.000529,-85.849082,0.007153,
900,1700,0.900555,-2.674471,0.999997,0.000233,-0.003854,0.009041,0.000106,0.009042,-0.003855,89.527205,0.009074,
1210,180,0.023052,-19.156538,0.999998,0.000159,-0.001093,0.006576,-0.000001,0.006576,-0.001093,-89.996152,0.007048,
1280,1730,-0.094957,-2.010283,0.999998,0.000178,-0.001912,0.007107,-0.000045,0.007107,-0.001912,-89.712765,0.007355,
970,320,0.600926,-17.934624,0.999997,0.000199,-0.003149,0.008406,-0.000094,0.008407,-0.003150,-89.536027,0.008495,
1520,1520,-1.031075,-4.236643,0.999997,0.000222,-0.004819,0.009647,-0.001074,0.009727,-0.004898,-85.775809,0.009727,
780,70,0.249684,-19.780996,0.999998,0.000183,-0.001254,0.007720,0.002161,0.008213,-0.001747,77.141018,0.008653,
1350,230,-0.168421,-18.788647,0.999997,0.000195,-0.001586,0.007017,-0.000101,0.007018,-0.001587,-89.324744,0.007360,
950,1890,0.334163,-1.016899,0.999997,0.000189,-0.001775,0.007512,-0.000805,0.007581,-0.001844,-85.082030,0.007907,
1090,610,0.417220,-15.871171,0.999996,0.000242,-0.003894,0.007844,-0.002087,0.008204,-0.004254,-80.214665,0.008206,
1860,1420,-3.111111,-6.394526,0.999996,0.000243,-0.005023,0.010147,0.000125,0.010148,-0.005024,89.526858,0.010148,
1480,1460,-0.907920,-4.658062,0.999997,0.000225,-0.005165,0.009737,-0.001599,0.009906,-0.005334,-83.945013,0.009916,
1690,1380,-2.333953,-6.326035,0.999996,0.000241,-0.005824,0.010883,0.000266,0.010887,-0.005828,89.088978,0.010896,
1550,1440,-1.328521,-5.168003,0.999994,0.000278,-0.005873,0.010543,-0.001029,0.010607,-0.005937,-86.426737,0.010633,
1000,420,0.642316,-17.155582,0.999996,0.000245,-0.003570,0.008496,-0.000687,0.008535,-0.003609,-86.751798,0.008569,
1300,250,-0.103730,-18.673547,0.999997,0.000194,-0.001483,0.006918,-0.000098,0.006919,-0.001484,-89.333082,0.007285,
790,330,1.287726,-17.442085,0.999997,0.000233,-0.004451,0.009788,0.000134,0.009789,-0.004452,89.460820,0.009802,
1650,930,-3.081313,-11.090067,0.999996,0.000238,-0.004632,0.010590,-0.001126,0.010672,-0.004715,-85.792547,0.010697,
1220,1990,0.003797,-0.272838,0.999999,0.000127,-0.000352,0.006086,-0.000037,0.006086,-0.000352,-89.673693,0.006833,
820,1900,0.548755,-1.040422,0.999996,0.000216,-0.002168,0.008451,-0.001596,0.008686,-0.002403,-81.634567,0.008970,
690,1980,0.428313,-0.487221,0.999994,0.000274,-0.002080,0.009249,-0.003372,0.010177,-0.003008,-74.616398,0.010457,
1900,1110,-4.232170,-9.414557,0.999998,0.000000,-0.004122,0.008370,0.000105,0.008371,-0.004123,89.518785,0.008371,
1790,740,-3.119673,-12.888280,0.999997,0.000218,-0.005183,0.010216,-0.000673,0.010246,-0.005212,-87.500685,0.010246,
630,820,3.613498,-11.996493,0.999995,0.000247,-0.004753,0.009499,0.000606,0.009525,-0.004779,87.569538,0.009525,
1450,1120,-2.077830,-8.587707,0.999993,0.000291,-0.006208,0.014836,-0.000604,0.014854,-0.006225,-88.358316,0.014918,
870,950,2.887204,-10.920053,0.999996,0.000262,-0.004442,0.011032,0.001160,0.011119,-0.004528,85.736163,0.011182,
590,140,1.299673,-18.699619,0.999994,0.000334,-0.004864,0.010522,0.001190,0.010613,-0.004956,85.604202,0.010621,
1730,940,-3.468608,-10.944345,0.999997,0.000197,-0.004546,0.009908,-0.000852,0.009958,-0.004596,-86.640079,0.009968,
620,1530,2.683254,-5.217328,0.999996,0.000211,-0.005051,0.010166,0.000060,0.010166,-0.005051,89.772776,0.010166,
1070,1100,1.836776,-8.063538,0.999975,0.000000,-0.006091,0.018981,0.008146,0.021395,-0.008505,73.492867,0.021545,
1010,1600,0.644213,-3.279446,0.999996,0.000220,-0.003803,0.008593,0.000944,0.008664,-0.003874,85.668370,0.008681,
1600,1560,-1.354268,-4.122540,0.999996,0.000281,-0.004976,0.009961,-0.000597,0.009985,-0.004999,-87.713400,0.009985,
1760,40,-0.158046,-19.987505,0.999997,0.000208,-0.001024,0.008000,-0.003030,0.008923,-0.001947,-73.059511,0.009384,
590,740,3.533711,-12.675098,0.999995,0.000256,-0.005134,0.009924,0.000264,0.009929,-0.005139,88.996672,0.009931,
1430,1710,-0.457181,-2.321224,0.999997,0.000231,-0.002896,0.007890,-0.000338,0.007901,-0.002906,-88.207542,0.007992,
580,1840,1.800289,-2.263526,0.999996,0.000239,-0.004932,0.009941,-0.000377,0.009951,-0.004941,-88.550764,0.009951,
1870,890,-3.984585,-11.273039,0.999998,0.000151,-0.004308,0.008762,-0.000271,0.008768,-0.004314,-88.812919,0.008768,
1610,1820,-0.758133,-1.696155,0.999996,0.000257,-0.003103,0.008795,0.000829,0.008853,-0.003160,86.033772,0.008973,
660,1200,3.580946,-8.448713,0.999995,0.000261,-0.004799,0.009759,-0.000857,0.009810,-0.004849,-86.640725,0.009810,
1570,770,-1.929697,-13.122888,0.999994,0.000284,-0.006848,0.012066,-0.000205,0.012068,-0.006850,-89.379433,0.012105,
760,410,1.650193,-16.567301,0.999998,0.000185,-0.004874,0.010047,-0.000161,0.010048,-0.004875,-89.380752,0.010050,
1520,1500,-1.056608,-4.430139,0.999996,0.000234,-0.005076,0.009869,-0.001181,0.009961,-0.005168,-85.509387,0.009964,
1690,210,-0.932907,-18.550554,0.999996,0.000225,-0.003569,0.009351,-0.001204,0.009462,-0.003681,-84.722477,0.009540,
1400,60,-0.039743,-19.910433,0.999998,0.000156,-0.000346,0.006254,-0.000474,0.006288,-0.000380,-85.917491,0.007052,
910,190,0.468659,-18.921843,0.999997,0.000213,-0.001930,0.007986,0.000928,0.008072,-0.002016,84.701493,0.008403,
1290,250,-0.089972,-18.676443,0.999998,0.000165,-0.001455,0.006888,-0.000086,0.006889,-0.001456,-89.409222,0.007262,
1190,180,0.043515,-19.153882,0.999998,0.000148,-0.001004,0.006589,0.000045,0.006590,-0.001004,89.664118,0.007101,
1650,540,-1.715446,-15.408741,0.999995,0.000256,-0.005351,0.010355,0.000424,0.010366,-0.005362,88.456207,0.010368,
1730,1490,-2.213647,-5.275547,0.999995,0.000246,-0.005370,0.010421,-0.000120,0.010422,-0.005371,-89.563080,0.010424,
1130,790,0.338032,-14.824048,0.999995,0.000283,-0.004922,0.006670,-0.004425,0.008166,-0.006418,-71.319909,0.008600,
950,340,0.703568,-17.717904,0.999996,0.000239,-0.003376,0.008693,-0.000141,0.008695,-0.003378,-89.330519,0.008767,
1240,1820,-0.013329,-1.369128,0.999998,0.000155,-0.001488,0.006811,-0.000021,0.006811,-0.001488,-89.852369,0.007162,
1220,1730,0.024261,-1.995435,0.999998,0.000176,-0.002000,0.007001,0.000109,0.007002,-0.002001,89.305381,0.007213,
690,240,1.398527,-18.059955,0.999996,0.000282,-0.004657,0.010039,0.000702,0.010072,-0.004691,87.272065,0.010080,
1610,1440,-1.681166,-5.406060,0.999996,0.000227,-0.005909,0.010739,-0.000547,0.010757,-0.005927,-88.118593,0.010775,
950,1870,0.375288,-1.164637,0.999997,0.000189,-0.002001,0.007639,-0.000703,0.007690,-0.002052,-85.851258,0.007964,
740,1980,0.317134,-0.438078,0.999997,0.000200,-0.001246,0.008026,-0.002533,0.008673,-0.001893,-75.674255,0.009121,
1020,610,0.733871,-15.534278,0.999996,0.000252,-0.005053,0.009329,-0.002018,0.009606,-0.005331,-82.162787,0.009626,
830,710,2.113251,-13.612942,0.999995,0.000288,-0.006255,0.011349,0.000194,0.011351,-0.006257,89.369639,0.011371,
1090,590,0.415895,-16.026113,0.999995,0.000261,-0.003732,0.007827,-0.001884,0.008126,-0.004032,-80.971645,0.008126,
780,1500,1.932166,-5.018709,0.999997,0.000239,-0.005419,0.010392,0.000260,0.010397,-0.005423,89.057501,0.010400,
570,510,2.893883,-14.939409,0.999994,0.000291,-0.005187,0.010021,-0.000145,0.010023,-0.005188,-89.455169,0.010025,
1000,400,0.618387,-17.325022,0.999996,0.000237,-0.003354,0.008436,-0.000527,0.008460,-0.003378,-87.444563,0.008517,
700,760,3.051197,-12.740177,0.999994,0.000281,-0.005287,0.010383,0.000784,0.010422,-0.005326,87.143636,0.010423,
1860,1400,-3.176976,-6.596698,0.999996,0.000231,-0.005034,0.010064,0.000185,0.010066,-0.005036,89.296489,0.010066,
1660,1250,-2.651482,-7.700866,0.999995,0.000292,-0.005853,0.011272,0.001062,0.011338,-0.005919,86.465758,0.011342,
610,820,3.706643,-11.954667,0.999997,0.000201,-0.004659,0.009336,0.000460,0.009351,-0.004675,88.118796,0.009351,
1220,1390,0.024080,-4.230544,0.999998,0.000160,-0.002193,0.004992,0.000426,0.005017,-0.002218,86.620785,0.005029,
1900,1100,-4.242020,-9.496223,0.999996,0.000000,-0.004101,0.008138,-0.000087,0.008138,-0.004101,-89.594721,0.008138,
1480,1480,-0.883724,-4.465952,0.999997,0.000232,-0.005009,0.009593,-0.001551,0.009756,-0.005172,-84.002632,0.009762,
1070,2020,0.016086,-0.095515,0.999998,0.000000,-0.000111,0.006107,-0.000418,0.006135,-0.000139,-86.167964,0.007006,
1670,940,-3.196969,-10.974808,0.999996,0.000243,-0.004527,0.010275,-0.000973,0.010339,-0.004591,-86.254304,0.010361,
1040,1530,0.583480,-3.786166,0.999996,0.000234,-0.004055,0.008491,0.001444,0.008655,-0.004219,83.516782,0.008656,
1800,2010,-0.224849,-0.222089,0.999996,0.000262,-0.000554,0.008700,0.003806,0.010064,-0.001918,70.278911,0.010687,
1430,1690,-0.480014,-2.482181,0.999997,0.000235,-0.003008,0.008133,-0.000367,0.008146,-0.003020,-88.114303,0.008236,
1670,1060,-3.300572,-9.751913,0.999997,0.000199,-0.004128,0.010076,0.000377,0.010086,-0.004138,88.479175,0.010140,
660,1180,3.646842,-8.646226,0.999995,0.000258,-0.004723,0.009702,-0.000838,0.009751,-0.004772,-86.686327,0.009751,
1190,690,0.087740,-15.762071,0.999998,0.000184,-0.002437,0.004907,-0.001508,0.005205,-0.002734,-78.838010,0.005207,
620,740,3.385910,-12.757664,0.999995,0.000247,-0.004964,0.009846,0.000461,0.009860,-0.004978,88.220477,0.009860,
1650,910,-3.013207,-11.308319,0.999996,0.000237,-0.004866,0.010839,-0.001308,0.010947,-0.004974,-85.269872,0.010962,
1520,1480,-1.087076,-4.631846,0.999997,0.000244,-0.005344,0.010042,-0.001263,0.010145,-0.005447,-85.336514,0.010154,
1570,750,-1.848810,-13.365329,0.999995,0.000287,-0.006837,0.011997,0.000025,0.011997,-0.006837,89.923444,0.012036,
1690,190,-0.840343,-18.745273,0.999996,0.000231,-0.003339,0.009251,-0.001404,0.009406,-0.003493,-83.711645,0.009509,
1390,1990,-0.043260,-0.282085,0.999998,0.000179,-0.000275,0.006289,0.000458,0.006321,-0.000307,86.025581,0.007128,
1200,250,0.050829,-18.682851,0.999997,0.000218,-0.001531,0.006885,-0.000026,0.006885,-0.001531,-89.822144,0.007230,
1460,1990,-0.071879,-0.290713,0.999997,0.000218,-0.000309,0.006513,0.000760,0.006597,-0.000393,83.717270,0.007401,
580,740,3.581085,-12.644725,0.999996,0.000221,-0.005861,0.010498,0.000229,0.010502,-0.005864,89.196553,0.010525,
1270,180,-0.041124,-19.153230,0.999998,0.000139,-0.000992,0.006584,-0.000036,0.006585,-0.000992,-89.725667,0.007100,
910,210,0.523854,-18.756451,0.999997,0.000208,-0.002198,0.008138,0.000832,0.008204,-0.002265,85.426763,0.008474,
950,1850,0.429048,-1.325359,0.999996,0.000247,-0.002211,0.007809,-0.000624,0.007847,-0.002250,-86.447948,0.008082,
740,1960,0.431125,-0.599575,0.999996,0.000234,-0.001675,0.008322,-0.002431,0.008882,-0.002235,-77.032527,0.009240,
1690,1760,-1.252452,-2.422648,0.999997,0.000221,-0.004297,0.009691,0.000409,0.009702,-0.004309,88.326208,0.009723,
1600,1540,-1.395211,-4.323745,0.999995,0.000299,-0.005107,0.010070,-0.000634,0.010096,-0.005133,-87.612306,0.010096,
1860,1380,-3.246210,-6.797455,0.999997,0.000217,-0.005009,0.010047,0.000226,0.010051,-0.005012,89.140725,0.010051,
770,1580,1.774572,-4.223859,0.999996,0.000211,-0.005037,0.010122,0.000295,0.010128,-0.005042,88.884037,0.010128,
1720,1870,-0.917028,-1.416404,0.999996,0.000234,-0.003196,0.009456,0.001652,0.009668,-0.003408,82.681182,0.009808,
1240,1800,-0.013992,-1.506149,0.999998,0.000159,-0.001609,0.006851,-0.000038,0.006851,-0.001609,-89.742526,0.007165,
1650,520,-1.667123,-15.614817,0.999997,0.000190,-0.005249,0.010318,0.000434,0.010330,-0.005261,88.403655,0.010331,
570,220,1.879936,-17.803494,0.999993,0.000319,-0.005107,0.009805,0.000304,0.009811,-0.005113,88.832350,0.009814,
1740,280,-1.409482,-17.763183,0.999996,0.000237,-0.004527,0.009970,-0.000490,0.009987,-0.004543,-88.065710,0.010000,
700,740,2.977083,-12.951822,0.999995,0.000266,-0.005346,0.010416,0.000708,0.010448,-0.005377,87.432356,0.010449,
1130,810,0.391123,-14.691118,0.999994,0.000314,-0.005074,0.006549,-0.004395,0.008023,-0.006549,-71.451287,0.008541,
990,1590,0.736078,-3.428336,0.999997,0.000211,-0.004000,0.008827,0.000935,0.008895,-0.004068,85.851684,0.008905,
1900,1090,-4.249554,-9.575372,0.999995,0.000000,-0.004089,0.007938,-0.000168,0.007941,-0.004092,-89.199802,0.007942,
870,930,2.814377,-11.144115,0.999996,0.000257,-0.004778,0.011292,0.001427,0.011418,-0.004904,84.965822,0.011455,
790,310,1.227087,-17.639995,0.999997,0.000231,-0.004387,0.009634,0.000238,0.009638,-0.004391,89.027256,0.009651,
1740,470,-1.999289,-15.838027,0.999996,0.000230,-0.005066,0.010175,0.000202,0.010178,-0.005069,89.241659,0.010178,
1870,880,-3.962961,-11.361414,0.999998,0.000169,-0.004356,0.008849,-0.000274,0.008854,-0.004362,-88.810500,0.008855,
1080,30,0.010285,-20.094935,0.999999,0.000000,0.000090,0.006102,0.000447,0.006135,0.000057,85.771104,0.007117,
790,820,2.788104,-12.265417,0.999996,0.000221,-0.005637,0.011000,0.001153,0.011080,-0.005716,86.055020,0.011081,
1470,640,-0.909159,-15.106967,0.999996,0.000234,-0.005645,0.009965,0.001927,0.010199,-0.005879,83.066031,0.010239,
1700,40,-0.122087,-19.998823,0.999997,0.000217,-0.000328,0.007404,-0.002394,0.008085,-0.001009,-74.117158,0.008811,
830,670,1.977970,-14.064190,0.999996,0.000231,-0.006117,0.011070,-0.000073,0.011070,-0.006118,-89.755851,0.011090,
1290,230,-0.079648,-18.814151,0.999998,0.000165,-0.001289,0.006843,-0.000098,0.006844,-0.001290,-89.310880,0.007274,
690,220,1.306569,-18.260321,0.999996,0.000248,-0.004570,0.010007,0.000921,0.010065,-0.004628,86.400605,0.010075,
1260,1730,-0.058448,-2.001795,0.999998,0.000174,-0.001957,0.007041,-0.000118,0.007042,-0.001959,-89.251761,0.007270,
1780,740,-3.067011,-12.910644,0.999997,0.000227,-0.005221,0.010289,-0.000700,0.010320,-0.005253,-87.422884,0.010321,
1240,710,-0.017400,-15.731254,0.999998,0.000170,-0.002002,0.004083,0.000388,0.004107,-0.002027,86.367351,0.004107,
1480,1920,-0.212624,-0.773518,0.999997,0.000194,-0.001151,0.007074,0.000767,0.007145,-0.001222,84.716230,0.007643,
1660,1190,-2.899676,-8.372473,0.999996,0.000262,-0.005331,0.011030,0.001305,0.011133,-0.005435,85.467326,0.011134,
1870,1380,-3.295646,-6.828492,0.999996,0.000245,-0.004978,0.010045,0.000162,0.010047,-0.004980,89.381828,0.010047,
1350,210,-0.155425,-18.924278,0.999998,0.000177,-0.001427,0.006891,-0.000143,0.006893,-0.001430,-89.013769,0.007276,
770,1560,1.826443,-4.426098,0.999997,0.000216,-0.005138,0.010236,0.000295,0.010242,-0.005143,88.900913,0.010242,
1810,1410,-2.889804,-6.349070,0.999996,0.000227,-0.005178,0.010273,0.000236,0.010276,-0.005182,89.126286,0.010276,
1800,2000,-0.302520,-0.307504,0.999995,0.000301,-0.000888,0.009004,0.003860,0.010332,-0.002216,71.013678,0.010879,
1860,1590,-2.593022,-4.660524,0.999995,0.000267,-0.005003,0.010119,-0.000085,0.010120,-0.005004,-89.676904,0.010120,
1020,1150,1.798560,-8.077469,0.999991,0.000346,-0.006835,0.014438,0.001004,0.014485,-0.006882,87.304900,0.014491,
1060,1790,0.293900,-1.663377,0.999997,0.000197,-0.002085,0.007414,-0.000069,0.007415,-0.002085,-89.581806,0.007647,
660,1160,3.700299,-8.839420,0.999996,0.000243,-0.004621,0.009448,-0.000682,0.009481,-0.004654,-87.230602,0.009481,
1090,570,0.411282,-16.181530,0.999996,0.000247,-0.003656,0.007776,-0.001738,0.008035,-0.003915,-81.546547,0.008035,
1110,120,0.080886,-19.528301,0.999998,0.000170,-0.000725,0.006515,0.000339,0.006530,-0.000741,87.322147,0.007151,
1430,1670,-0.503622,-2.648362,0.999997,0.000244,-0.003059,0.008140,-0.000473,0.008160,-0.003079,-87.588152,0.008241,
570,740,3.636759,-12.607922,0.999837,0.001471,-0.006294,0.011161,0.000089,0.011162,-0.006294,89.706409,0.011192,
620,720,3.315605,-12.956630,0.999995,0.000254,-0.005014,0.009967,0.000405,0.009978,-0.005025,88.451675,0.009978,
1600,1520,-1.435206,-4.526538,0.999994,0.000298,-0.005288,0.010251,-0.000669,0.010280,-0.005317,-87.538489,0.010282,
680,1090,3.755534,-9.489522,0.999996,0.000247,-0.004422,0.009436,-0.000423,0.009449,-0.004435,-88.255344,0.009455,
1340,770,-0.336044,-14.883164,0.999995,0.000269,-0.004929,0.007046,0.004240,0.008395,-0.006278,72.347486,0.008732,
950,1830,0.466369,-1.476222,0.999996,0.000227,-0.002433,0.007919,-0.000480,0.007941,-0.002455,-87.349354,0.008132,
1430,1440,-0.671792,-4.604908,0.999994,0.000262,-0.004878,0.009077,-0.002096,0.009385,-0.005186,-81.638825,0.009403,
1890,1250,-3.830346,-8.157262,0.999996,0.000226,-0.004584,0.009144,0.000221,0.009147,-0.004587,89.077836,0.009147,
1690,170,-0.755481,-18.923015,0.999997,0.000205,-0.003052,0.009020,-0.001627,0.009235,-0.003268,-82.457603,0.009366,
1740,770,-2.962765,-12.684512,0.999998,0.000218,-0.005395,0.010575,-0.000871,0.010623,-0.005442,-86.888085,0.010624,
1590,1440,-1.563185,-5.331680,0.999994,0.000258,-0.005866,0.010732,-0.000673,0.010759,-0.005893,-87.681338,0.010776,
1520,1460,-1.124389,-4.835804,0.999996,0.000254,-0.005545,0.010188,-0.001279,0.010291,-0.005649,-85.381878,0.010308,
1650,890,-2.942344,-11.525745,0.999996,0.000254,-0.005129,0.010871,-0.001273,0.010971,-0.005229,-85.479779,0.010975,
790,270,1.094577,-18.023933,0.999997,0.000213,-0.004170,0.009442,0.000560,0.009465,-0.004193,87.649238,0.009485,
870,910,2.730071,-11.372807,0.999996,0.000245,-0.005145,0.011415,0.001407,0.011534,-0.005264,85.176748,0.011549,
1750,900,-3.467600,-11.325200,0.999996,0.000255,-0.004735,0.009989,-0.000955,0.010050,-0.004797,-86.305168,0.010054,
1780,720,-2.993662,-13.117423,0.999997,0.000239,-0.005265,0.010285,-0.000629,0.010310,-0.005291,-87.687031,0.010312,
1240,450,-0.020209,-17.282902,0.999997,0.000215,-0.002467,0.006998,0.000152,0.007001,-0.002469,89.082142,0.007101,
790,800,2.707057,-12.488367,0.999995,0.000262,-0.005773,0.011126,0.001052,0.011191,-0.005838,86.451109,0.011194,
1860,1360,-3.313071,-7.000448,0.999995,0.000260,-0.004980,0.010040,0.000256,0.010044,-0.004984,89.025004,0.010044,
700,650,2.659265,-13.894774,0.999996,0.000268,-0.005424,0.010420,0.000305,0.010426,-0.005430,88.898798,0.010429,
1440,1990,-0.063422,-0.287796,0.999998,0.000164,-0.000385,0.006452,0.000658,0.006515,-0.000447,84.549377,0.007278,
1120,1410,0.306887,-4.417603,0.999997,0.000232,-0.003660,0.007158,0.002436,0.007681,-0.004183,77.876967,0.007692,
570,210,1.826352,-17.900922,0.999978,0.000562,-0.005278,0.009980,0.000397,0.009990,-0.005288,88.509070,0.009996,
830,650,1.916990,-14.286738,0.999995,0.000234,-0.006024,0.011075,-0.000202,0.011077,-0.006027,-89.322847,0.011092,
1140,1850,0.111813,-1.184986,0.999998,0.000178,-0.001353,0.006815,-0.000093,0.006816,-0.001354,-89.350917,0.007217,
1110,900,1.289107,-13.777232,0.999994,0.000000,-0.002422,0.007389,-0.005704,0.010006,-0.005039,-65.347318,0.010006,
810,1220,2.736675,-8.025588,0.999995,0.000314,-0.005691,0.011136,-0.001220,0.011224,-0.005779,-85.874653,0.011225,
760,90,0.377873,-19.610098,0.999997,0.000203,-0.001388,0.008045,0.002289,0.008571,-0.001914,77.054665,0.008998,
1900,1080,-4.256569,-9.656814,0.999997,0.000000,-0.004063,0.007846,-0.000071,0.007846,-0.004063,-89.658198,0.007848,
1740,240,-1.244682,-18.161955,0.999996,0.000236,-0.004290,0.009885,-0.000831,0.009934,-0.004339,-86.654676,0.009960,
1890,1570,-2.801259,-4.956872,0.999996,0.000247,-0.004981,0.010051,-0.000053,0.010051,-0.004981,-89.799120,0.010051,
1350,190,-0.136014,-19.064596,0.999997,0.000189,-0.001278,0.006837,-0.000200,0.006842,-0.001283,-88.588386,0.007274,
1130,830,0.499313,-14.563645,0.999992,0.000338,-0.004912,0.006376,-0.004168,0.007748,-0.006284,-71.776578,0.008233,
1770,1600,-2.109316,-4.267008,0.999996,0.000233,-0.005046,0.010174,-0.000184,0.010176,-0.005048,-89.308439,0.010176,
1810,1390,-2.956743,-6.553850,0.999997,0.000209,-0.005167,0.010267,0.000314,0.010273,-0.005174,88.835495,0.010273,
1030,1490,0.655362,-4.173889,0.999996,0.000222,-0.004404,0.008798,0.001678,0.009008,-0.004614,82.866656,0.009009,
570,730,3.610679,-12.727576,0.999734,0.001841,-0.006364,0.010842,0.000539,0.010859,-0.006381,88.208593,0.010915,
1190,670,0.090344,-15.863254,0.999998,0.000189,-0.002481,0.005232,-0.001325,0.005454,-0.002703,-80.518438,0.005454,
1020,1130,1.956238,-8.374392,0.999992,0.000341,-0.006394,0.014815,0.001027,0.014865,-0.006444,87.235024,0.014909,
580,1860,1.695905,-2.069623,0.999996,0.000248,-0.005129,0.009852,-0.000530,0.009870,-0.005148,-87.977203,0.009873,
610,1080,4.064688,-9.616862,0.999997,0.000210,-0.004212,0.008675,-0.000132,0.008676,-0.004213,-89.415284,0.008677,
1240,1780,-0.015930,-1.644538,0.999998,0.000146,-0.001733,0.006912,-0.000049,0.006912,-0.001733,-89.676971,0.007193,
700,720,2.904616,-13.157832,0.999996,0.000234,-0.005372,0.010391,0.000639,0.010417,-0.005397,87.682736,0.010419,
910,230,0.574370,-18.595566,0.999997,0.000209,-0.002382,0.008279,0.000715,0.008327,-0.002430,86.179160,0.008564,
1290,210,-0.075665,-18.950778,0.999998,0.000190,-0.001163,0.006727,-0.000139,0.006730,-0.001165,-88.992495,0.007193,
1090,120,0.093704,-19.527144,0.999998,0.000145,-0.000633,0.006582,0.000418,0.006606,-0.000657,86.692529,0.007279,
870,890,2.643086,-11.601940,0.999996,0.000260,-0.005456,0.011686,0.001466,0.011810,-0.005580,85.146302,0.011816,
1000,380,0.595958,-17.492298,0.999997,0.000235,-0.003154,0.008417,-0.000355,0.008428,-0.003164,-88.243466,0.008515,
950,1810,0.515596,-1.644023,0.999997,0.000222,-0.002631,0.008131,-0.000419,0.008147,-0.002648,-87.771717,0.008312,
660,1140,3.744127,-9.028069,0.999996,0.000227,-0.004545,0.009389,-0.000646,0.009419,-0.004575,-87.349786,0.009420,
920,1470,1.231327,-4.828862,0.999996,0.000237,-0.005502,0.010261,0.001064,0.010332,-0.005574,86.154729,0.010343,
1850,740,-3.420246,-12.740593,0.999998,0.000186,-0.004948,0.009831,-0.000432,0.009844,-0.004961,-88.326068,0.009844,
620,700,3.247940,-13.159473,0.999996,0.000226,-0.005050,0.010064,0.000347,0.010072,-0.005058,88.686567,0.010072,
1520,1440,-1.155335,-5.041386,0.999996,0.000254,-0.005695,0.010345,-0.001304,0.010451,-0.005800,-85.381139,0.010472,
1510,1920,-0.254467,-0.790049,0.999997,0.000189,-0.001470,0.007205,0.000846,0.007286,-0.001551,84.481386,0.007676,
1650,870,-2.865513,-11.746028,0.999994,0.000289,-0.005367,0.011087,-0.001339,0.011196,-0.005475,-85.378036,0.011197,
1240,1730,-0.017186,-1.994035,0.999998,0.000145,-0.002032,0.007002,-0.000073,0.007002,-0.002032,-89.537231,0.007205,
900,1350,1.642520,-6.228800,0.999995,0.000317,-0.006665,0.011579,0.000529,0.011595,-0.006680,88.340958,0.011640,
1710,940,-3.376735,-10.952733,0.999997,0.000226,-0.004548,0.010030,-0.000902,0.010086,-0.004604,-86.474041,0.010098,
1390,1970,-0.064192,-0.409115,0.999998,0.000178,-0.000444,0.006389,0.000462,0.006420,-0.000475,86.149394,0.007155,
1860,1340,-3.382361,-7.201993,0.999995,0.000255,-0.004963,0.009909,0.000300,0.009915,-0.004969,88.846388,0.009915,
1780,700,-2.922551,-13.325074,0.999997,0.000226,-0.005283,0.010335,-0.000519,0.010352,-0.005300,-88.099577,0.010353,
790,250,1.023526,-18.210527,0.999997,0.000198,-0.003999,0.009407,0.000711,0.009445,-0.004036,86.973031,0.009478,
1300,450,-0.167804,-17.245785,0.999997,0.000190,-0.002576,0.007186,0.000429,0.007205,-0.002595,87.489269,0.007298,
770,820,2.898080,-12.232860,0.999998,0.000193,-0.005506,0.010777,0.001129,0.010855,-0.005583,86.051916,0.010856,
1540,470,-1.025831,-16.476335,0.999997,0.000211,-0.004496,0.009482,0.000775,0.009525,-0.004539,86.836461,0.009528,
1890,1990,-0.718943,-0.668809,0.999993,0.000342,-0.003326,0.012749,0.004423,0.013885,-0.004462,75.588230,0.014178,
1370,1980,-0.048400,-0.342980,0.999998,0.000173,-0.000319,0.006296,0.000415,0.006322,-0.000345,86.424010,0.007109,
830,630,1.856965,-14.508651,0.999996,0.000225,-0.005905,0.010838,-0.000289,0.010843,-0.005910,-89.012812,0.010858,
740,90,0.403163,-19.600439,0.999997,0.000213,-0.001624,0.008164,0.002415,0.008727,-0.002187,76.868288,0.009082,
1890,360,-2.418996,-16.446799,0.999997,0.000225,-0.004970,0.009791,0.000003,0.009791,-0.004970,89.988904,0.009792,
1810,1370,-3.026636,-6.759411,0.999997,0.000209,-0.005152,0.010186,0.000411,0.010197,-0.005163,88.465550,0.010197,
1350,170,-0.121960,-19.198712,0.999997,0.000188,-0.001118,0.006698,-0.000241,0.006706,-0.001125,-88.233828,0.007182,
570,720,3.595376,-12.834379,0.999718,0.001925,-0.006430,0.009879,0.000936,0.009933,-0.006484,86.725757,0.010086,
1110,30,0.010591,-20.093655,0.999998,0.000000,-0.000116,0.005993,0.000295,0.006007,-0.000130,87.242692,0.006862,
1880,1570,-2.750880,-4.926184,0.999996,0.000264,-0.004998,0.010056,-0.000066,0.010056,-0.004998,-89.747103,0.010056,
570,300,2.219315,-17.023122,0.999962,0.000778,-0.004570,0.009605,0.000129,0.009607,-0.004571,89.479467,0.009610,
1740,220,-1.156254,-18.362320,0.999996,0.000247,-0.004177,0.009845,-0.001023,0.009919,-0.004251,-85.850775,0.009953,
780,1410,2.194335,-5.979597,0.999996,0.000215,-0.005784,0.010768,-0.000085,0.010768,-0.005785,-89.705136,0.010778,
1780,1190,-3.502289,-8.517382,0.999994,0.000279,-0.004867,0.009914,0.000959,0.009976,-0.004929,86.302162,0.009977,
1440,950,-2.125854,-11.449068,0.999990,0.000393,-0.006267,0.015875,0.001460,0.015971,-0.006363,86.244985,0.016080,
590,1080,4.148064,-9.631113,0.999997,0.000225,-0.004093,0.008393,-0.000070,0.008394,-0.004094,-89.678662,0.008394,
910,250,0.627134,-18.423327,0.999997,0.000210,-0.002584,0.008454,0.000616,0.008489,-0.002619,86.813837,0.008694,
1400,1850,-0.217081,-1.224758,0.999998,0.000180,-0.001557,0.007121,0.000315,0.007132,-0.001569,87.925219,0.007496,
1750,1600,-2.010174,-4.202536,0.999996,0.000228,-0.005005,0.010163,-0.000211,0.010166,-0.005008,-89.203468,0.010166,
700,700,2.831585,-13.367593,0.999996,0.000225,-0.005379,0.010439,0.000547,0.010458,-0.005398,88.020810,0.010460,
1130,850,0.636203,-14.440374,0.999992,0.000354,-0.004258,0.005535,-0.003351,0.006572,-0.005295,-72.807994,0.006969,
780,2010,0.132760,-0.192380,0.999997,0.000193,-0.000843,0.007283,-0.002022,0.007759,-0.001319,-76.769726,0.008303,
880,1890,0.458502,-1.070737,0.999996,0.000251,-0.002295,0.007961,-0.001095,0.008077,-0.002411,-83.970769,0.008293,
1650,850,-2.782153,-11.970873,0.999994,0.000296,-0.005591,0.011139,-0.001287,0.011237,-0.005689,-85.628065,0.011237,
870,1090,2.929034,-9.404168,0.999997,0.000221,-0.004170,0.010956,-0.001044,0.011028,-0.004242,-86.069475,0.011125,
1000,340,0.546111,-17.818558,0.999997,0.000207,-0.002793,0.008152,-0.000126,0.008153,-0.002795,-89.342524,0.008287,
1240,1760,-0.015698,-1.783263,0.999998,0.000166,-0.001856,0.006959,-0.000067,0.006960,-0.001857,-89.564208,0.007208,
620,680,3.176423,-13.358705,0.999997,0.000202,-0.005094,0.010065,0.000320,0.010071,-0.005101,88.790477,0.010072,
1690,150,-0.654887,-19.107792,0.999997,0.000223,-0.002768,0.008905,-0.001822,0.009183,-0.003046,-81.332539,0.009355,
790,230,0.947806,-18.402380,0.999998,0.000175,-0.003861,0.009340,0.000887,0.009399,-0.003921,86.172335,0.009442,
660,1120,3.787600,-9.215078,0.999997,0.000218,-0.004533,0.009449,-0.000712,0.009485,-0.004569,-87.094000,0.009487,
1860,1320,-3.452593,-7.398578,0.999995,0.000235,-0.004941,0.009792,0.000357,0.009800,-0.004950,88.613157,0.009800,
1690,940,-3.285742,-10.964341,0.999996,0.000273,-0.004513,0.010140,-0.000929,0.010199,-0.004571,-86.386734,0.010217,
1830,740,-3.320613,-12.790285,0.999996,0.000227,-0.004979,0.009937,-0.000525,0.009955,-0.004998,-87.985669,0.009955,
1520,1420,-1.190057,-5.249342,0.999995,0.000251,-0.005921,0.010532,-0.001315,0.010637,-0.006025,-85.459094,0.010668,
1180,1730,0.102001,-2.009991,0.999998,0.000169,-0.001934,0.007114,0.000059,0.007114,-0.001934,89.629352,0.007357,
1290,190,-0.061763,-19.083840,0.999998,0.000188,-0.001006,0.006637,-0.000145,0.006640,-0.001009,-88.916594,0.007156,
1280,450,-0.118492,-17.258901,0.999998,0.000156,-0.002421,0.007067,0.000244,0.007073,-0.002428,88.526568,0.007188,
1770,1890,-1.007107,-1.340732,0.999997,0.000206,-0.004142,0.009946,0.001650,0.010136,-0.004333,83.406318,0.010172,
1400,750,-0.646789,-14.470317,0.999996,0.000235,-0.006426,0.009962,0.003527,0.010689,-0.007153,78.355406,0.010891,
950,1790,0.555934,-1.801358,0.999996,0.000246,-0.002829,0.008159,-0.000282,0.008166,-0.002836,-88.530760,0.008292,
1890,350,-2.382530,-16.545236,0.999997,0.000214,-0.004925,0.009773,-0.000007,0.009773,-0.004925,-89.974288,0.009773,
1000,1990,0.071636,-0.290432,0.999999,0.000128,-0.000326,0.006533,-0.000786,0.006622,-0.000415,-83.545891,0.007419,
1350,150,-0.100915,-19.334541,0.999998,0.000169,-0.000980,0.006673,-0.000286,0.006683,-0.000991,-87.864157,0.007213,
1410,1440,-0.580547,-4.511433,0.999996,0.000253,-0.004594,0.008651,-0.002175,0.008999,-0.004942,-80.909702,0.009014,
1470,780,-1.238574,-13.539449,0.999995,0.000299,-0.007627,0.012370,0.001593,0.012496,-0.007753,85.472979,0.012616,
870,1280,2.104983,-7.176903,0.999996,0.000220,-0.006608,0.011885,-0.000506,0.011899,-0.006622,-88.435040,0.011924,
830,610,1.802718,-14.722709,0.999996,0.000224,-0.005786,0.010726,-0.000374,0.010734,-0.005794,-88.703524,0.010746,
1870,1440,-3.096252,-6.221256,0.999996,0.000256,-0.005023,0.010175,0.000075,0.010175,-0.005023,89.717247,0.010175,
1720,210,-1.035713,-18.500105,0.999996,0.000241,-0.003554,0.009687,-0.001387,0.009831,-0.003698,-84.082183,0.009931,
1810,1350,-3.097663,-6.964202,0.999997,0.000210,-0.005124,0.010124,0.000485,0.010140,-0.005139,88.178710,0.010140,
690,1220,3.372919,-8.209209,0.999995,0.000263,-0.004987,0.009976,-0.000940,0.010035,-0.005046,-86.417453,0.010035,
1420,950,-1.996932,-11.668431,0.999973,0.000685,-0.007016,0.016776,0.003974,0.017422,-0.007662,80.763601,0.017464,
880,1090,2.888136,-9.396781,0.999997,0.000212,-0.004210,0.011068,-0.001065,0.011142,-0.004284,-86.032490,0.011240,
1050,1600,0.507086,-3.177970,0.999998,0.000193,-0.003350,0.008076,0.000881,0.008143,-0.003418,85.618012,0.008178,
790,2010,0.123175,-0.189550,0.999997,0.000186,-0.000908,0.007225,-0.001942,0.007665,-0.001348,-77.234628,0.008185,
1660,670,-2.140646,-13.977422,0.999996,0.000249,-0.005984,0.010977,-0.000099,0.010978,-0.005984,-89.665444,0.010993,
1100,2020,0.014574,-0.096161,0.999998,0.000000,-0.000008,0.006003,-0.000318,0.006020,-0.000025,-86.984161,0.006937,
1000,320,0.515425,-17.988069,0.999997,0.000197,-0.002607,0.008112,0.000018,0.008112,-0.002608,89.906377,0.008283,
570,290,2.180129,-17.121678,0.999965,0.000729,-0.004512,0.009648,0.000013,0.009648,-0.004512,89.945800,0.009655,
1090,550,0.407821,-16.335882,0.999997,0.000224,-0.003611,0.007804,-0.001615,0.008029,-0.003835,-82.098980,0.008031,
860,1260,2.257356,-7.447066,0.999995,0.000262,-0.006478,0.011885,-0.000783,0.011918,-0.006511,-87.562134,0.011935,
1790,1760,-1.705765,-2.710951,0.999998,0.000170,-0.004797,0.010083,0.000293,0.010089,-0.004802,88.873126,0.010093,
790,210,0.869069,-18.584548,0.999997,0.000214,-0.003655,0.009188,0.001081,0.009279,-0.003745,85.221458,0.009336,
1140,1410,0.237137,-4.323012,0.999995,0.000286,-0.003258,0.006655,0.002132,0.007094,-0.003696,78.364494,0.007096,
1520,1840,-0.466498,-1.410569,0.999997,0.000211,-0.002287,0.007909,0.000595,0.007943,-0.002322,86.670133,0.008169,
620,660,3.108456,-13.563436,0.999996,0.000224,-0.005088,0.010131,0.000259,0.010136,-0.005092,89.024394,0.010136,
1380,1850,-0.189769,-1.214106,0.999998,0.000158,-0.001309,0.007040,0.000314,0.007051,-0.001321,87.850533,0.007497,
1130,1630,0.250761,-2.782188,0.999998,0.000185,-0.002696,0.007388,0.000615,0.007425,-0.002734,86.522448,0.007511,
1260,450,-0.070287,-17.270820,0.999997,0.000208,-0.002444,0.007021,0.000281,0.007030,-0.002452,88.300532,0.007136,
1750,1580,-2.064674,-4.405768,0.999997,0.000224,-0.005051,0.010214,-0.000219,0.010217,-0.005054,-89.177974,0.010217,
1240,1740,-0.016288,-1.923553,0.999998,0.000163,-0.001985,0.007011,-0.000074,0.007012,-0.001986,-89.525589,0.007228,
1860,1300,-3.521020,-7.594764,0.999995,0.000241,-0.004886,0.009791,0.000382,0.009801,-0.004896,88.511934,0.009801,
1780,680,-2.853121,-13.531509,0.999996,0.000240,-0.005295,0.010384,-0.000424,0.010395,-0.005306,-88.453121,0.010396,
1670,1940,-0.443744,-0.736212,0.999994,0.000298,-0.002190,0.008307,0.001941,0.008654,-0.002538,79.854779,0.008898,
660,1100,3.831687,-9.406280,0.999997,0.000210,-0.004458,0.009325,-0.000504,0.009343,-0.004476,-87.907145,0.009346,
1350,130,-0.086151,-19.464157,0.999998,0.000150,-0.000791,0.006518,-0.000261,0.006527,-0.000800,-87.961196,0.007120,
1880,360,-2.368527,-16.480943,0.999997,0.000235,-0.004945,0.009816,0.000053,0.009816,-0.004945,89.794889,0.009816,
1600,1500,-1.481836,-4.735803,0.999994,0.000278,-0.005447,0.010348,-0.000651,0.010375,-0.005473,-87.645409,0.010380,
1430,1650,-0.521014,-2.808266,0.999996,0.000274,-0.003157,0.008096,-0.000597,0.008128,-0.003188,-86.973293,0.008191,
1880,1320,-3.549896,-7.457597,0.999995,0.000261,-0.004894,0.009728,0.000234,0.009732,-0.004898,89.081875,0.009732,
1390,1950,-0.084202,-0.537591,0.999998,0.000184,-0.000575,0.006536,0.000458,0.006565,-0.000604,86.329840,0.007257,
950,1770,0.600700,-1.971182,0.999996,0.000239,-0.002983,0.008332,-0.000188,0.008335,-0.002986,-89.049884,0.008446,
1810,740,-3.222684,-12.840607,0.999998,0.000186,-0.005061,0.010081,-0.000598,0.010104,-0.005085,-87.740080,0.010104,
1590,60,-0.126056,-19.882107,0.999997,0.000217,-0.000817,0.007052,-0.001478,0.007321,-0.001085,-79.707162,0.007901,
1470,760,-1.163711,-13.785381,0.999993,0.000335,-0.007399,0.011964,0.001816,0.012132,-0.007568,84.688788,0.012256,
1540,450,-0.990344,-16.667402,0.999997,0.000203,-0.004402,0.009402,0.000686,0.009436,-0.004436,87.160280,0.009442,
860,1090,2.970355,-9.409487,0.999997,0.000230,-0.004161,0.010859,-0.001038,0.010930,-0.004233,-86.066178,0.011022,
830,590,1.750600,-14.940124,0.999995,0.000237,-0.005687,0.010648,-0.000412,0.010658,-0.005698,-88.554548,0.010667,
1520,1350,-1.353313,-6.029074,0.999993,0.000314,-0.006788,0.011515,-0.001132,0.011584,-0.006858,-86.474998,0.011650,
1870,1430,-3.128740,-6.323212,0.999995,0.000281,-0.005022,0.010160,0.000101,0.010161,-0.005022,89.620650,0.010161,
1810,1330,-3.168446,-7.166549,0.999997,0.000205,-0.005101,0.010130,0.000541,0.010149,-0.005120,87.970026,0.010149,
750,820,3.008293,-12.199135,0.999996,0.000261,-0.005388,0.010604,0.001090,0.010678,-0.005462,86.118582,0.010679,
1030,1600,0.573054,-3.223722,0.999997,0.000194,-0.003427,0.008320,0.000853,0.008381,-0.003489,85.870492,0.008420,
1100,1150,1.361818,-6.652254,0.999988,0.000000,-0.002820,0.008334,0.006449,0.011283,-0.005769,65.425240,0.011284,
1420,930,-1.847609,-11.988335,0.999992,0.000323,-0.006561,0.014844,0.003409,0.015374,-0.007091,81.165499,0.015389,
1000,300,0.486980,-18.145197,0.999997,0.000205,-0.002457,0.007936,0.000097,0.007937,-0.002458,89.463797,0.008127,
1870,1190,-3.923683,-8.663122,0.999993,0.000295,-0.004428,0.009077,0.000351,0.009087,-0.004438,88.511414,0.009087,
1900,1070,-4.265682,-9.734259,0.999998,0.000000,-0.004027,0.007895,0.000017,0.007895,-0.004027,89.916824,0.007896,
1690,130,-0.565252,-19.277259,0.999996,0.000232,-0.002345,0.008568,-0.002015,0.008928,-0.002705,-79.866573,0.009156,
600,1410,3.157817,-6.506283,0.999996,0.000249,-0.005034,0.010121,-0.000173,0.010123,-0.005036,-89.345656,0.010123,
790,190,0.787131,-18.773044,0.999997,0.000214,-0.003464,0.009084,0.001291,0.009215,-0.003596,84.184700,0.009289,
870,350,1.013539,-17.450554,0.999997,0.000173,-0.003997,0.009290,-0.000069,0.009291,-0.003997,-89.701964,0.009321,
1160,1850,0.087182,-1.176947,0.999998,0.000180,-0.001172,0.006774,-0.000144,0.006777,-0.001174,-88.964197,0.007243,
570,280,2.140990,-17.217255,0.999978,0.000554,-0.004532,0.009628,-0.000027,0.009628,-0.004532,-89.889103,0.009634,
1090,530,0.402436,-16.493824,0.999996,0.000226,-0.003557,0.007850,-0.001476,0.008038,-0.003744,-82.747368,0.008044,
1520,1860,-0.414568,-1.249409,0.999997,0.000236,-0.002081,0.007848,0.000746,0.007904,-0.002137,85.725401,0.008177,
620,640,3.041534,-13.766400,0.999997,0.000212,-0.005068,0.010165,0.000181,0.010167,-0.005070,89.320174,0.010167,
700,690,2.796940,-13.473879,0.999998,0.000188,-0.005375,0.010467,0.000492,0.010482,-0.005390,88.223409,0.010483,
1770,1760,-1.608577,-2.645941,0.999997,0.000207,-0.004823,0.010060,0.000274,0.010065,-0.004828,88.946692,0.010068,
1190,650,0.095514,-15.970311,0.999997,0.000214,-0.002518,0.005563,-0.001123,0.005716,-0.002671,-82.230282,0.005720,
1710,1980,-0.304591,-0.432387,0.999997,0.000185,-0.001094,0.007920,0.002432,0.008535,-0.001709,75.826989,0.009032,
1350,110,-0.069250,-19.596380,0.999998,0.000166,-0.000644,0.006468,-0.000315,0.006482,-0.000658,-87.465638,0.007135,
1430,1630,-0.539717,-2.974497,0.999997,0.000237,-0.003247,0.008148,-0.000657,0.008185,-0.003285,-86.709176,0.008238,
1230,120,0.000470,-19.546073,0.999999,0.000135,-0.000656,0.006335,-0.000023,0.006335,-0.000656,-89.808114,0.006968,
1130,1610,0.256540,-2.927348,0.999998,0.000171,-0.002768,0.007387,0.000671,0.007431,-0.002812,86.238502,0.007504,
1860,1280,-3.590758,-7.790711,0.999995,0.000257,-0.004817,0.009745,0.000424,0.009758,-0.004829,88.334229,0.009758,
1780,640,-2.714705,-13.950922,0.999996,0.000235,-0.005323,0.010330,-0.000276,0.010335,-0.005328,-88.988691,0.010337,
1340,470,-0.282572,-17.032391,0.999998,0.000172,-0.002835,0.007379,0.000753,0.007434,-0.002891,85.806312,0.007495,
1300,1670,-0.152970,-2.446850,0.999997,0.000186,-0.002284,0.007175,-0.000189,0.007178,-0.002288,-88.854000,0.007334,
660,1080,3.852344,-9.590756,0.999998,0.000175,-0.004368,0.009198,-0.000228,0.009202,-0.004371,-89.035367,0.009205,
810,900,2.992943,-11.413406,0.999998,0.000234,-0.004989,0.010815,0.001323,0.010925,-0.005099,85.246336,0.010933,
1600,1480,-1.528993,-4.942205,0.999994,0.000268,-0.005573,0.010453,-0.000654,0.010480,-0.005600,-87.666219,0.010488,
1670,1920,-0.531055,-0.900113,0.999995,0.000271,-0.002594,0.008428,0.001688,0.008681,-0.002847,81.486625,0.008851,
1030,1470,0.666420,-4.350829,0.999996,0.000242,-0.004547,0.008951,0.001813,0.009190,-0.004786,82.482160,0.009193,
1240,1720,-0.019114,-2.062970,0.999998,0.000144,-0.002079,0.006999,-0.000079,0.007000,-0.002080,-89.498506,0.007189,
1840,590,-2.865452,-14.285707,0.999996,0.000212,-0.005100,0.010161,-0.000078,0.010161,-0.005100,-89.706014,0.010161,
810,60,0.165848,-19.869477,0.999997,0.000215,-0.000908,0.007332,0.001930,0.007762,-0.001338,77.448013,0.008299,
1870,1320,-3.501869,-7.426615,0.999995,0.000245,-0.004907,0.009759,0.000283,0.009764,-0.004913,88.894880,0.009764,
1390,1930,-0.109496,-0.671648,0.999998,0.000156,-0.000751,0.006635,0.000436,0.006660,-0.000777,86.630419,0.007284,
1810,1310,-3.238601,-7.370239,0.999996,0.000208,-0.005071,0.010030,0.000613,0.010054,-0.005096,87.679303,0.010055,
950,1750,0.637597,-2.135788,0.999997,0.000208,-0.003123,0.008349,-0.000023,0.008349,-0.003123,-89.886296,0.008436,
1490,1300,-1.296839,-6.450056,0.999992,0.000329,-0.007351,0.012080,-0.001351,0.012173,-0.007444,-86.041393,0.012274,
1340,250,-0.170105,-18.650743,0.999997,0.000195,-0.001753,0.007063,0.000013,0.007063,-0.001753,89.912971,0.007355,
1870,1050,-4.158559,-9.885858,0.999997,0.000214,-0.004143,0.008576,0.000256,0.008581,-0.004148,88.849527,0.008583,
1100,1140,1.453511,-6.738757,0.999984,0.000000,-0.003175,0.009316,0.007522,0.012847,-0.006707,64.851655,0.012852,
1490,1120,-2.312513,-8.841267,0.999994,0.000286,-0.005603,0.013585,0.000956,0.013633,-0.005651,87.153487,0.013699,
730,820,3.113020,-12.168599,0.999996,0.000284,-0.005231,0.010480,0.001086,0.010555,-0.005305,86.065140,0.010555,
1290,1600,-0.142860,-2.942433,0.999997,0.000200,-0.002475,0.007079,-0.000356,0.007092,-0.002488,-87.866284,0.007197,
830,570,1.695597,-15.153867,0.999996,0.000217,-0.005561,0.010505,-0.000453,0.010518,-0.005574,-88.387516,0.010524,
960,1470,1.013755,-4.659902,0.999995,0.000256,-0.005261,0.009946,0.001436,0.010080,-0.005395,84.651764,0.010088,
790,170,0.699632,-18.948462,0.999997,0.000202,-0.003157,0.008830,0.001492,0.009013,-0.003340,83.008966,0.009113,
1250,180,-0.019852,-19.157047,0.999998,0.000180,-0.001094,0.006583,0.000024,0.006583,-0.001094,89.819122,0.007055,
760,1210,3.049047,-8.211855,0.999996,0.000212,-0.005267,0.010672,-0.001206,0.010762,-0.005358,-85.697753,0.010762,
570,380,2.526421,-16.240244,0.999655,0.002191,-0.008155,0.009072,0.000854,0.009114,-0.008197,87.169258,0.010037,
1090,510,0.396883,-16.652992,0.999996,0.000219,-0.003470,0.007815,-0.001325,0.007968,-0.003624,-83.390607,0.007979,
1080,1790,0.256735,-1.646424,0.999997,0.000201,-0.001794,0.007303,-0.000139,0.007305,-0.001796,-89.123434,0.007613,
1780,620,-2.649286,-14.155828,0.999996,0.000204,-0.005298,0.010363,-0.000177,0.010365,-0.005300,-89.352255,0.010366,
870,310,0.913779,-17.824772,0.999998,0.000165,-0.003783,0.009032,0.000150,0.009034,-0.003785,89.331580,0.009073,
1350,90,-0.054745,-19.724737,0.999998,0.000172,-0.000470,0.006310,-0.000296,0.006323,-0.000483,-87.501827,0.007039,
1860,1480,-2.919958,-5.781804,0.999997,0.000202,-0.005105,0.010172,0.000019,0.010173,-0.005105,89.927944,0.010173,
1570,730,-1.775791,-13.605120,0.999995,0.000302,-0.006789,0.011792,0.000230,0.011794,-0.006792,89.290410,0.011840,
1340,450,-0.276387,-17.182249,0.999997,0.000176,-0.002772,0.007415,0.000671,0.007459,-0.002816,86.249901,0.007533,
1750,1800,-1.356383,-2.178115,0.999996,0.000272,-0.004593,0.009981,0.000603,0.010006,-0.004618,87.635529,0.010016,
1730,1980,-0.327422,-0.441429,0.999996,0.000223,-0.001539,0.008140,0.002535,0.008763,-0.002163,76.175829,0.009130,
1280,1670,-0.109137,-2.437566,0.999998,0.000189,-0.002197,0.007133,-0.000152,0.007136,-0.002200,-89.067008,0.007308,
1430,1610,-0.555200,-3.133972,0.999997,0.000221,-0.003365,0.008220,-0.000776,0.008272,-0.003417,-86.186519,0.008313,
1860,1650,-2.413080,-4.055464,0.999996,0.000271,-0.004981,0.009972,-0.000116,0.009973,-0.004982,-89.556382,0.009973,
1130,1590,0.263641,-3.079100,0.999997,0.000199,-0.002827,0.007363,0.000746,0.007417,-0.002881,85.834925,0.007479,
1720,470,-1.897746,-15.901578,0.999997,0.000207,-0.005050,0.010161,0.000255,0.010165,-0.005054,89.038412,0.010165,
660,1060,3.866872,-9.776851,0.999998,0.000184,-0.004349,0.009274,-0.000292,0.009280,-0.004356,-88.774096,0.009286,
1600,1460,-1.573699,-5.153224,0.999995,0.000267,-0.005721,0.010595,-0.000629,0.010620,-0.005745,-87.795951,0.010631,
1450,640,-0.799826,-15.211490,0.999996,0.000233,-0.005433,0.009649,0.002141,0.009947,-0.005731,82.076157,0.009985,
740,1940,0.542540,-0.771620,0.999996,0.000236,-0.002016,0.008870,-0.002508,0.009420,-0.002566,-77.630002,0.009740,
1600,670,-1.773185,-14.182466,0.999994,0.000295,-0.006269,0.011198,0.000330,0.011204,-0.006276,88.916453,0.011231,
1900,1060,-4.274502,-9.811236,0.999997,0.000000,-0.004010,0.007945,0.000129,0.007946,-0.004011,89.379668,0.007946,
1690,1000,-3.387365,-10.355516,0.999996,0.000249,-0.004211,0.009958,-0.000367,0.009968,-0.004220,-88.517561,0.010007,
1400,730,-0.615098,-14.667381,0.999993,0.000299,-0.006045,0.009657,0.003369,0.010349,-0.006738,78.386762,0.010505,
590,1410,3.208309,-6.536316,0.999997,0.000221,-0.004902,0.010122,-0.000129,0.010123,-0.004903,-89.509619,0.010125,
1700,50,-0.170406,-19.924495,0.999997,0.000191,-0.000616,0.007478,-0.002346,0.008109,-0.001247,-74.949490,0.008733,
1810,1290,-3.310260,-7.569597,0.999996,0.000229,-0.005042,0.009988,0.000703,0.010021,-0.005075,87.326149,0.010021,
1690,110,-0.453050,-19.456004,0.999996,0.000228,-0.001964,0.008478,-0.002241,0.008938,-0.002424,-78.385751,0.009245,
850,1280,2.237296,-7.238848,0.999993,0.000310,-0.006473,0.011737,-0.000663,0.011761,-0.006497,-87.916771,0.011782,
950,1730,0.673967,-2.308403,0.999998,0.000191,-0.003257,0.008674,0.000045,0.008674,-0.003257,89.781787,0.008763,
1000,280,0.453974,-18.305246,0.999997,0.000210,-0.002290,0.007914,0.000214,0.007919,-0.002294,88.800266,0.008149,
730,1540,2.086729,-4.763771,0.999996,0.000256,-0.005208,0.010296,0.000197,0.010299,-0.005210,89.272989,0.010299,
830,900,2.890440,-11.437112,0.999996,0.000224,-0.005082,0.010990,0.001356,0.011104,-0.005196,85.210013,0.011112,
1100,920,1.515260,-13.343897,0.999986,0.000000,-0.002045,0.010070,-0.007299,0.013497,-0.005473,-64.845799,0.013577,
720,1350,2.741690,-6.795340,0.999996,0.000250,-0.005555,0.010583,-0.000556,0.010602,-0.005574,-88.030758,0.010607,
1520,1880,-0.369006,-1.096311,0.999996,0.000231,-0.001823,0.007566,0.000780,0.007630,-0.001887,85.282312,0.007948,
1390,1910,-0.131704,-0.800561,0.999997,0.000163,-0.000908,0.006744,0.000421,0.006767,-0.000931,86.857414,0.007336,
1190,630,0.096013,-16.082402,0.999997,0.000205,-0.002550,0.005827,-0.000950,0.005934,-0.002656,-83.613144,0.005944,
700,670,2.726347,-13.683496,0.999996,0.000264,-0.005405,0.010497,0.000383,0.010506,-0.005414,88.621554,0.010508,
1870,1060,-4.151143,-9.800914,0.999997,0.000217,-0.004158,0.008523,0.000207,0.008526,-0.004161,89.066808,0.008527,
1350,1600,-0.306489,-3.033497,0.999998,0.000189,-0.002758,0.007440,-0.000662,0.007483,-0.002801,-86.300621,0.007562,
1180,1210,0.376585,-5.026710,0.999994,0.000274,-0.005609,0.002877,0.000528,0.002909,-0.005642,86.455657,0.005643,
1080,1680,0.353032,-2.475425,0.999997,0.000201,-0.002572,0.007726,0.000323,0.007736,-0.002582,88.203884,0.007877,
1540,510,-1.086552,-16.095426,0.999997,0.000227,-0.004782,0.009623,0.000919,0.009681,-0.004840,86.364382,0.009681,
1140,1790,0.146570,-1.601335,0.999998,0.000181,-0.001797,0.007067,0.000038,0.007067,-0.001797,89.756823,0.007346,
790,150,0.608036,-19.126571,0.999996,0.000237,-0.002907,0.008716,0.001678,0.008954,-0.003144,81.946612,0.009085,
1850,1670,-2.302793,-3.820777,0.999996,0.000245,-0.004980,0.010037,-0.000104,0.010037,-0.004981,-89.604563,0.010037,
1060,1470,0.534851,-4.216758,0.999996,0.000205,-0.004264,0.008405,0.001997,0.008713,-0.004571,81.249918,0.008716,
1780,600,-2.586662,-14.366334,0.999996,0.000217,-0.005256,0.010384,-0.000075,0.010384,-0.005256,-89.726480,0.010384,
830,550,1.650730,-15.364061,0.999996,0.000220,-0.005417,0.010412,-0.000475,0.010426,-0.005431,-88.284057,0.010429,
1320,450,-0.222490,-17.214348,0.999998,0.000165,-0.002768,0.007310,0.000688,0.007357,-0.002815,86.111256,0.007424,
700,150,0.887248,-18.989485,0.999997,0.000198,-0.004028,0.009736,0.001793,0.009966,-0.004258,82.699433,0.010001,
1390,900,-1.410195,-12.942436,0.999988,0.000365,-0.005113,0.011364,0.005371,0.012960,-0.006709,73.450618,0.012963,
610,1830,1.707901,-2.234463,0.999996,0.000227,-0.004862,0.010036,-0.000313,0.010043,-0.004868,-88.797310,0.010044,
730,1740,1.504721,-2.729836,0.999995,0.000265,-0.004572,0.009930,-0.000270,0.009935,-0.004577,-88.934379,0.009946,
720,1910,0.775037,-1.074477,0.999997,0.000227,-0.003553,0.009392,-0.001908,0.009667,-0.003828,-81.787521,0.009737,
1240,1700,-0.018390,-2.204368,0.999998,0.000167,-0.002163,0.007042,-0.000096,0.007043,-0.002164,-89.399884,0.007216,
1860,670,-3.227959,-13.411003,0.999996,0.000226,-0.005033,0.010086,-0.000212,0.010089,-0.005036,-89.196503,0.010089,
570,370,2.489727,-16.329000,0.999543,0.002677,-0.007237,0.009316,0.001142,0.009394,-0.007315,86.073401,0.009868,
1350,70,-0.037658,-19.850734,0.999998,0.000166,-0.000338,0.006231,-0.000351,0.006250,-0.000357,-86.950960,0.007020,
1390,180,-0.173256,-19.116637,0.999998,0.000165,-0.001185,0.006912,-0.000357,0.006928,-0.001201,-87.479984,0.007405,
1740,200,-1.059013,-18.559439,0.999996,0.000224,-0.004021,0.009856,-0.001239,0.009966,-0.004130,-84.939132,0.010014,
1810,1710,-1.973548,-3.281313,0.999996,0.000242,-0.004964,0.010059,0.000005,0.010059,-0.004964,89.980372,0.010059,
660,1040,3.884723,-9.964032,0.999997,0.000194,-0.004356,0.009280,-0.000225,0.009283,-0.004359,-89.053826,0.009289,
1430,1590,-0.569198,-3.300076,0.999997,0.000215,-0.003522,0.008320,-0.000931,0.008393,-0.003594,-85.531295,0.008422,
1220,1850,0.015780,-1.168332,0.999998,0.000178,-0.001288,0.006668,0.000020,0.006668,-0.001288,89.857021,0.007074,
1030,1450,0.678956,-4.530133,0.999995,0.000266,-0.004801,0.009094,0.001996,0.009375,-0.005083,81.985154,0.009386,
910,690,1.531738,-14.144133,0.999995,0.000272,-0.006577,0.011360,-0.000751,0.011392,-0.006608,-87.605156,0.011440,
860,1700,1.066248,-2.783641,0.999997,0.000185,-0.003994,0.009275,-0.000013,0.009275,-0.003994,-89.942410,0.009305,
1130,1570,0.267013,-3.225508,0.999997,0.000197,-0.002871,0.007315,0.000827,0.007382,-0.002938,85.388942,0.007433,
1130,1600,0.259489,-3.002679,0.999998,0.000182,-0.002803,0.007377,0.000716,0.007427,-0.002853,85.997319,0.007494,
1060,390,0.423148,-17.530774,0.999996,0.000248,-0.003040,0.007911,-0.000597,0.007943,-0.003073,-86.887002,0.008011,
1210,120,0.015545,-19.544097,0.999998,0.000153,-0.000661,0.006340,0.000013,0.006340,-0.000661,89.897327,0.006971,
1690,90,-0.357330,-19.620137,0.999996,0.000215,-0.001526,0.008001,-0.002183,0.008477,-0.002002,-77.690775,0.008862,
890,600,1.432215,-15.053995,0.999994,0.000287,-0.005784,0.010477,-0.000860,0.010522,-0.005829,-86.982375,0.010543,
1480,1900,-0.251861,-0.915571,0.999997,0.000196,-0.001329,0.007179,0.000758,0.007246,-0.001396,84.949184,0.007689,
990,1280,1.241147,-6.580111,0.999997,0.000253,-0.007611,0.012338,0.001584,0.012463,-0.007736,85.488830,0.012583,
840,1090,3.055179,-9.422507,0.999996,0.000225,-0.004195,0.010677,-0.000986,0.010742,-0.004260,-86.223988,0.010818,
1830,1640,-2.293975,-4.055171,0.999997,0.000199,-0.004999,0.010057,-0.000130,0.010058,-0.005000,-89.505952,0.010058,
1900,1050,-4.278758,-9.894208,0.999997,0.000000,-0.004005,0.008116,0.000204,0.008119,-0.004009,89.037452,0.008119,
1000,1210,1.511702,-7.415793,0.999990,0.000411,-0.007841,0.013530,0.000996,0.013576,-0.007888,87.337941,0.013635,
950,1710,0.716723,-2.487350,0.999997,0.000226,-0.003433,0.008664,0.000169,0.008667,-0.003435,89.199925,0.008728,
1290,170,-0.059396,-19.215645,0.999998,0.000161,-0.000881,0.006581,-0.000121,0.006583,-0.000883,-89.072350,0.007146,
1140,1350,0.233061,-4.716847,0.999997,0.000202,-0.003524,0.006291,0.003050,0.007161,-0.004394,74.071133,0.007223,
1880,740,-3.566003,-12.654236,0.999997,0.000256,-0.004861,0.009786,-0.000244,0.009790,-0.004865,-89.044011,0.009790,
700,1120,3.606852,-9.184445,0.999997,0.000208,-0.004562,0.009726,-0.000791,0.009769,-0.004605,-86.842510,0.009774,
620,620,2.978278,-13.971460,0.999997,0.000220,-0.005067,0.010163,0.000129,0.010164,-0.005068,89.516090,0.010164,
580,1410,3.259219,-6.567165,0.999996,0.000223,-0.004564,0.010112,-0.000014,0.010112,-0.004564,-89.947008,0.010128,
1600,1440,-1.621058,-5.369240,0.999995,0.000249,-0.005900,0.010744,-0.000596,0.010766,-0.005921,-87.950517,0.010784,
1180,850,0.420106,-15.116454,0.999990,0.000384,-0.006267,0.002955,-0.000340,0.002968,-0.006280,-87.890221,0.006283,
1470,560,-0.819392,-15.882087,0.999996,0.000247,-0.004808,0.009329,0.001511,0.009489,-0.004968,83.966587,0.009493,
1400,160,-0.158646,-19.250649,0.999998,0.000202,-0.001151,0.006874,-0.000386,0.006893,-0.001169,-87.250340,0.007377,
800,1510,1.797139,-4.848567,0.999997,0.000215,-0.005372,0.010418,0.000364,0.010427,-0.005381,88.678709,0.010428,
1650,830,-2.699905,-12.193150,0.999995,0.000281,-0.005771,0.011197,-0.001188,0.011280,-0.005853,-86.015202,0.011283,
1100,910,1.417264,-13.467349,0.999990,0.000000,-0.002523,0.009255,-0.006481,0.012123,-0.005391,-66.130923,0.012148,
740,1920,0.663709,-0.954723,0.999997,0.000230,-0.002415,0.008991,-0.002267,0.009425,-0.002849,-79.159355,0.009667,
1780,580,-2.523101,-14.574389,0.999996,0.000236,-0.005246,0.010314,-0.000025,0.010314,-0.005246,-89.909088,0.010315,
570,360,2.441346,-16.436673,0.999593,0.002453,-0.006348,0.009716,0.000970,0.009774,-0.006406,86.557613,0.009930,
1510,1120,-2.426451,-8.911818,0.999993,0.000312,-0.005335,0.012913,0.001261,0.013000,-0.005422,86.065041,0.013059,
880,1870,0.520612,-1.229640,0.999995,0.000256,-0.002586,0.008178,-0.000962,0.008263,-0.002671,-84.930921,0.008433,
1190,610,0.099093,-16.199743,0.999997,0.000194,-0.002574,0.006077,-0.000817,0.006153,-0.002651,-84.652010,0.006173,
1410,950,-1.918558,-11.835772,0.999975,0.000623,-0.006767,0.017212,0.005715,0.018504,-0.008059,77.257815,0.018556,
1540,530,-1.117730,-15.900894,0.999996,0.000239,-0.005016,0.009831,0.000995,0.009897,-0.005083,86.184692,0.009898,
790,130,0.517864,-19.297147,0.999996,0.000235,-0.002523,0.008394,0.001791,0.008680,-0.002809,80.915802,0.008858,
1860,740,-3.468499,-12.713288,0.999997,0.000213,-0.004903,0.009803,-0.000360,0.009811,-0.004912,-88.600140,0.009811,
680,690,2.902794,-13.420568,0.999996,0.000231,-0.005304,0.010319,0.000487,0.010334,-0.005319,88.217485,0.010335,
1430,1570,-0.583181,-3.465850,0.999996,0.000234,-0.003725,0.008432,-0.001103,0.008531,-0.003824,-84.859640,0.008547,
1240,1680,-0.018609,-2.346310,0.999998,0.000181,-0.002241,0.007084,-0.000105,0.007086,-0.002242,-89.355416,0.007243,
1160,1730,0.138987,-2.018319,0.999998,0.000162,-0.001943,0.007168,0.000039,0.007168,-0.001943,89.753448,0.007414,
1220,450,0.028807,-17.281160,0.999999,0.000153,-0.002448,0.006993,-0.000177,0.006996,-0.002451,-88.927680,0.007100,
1740,180,-0.958200,-18.757573,0.999995,0.000241,-0.003865,0.009659,-0.001467,0.009816,-0.004022,-83.881143,0.009870,
660,1470,2.659563,-5.710017,0.999996,0.000221,-0.005179,0.010304,-0.000027,0.010304,-0.005180,-89.898931,0.010304,
660,390,2.083714,-16.446762,0.999997,0.000208,-0.004973,0.010092,-0.000093,0.010093,-0.004974,-89.646409,0.010093,
1200,1850,0.041139,-1.172261,0.999998,0.000178,-0.001196,0.006689,-0.000022,0.006689,-0.001196,-89.843312,0.007134,
1380,1790,-0.251598,-1.645847,0.999997,0.000231,-0.001729,0.007284,0.000121,0.007285,-0.001731,89.233948,0.007612,
1130,1550,0.271890,-3.371513,0.999997,0.000184,-0.002917,0.007330,0.000912,0.007411,-0.002998,84.955579,0.007456,
1840,670,-3.127070,-13.469941,0.999997,0.000206,-0.005062,0.010119,-0.000296,0.010125,-0.005067,-88.884494,0.010125,
1110,1600,0.315438,-3.038915,0.999997,0.000181,-0.002807,0.007511,0.000691,0.007557,-0.002853,86.185925,0.007633,
1520,1900,-0.318619,-0.945104,0.999997,0.000218,-0.001636,0.007479,0.000890,0.007565,-0.001723,84.472558,0.007930,
860,1680,1.112774,-2.963044,0.999997,0.000175,-0.004132,0.009302,0.000127,0.009303,-0.004133,89.458022,0.009322,
910,670,1.474467,-14.371973,0.999996,0.000252,-0.006389,0.011245,-0.000866,0.011288,-0.006431,-87.194508,0.011324,
1000,260,0.422395,-18.462143,0.999996,0.000215,-0.002097,0.007803,0.000294,0.007812,-0.002106,88.301979,0.008084,
1030,1430,0.691946,-4.712516,0.999995,0.000286,-0.005094,0.009193,0.002183,0.009519,-0.005420,81.502513,0.009549,
1610,520,-1.456673,-15.752742,0.999994,0.000279,-0.005185,0.010180,0.000588,0.010203,-0.005207,87.810266,0.010204,
1020,730,0.891280,-14.328653,0.999994,0.000275,-0.006782,0.010980,-0.002606,0.011354,-0.007157,-81.823215,0.011482,
1570,710,-1.706116,-13.843179,0.999995,0.000299,-0.006690,0.011604,0.000401,0.011613,-0.006699,88.746234,0.011659,
1690,510,-1.850161,-15.587349,0.999996,0.000223,-0.005219,0.010332,0.000312,0.010338,-0.005225,88.849701,0.010338,
1350,120,-0.078735,-19.530764,0.999998,0.000169,-0.000718,0.006498,-0.000297,0.006511,-0.000730,-87.651107,0.007133,
1500,1250,-1.578047,-7.141276,0.999994,0.000284,-0.007651,0.012843,-0.000552,0.012858,-0.007666,-88.458993,0.012937,
1670,1000,-3.302925,-10.359919,0.999997,0.000210,-0.004095,0.010086,-0.000367,0.010096,-0.004105,-88.519536,0.010154,
720,1890,0.889930,-1.267341,0.999996,0.000247,-0.003797,0.009613,-0.001639,0.009810,-0.003994,-83.133245,0.009867,
1480,1880,-0.291639,-1.062001,0.999997,0.000190,-0.001578,0.007346,0.000631,0.007391,-0.001623,85.973005,0.007769,
1390,1160,-1.360619,-7.161213,0.999980,0.000562,-0.005268,0.011147,-0.004983,0.012541,-0.006662,-74.369014,0.012549,
1900,1040,-4.288125,-9.974215,0.999997,0.000000,-0.004007,0.008257,0.000192,0.008260,-0.004010,89.104577,0.008261,
1810,300,-1.819181,-17.333851,0.999996,0.000262,-0.004790,0.010120,-0.000245,0.010124,-0.004794,-89.059795,0.010128,
1290,150,-0.047996,-19.348717,0.999998,0.000154,-0.000733,0.006511,-0.000151,0.006514,-0.000736,-88.808721,0.007135,
950,1910,0.281221,-0.863895,0.999997,0.000186,-0.001584,0.007375,-0.000870,0.007459,-0.001668,-84.502974,0.007830,
1890,740,-3.613028,-12.624319,0.999995,0.000296,-0.004852,0.009800,-0.000218,0.009803,-0.004855,-89.146281,0.009803,
620,580,2.848177,-14.379778,0.999997,0.000207,-0.005129,0.010188,0.000034,0.010188,-0.005129,89.874193,0.010188,
1590,1060,-2.986149,-9.730779,0.999995,0.000273,-0.003826,0.010743,0.000532,0.010762,-0.003845,87.910426,0.010907,
1180,840,0.331602,-15.145539,0.999994,0.000304,-0.005375,0.003113,-0.000886,0.003204,-0.005467,-84.102057,0.005494,
1830,1620,-2.353251,-4.258716,0.999997,0.000232,-0.005027,0.010098,-0.000122,0.010099,-0.005028,-89.536731,0.010099,
1120,1350,0.306179,-4.841234,0.999994,0.000296,-0.004105,0.007102,0.003246,0.007974,-0.004977,74.957260,0.008056,
1720,390,-1.678860,-16.715543,0.999995,0.000253,-0.004836,0.010065,0.000076,0.010066,-0.004836,89.708568,0.010068,
1400,950,-1.851504,-12.040599,0.999974,0.000644,-0.006065,0.017793,0.007307,0.019853,-0.008126,74.255157,0.019962,
1100,1410,0.382843,-4.515195,0.999996,0.000231,-0.004034,0.007710,0.002495,0.008218,-0.004542,78.489149,0.008233,
1780,560,-2.463035,-14.780976,0.999996,0.000245,-0.005250,0.010301,0.000031,0.010301,-0.005250,89.885603,0.010302,
1540,590,-1.225265,-15.293993,0.999996,0.000245,-0.005525,0.010284,0.001102,0.010360,-0.005601,86.032974,0.010372,
1860,700,-3.331987,-13.108557,0.999997,0.000223,-0.004973,0.009983,-0.000279,0.009988,-0.004978,-88.932983,0.009988,
1180,1850,0.064683,-1.174746,0.999999,0.000165,-0.001166,0.006737,-0.000122,0.006739,-0.001168,-89.113408,0.007203,
1130,1530,0.272118,-3.520192,0.999997,0.000205,-0.002965,0.007305,0.001030,0.007407,-0.003067,84.330605,0.007443,
1390,90,-0.071567,-19.718557,0.999998,0.000159,-0.000508,0.006403,-0.000460,0.006434,-0.000538,-86.208136,0.007138,
1470,540,-0.797228,-16.070298,0.999996,0.000234,-0.004560,0.009182,0.001397,0.009322,-0.004701,84.254255,0.009322,
720,1430,2.467462,-5.945366,0.999996,0.000230,-0.005438,0.010511,-0.000144,0.010512,-0.005439,-89.482802,0.010514,
1430,1550,-0.596546,-3.636566,0.999995,0.000252,-0.003930,0.008518,-0.001280,0.008649,-0.004060,-84.188251,0.008654,
1590,1540,-1.345261,-4.288882,0.999995,0.000308,-0.005065,0.010034,-0.000683,0.010065,-0.005096,-87.414508,0.010065,
1650,810,-2.615372,-12.421149,0.999995,0.000300,-0.005950,0.011384,-0.001093,0.011453,-0.006018,-86.406000,0.011458,
1020,710,0.853849,-14.542187,0.999995,0.000275,-0.006441,0.010605,-0.002557,0.010980,-0.006817,-81.649612,0.011086,
1200,450,0.077293,-17.269341,0.999998,0.000170,-0.002418,0.007012,-0.000280,0.007020,-0.002427,-88.303157,0.007130,
1690,530,-1.902638,-15.378113,0.999996,0.000259,-0.005280,0.010375,0.000302,0.010380,-0.005285,88.893730,0.010381,
1740,160,-0.848573,-18.950215,0.999996,0.000246,-0.003598,0.009540,-0.001762,0.009772,-0.003830,-82.492329,0.009848,
910,650,1.424336,-14.598544,0.999994,0.000289,-0.006207,0.010995,-0.000931,0.011045,-0.006257,-86.909712,0.011078,
1030,1410,0.713528,-4.900197,0.999995,0.000272,-0.005371,0.009385,0.002337,0.009747,-0.005732,81.210572,0.009797,
860,1660,1.154921,-3.153049,0.999998,0.000168,-0.004250,0.009447,0.000215,0.009451,-0.004254,89.102848,0.009466,
790,1280,2.607364,-7.392683,0.999995,0.000248,-0.005917,0.011128,-0.000923,0.011178,-0.005967,-86.909804,0.011186,
830,530,1.601480,-15.569747,0.999995,0.000242,-0.005312,0.010288,-0.000487,0.010303,-0.005327,-88.212903,0.010305,
790,110,0.424628,-19.466347,0.999996,0.000249,-0.002124,0.008321,0.002006,0.008693,-0.002496,79.492826,0.008952,
700,130,0.763789,-19.179180,0.999997,0.000206,-0.003738,0.009473,0.002135,0.009809,-0.004075,81.045429,0.009856,
950,760,1.481995,-13.515355,0.999993,0.000290,-0.007302,0.012251,-0.000847,0.012288,-0.007338,-87.524671,0.012365,
1480,1860,-0.330842,-1.210113,0.999997,0.000190,-0.001762,0.007529,0.000614,0.007570,-0.001802,86.233082,0.007908,
700,1140,3.561715,-8.992882,0.999996,0.000228,-0.004617,0.009690,-0.000751,0.009730,-0.004656,-87.004938,0.009733,
1360,1790,-0.216348,-1.631435,0.999998,0.000176,-0.001795,0.007191,0.000047,0.007191,-0.001795,89.697908,0.007485,
1900,1030,-4.294824,-10.058386,0.999997,0.000000,-0.004013,0.008279,0.000082,0.008280,-0.004013,89.616264,0.008281,
950,150,0.292837,-19.259421,0.999997,0.000202,-0.001631,0.007423,0.000870,0.007505,-0.001714,84.563127,0.007866,
830,700,2.078521,-13.727338,0.999995,0.000272,-0.006231,0.011300,0.000123,0.011301,-0.006232,89.599243,0.011321,
1330,120,-0.063248,-19.536256,0.999998,0.000141,-0.000760,0.006446,-0.000211,0.006452,-0.000766,-88.327365,0.007049,
1370,180,-0.150847,-19.123986,0.999998,0.000188,-0.001093,0.006824,-0.000307,0.006836,-0.001105,-87.781328,0.007339,
730,1720,1.569800,-2.930565,0.999995,0.000266,-0.004728,0.009963,-0.000119,0.009964,-0.004729,-89.537306,0.009968,
1810,1730,-1.908929,-3.076823,0.999996,0.000244,-0.004887,0.010043,0.000067,0.010043,-0.004887,89.744679,0.010044,
760,1350,2.515558,-6.691459,0.999996,0.000268,-0.005762,0.010858,-0.000501,0.010873,-0.005777,-88.274110,0.010880,
1090,490,0.387921,-16.810741,0.999997,0.000220,-0.003332,0.007780,-0.001138,0.007895,-0.003448,-84.210489,0.007916,
1290,130,-0.042177,-19.477494,0.999998,0.000171,-0.000600,0.006423,-0.000158,0.006426,-0.000604,-88.712067,0.007098,
640,390,2.182976,-16.379868,0.999997,0.000211,-0.004952,0.010088,-0.000114,0.010089,-0.004952,-89.566833,0.010089,
620,560,2.787436,-14.585080,0.999996,0.000231,-0.005109,0.010213,-0.000022,0.010213,-0.005109,-89.918343,0.010213,
1720,410,-1.735144,-16.511274,0.999996,0.000257,-0.004915,0.010132,0.000181,0.010135,-0.004917,89.311516,0.010136,
1350,270,-0.199889,-18.502293,0.999997,0.000181,-0.001886,0.007201,0.000018,0.007201,-0.001886,89.884259,0.007469,
1720,930,-3.400397,-11.047980,0.999997,0.000234,-0.004597,0.009940,-0.000849,0.009989,-0.004647,-86.668727,0.009997,
1120,1850,0.139406,-1.195049,0.999999,0.000149,-0.001404,0.006885,-0.000125,0.006887,-0.001406,-89.136157,0.007278,
1130,1510,0.274532,-3.664326,0.999997,0.000180,-0.003022,0.007216,0.001150,0.007343,-0.003150,83.668302,0.007368,
910,630,1.378915,-14.818244,0.999994,0.000270,-0.006035,0.010769,-0.000967,0.010825,-0.006091,-86.717699,0.010853,
1780,540,-2.404743,-14.988254,0.999995,0.000261,-0.005211,0.010252,0.000076,0.010253,-0.005212,89.717157,0.010253,
1030,1010,2.343497,-10.426244,0.999987,0.000460,-0.007789,0.019926,-0.000927,0.019957,-0.007820,-88.086518,0.020112,
1090,660,0.427033,-15.471266,0.999994,0.000265,-0.004455,0.008025,-0.002751,0.008605,-0.005034,-78.105459,0.008646,
1690,550,-1.956714,-15.171625,0.999996,0.000245,-0.005354,0.010392,0.000243,0.010396,-0.005358,89.117403,0.010397,
1390,1370,-0.515146,-5.000753,0.999994,0.000293,-0.005095,0.008711,-0.002972,0.009323,-0.005708,-78.354378,0.009401,
1540,610,-1.259068,-15.085472,0.999997,0.000215,-0.005734,0.010415,0.001112,0.010491,-0.005810,86.078561,0.010511,
1860,160,-1.369104,-18.559253,0.999996,0.000231,-0.004884,0.010276,-0.000826,0.010321,-0.004929,-86.890805,0.010324,
890,900,2.580709,-11.524727,0.999995,0.000304,-0.005462,0.011912,0.001448,0.012032,-0.005581,85.267237,0.012043,
1590,1520,-1.384682,-4.491264,0.999995,0.000285,-0.005216,0.010183,-0.000719,0.010216,-0.005249,-87.332266,0.010218,
1020,590,0.714299,-15.722642,0.999996,0.000250,-0.004800,0.009147,-0.001827,0.009383,-0.005035,-82.660537,0.009391,
1740,140,-0.735112,-19.141248,0.999996,0.000263,-0.003325,0.009273,-0.002011,0.009587,-0.003638,-81.147593,0.009679,
1430,1530,-0.612494,-3.810769,0.999996,0.000235,-0.004107,0.008606,-0.001454,0.008770,-0.004271,-83.559408,0.008771,
1470,520,-0.778415,-16.252003,0.999996,0.000227,-0.004299,0.009033,0.001233,0.009146,-0.004412,84.759397,0.009148,
860,1640,1.198674,-3.343750,0.999996,0.000217,-0.004388,0.009584,0.000317,0.009591,-0.004395,88.702793,0.009603,
660,280,1.709459,-17.560449,0.999996,0.000247,-0.004710,0.010129,0.000394,0.010140,-0.004721,88.478500,0.010148,
800,1790,1.034888,-2.065372,0.999998,0.000163,-0.003974,0.009372,-0.000580,0.009397,-0.003999,-87.516757,0.009432,
1030,1390,0.731469,-5.095125,0.999995,0.000304,-0.005585,0.009644,0.002459,0.010031,-0.005972,81.050241,0.010092,
1380,1250,-0.663450,-6.033639,0.999994,0.000299,-0.006854,0.010112,-0.004140,0.011069,-0.007810,-76.992905,0.011376,
740,1900,0.768762,-1.133496,0.999997,0.000224,-0.002772,0.009257,-0.002053,0.009597,-0.003112,-80.577454,0.009793,
1480,1840,-0.372379,-1.362367,0.999998,0.000183,-0.001974,0.007614,0.000516,0.007642,-0.002002,86.927281,0.007925,
1190,590,0.102402,-16.323566,0.999998,0.000168,-0.002584,0.006281,-0.000690,0.006334,-0.002638,-85.577009,0.006363,
600,1470,2.967424,-5.893607,0.999997,0.000218,-0.005085,0.010156,-0.000049,0.010156,-0.005085,-89.814300,0.010156,
1900,1240,-3.906472,-8.275187,0.999996,0.000000,-0.004528,0.009133,0.000181,0.009135,-0.004531,89.242775,0.009136,
1680,1310,-2.530747,-7.073282,0.999996,0.000241,-0.005908,0.011038,0.000717,0.011068,-0.005939,87.580570,0.011078,
950,1170,2.135508,-8.269251,0.999994,0.000292,-0.006525,0.013147,-0.001016,0.013200,-0.006577,-87.051083,0.013200,
620,540,2.728535,-14.788928,0.999995,0.000260,-0.005083,0.010175,-0.000044,0.010175,-0.005083,-89.832987,0.010175,
1530,410,-0.882163,-17.066496,0.999996,0.000240,-0.003859,0.008998,0.000441,0.009013,-0.003874,88.036838,0.009043,
1010,960,2.266108,-11.164457,0.999987,0.000417,-0.005790,0.015583,-0.000526,0.015596,-0.005803,-88.591771,0.015765,
810,700,2.199769,-13.664700,0.999996,0.000260,-0.006104,0.011211,0.000271,0.011216,-0.006108,89.101977,0.011230,
1290,110,-0.031534,-19.606146,0.999998,0.000180,-0.000470,0.006301,-0.000181,0.006306,-0.000475,-88.466326,0.007023,
580,420,2.570796,-15.879386,0.999995,0.000277,-0.006362,0.010226,-0.000202,0.010228,-0.006365,-89.300870,0.010330,
1100,1850,0.170142,-1.207757,0.999998,0.000161,-0.001345,0.006958,-0.000221,0.006964,-0.001351,-88.479597,0.007386,
1780,520,-2.344781,-15.193865,0.999995,0.000252,-0.005171,0.010244,0.000112,0.010245,-0.005172,89.584697,0.010245,
1130,1490,0.272443,-3.805817,0.999997,0.000212,-0.003103,0.007153,0.001318,0.007320,-0.003270,82.791674,0.007334,
1100,30,0.012911,-20.093914,0.999998,0.000000,-0.000030,0.006026,0.000357,0.006047,-0.000051,86.637245,0.006953,
1080,1410,0.469001,-4.620732,0.999998,0.000175,-0.004499,0.008227,0.002578,0.008729,-0.005002,78.971598,0.008760,
1090,700,0.442050,-15.143416,0.999993,0.000309,-0.004903,0.008253,-0.003240,0.009007,-0.005657,-76.888963,0.009105,
770,460,1.736080,-16.090127,0.999996,0.000244,-0.005041,0.010107,-0.000290,0.010112,-0.005046,-88.902126,0.010112,
1560,630,-1.420510,-14.788524,0.999993,0.000318,-0.006030,0.010794,0.000914,0.010843,-0.006079,86.899342,0.010870,
1810,1640,-2.193280,-3.991574,0.999996,0.000228,-0.005006,0.010134,-0.000137,0.010136,-0.005007,-89.481623,0.010136,
1700,70,-0.265833,-19.772832,0.999997,0.000173,-0.001122,0.007811,-0.002347,0.008390,-0.001701,-76.138099,0.008870,
1690,570,-2.009047,-14.961160,0.999996,0.000249,-0.005464,0.010487,0.000206,0.010490,-0.005466,89.261887,0.010493,
1430,860,-1.346938,-12.856369,0.999992,0.000345,-0.007458,0.013442,0.002004,0.013632,-0.007648,84.571319,0.013666,
1380,920,-1.557096,-12.949873,0.999987,0.000425,-0.003705,0.011913,0.007384,0.014851,-0.006643,68.301890,0.014879,
1390,1330,-0.552301,-5.364463,0.999995,0.000272,-0.005757,0.009177,-0.003485,0.009950,-0.006530,-77.489681,0.010111,
1740,120,-0.612663,-19.322088,0.999996,0.000264,-0.002965,0.009121,-0.002309,0.009547,-0.003391,-79.541895,0.009680,
910,610,1.335161,-15.031775,0.999994,0.000287,-0.005848,0.010491,-0.001006,0.010552,-0.005909,-86.490414,0.010578,
1430,1950,-0.116505,-0.547916,0.999998,0.000189,-0.000817,0.006693,0.000608,0.006742,-0.000866,85.403806,0.007336,
780,1790,1.116044,-2.111623,0.999997,0.000200,-0.004084,0.009532,-0.000629,0.009561,-0.004113,-87.360215,0.009592,
680,890,3.595640,-11.391393,0.999994,0.000272,-0.004713,0.009753,0.000839,0.009802,-0.004761,86.690699,0.009803,
1020,570,0.702359,-15.901529,0.999996,0.000254,-0.004524,0.008942,-0.001673,0.009147,-0.004728,-83.023783,0.009148,
1860,140,-1.235748,-18.764040,0.999996,0.000245,-0.004842,0.010449,-0.001179,0.010539,-0.004933,-85.616613,0.010546,
860,1620,1.237896,-3.536660,0.999995,0.000259,-0.004601,0.009719,0.000439,0.009733,-0.004615,88.245518,0.009737,
1040,310,0.395672,-18.125561,0.999997,0.000229,-0.002665,0.007746,-0.000167,0.007749,-0.002667,-89.082485,0.007874,
1650,790,-2.528705,-12.652178,0.999996,0.000284,-0.006074,0.011358,-0.000959,0.011410,-0.006127,-86.858982,0.011421,
1820,1450,-2.810660,-5.966052,0.999997,0.000203,-0.005149,0.010212,0.000122,0.010213,-0.005150,89.544261,0.010213,
720,1290,2.964643,-7.431025,0.999997,0.000223,-0.005385,0.010560,-0.000865,0.010607,-0.005432,-86.902967,0.010608,
1030,1370,0.752937,-5.287950,0.999994,0.000295,-0.005873,0.009957,0.002603,0.010374,-0.006290,80.898054,0.010452,
620,520,2.667357,-14.993879,0.999995,0.000280,-0.005055,0.010157,-0.000057,0.010158,-0.005055,-89.786442,0.010158,
990,1600,0.723196,-3.340891,0.999998,0.000203,-0.003958,0.008813,0.000895,0.008875,-0.004020,86.010746,0.008888,
1690,1010,-3.394202,-10.254424,0.999996,0.000234,-0.004205,0.009967,-0.000331,0.009975,-0.004212,-88.664623,0.010015,
620,690,3.212639,-13.259252,0.999997,0.000192,-0.005075,0.010073,0.000334,0.010080,-0.005082,88.736770,0.010081,
1900,1250,-3.875250,-8.185457,0.999996,0.000000,-0.004567,0.009061,0.000174,0.009064,-0.004569,89.266622,0.009064,
1480,1820,-0.409266,-1.516640,0.999997,0.000203,-0.002133,0.007795,0.000434,0.007814,-0.002152,87.504447,0.008072,
740,1350,2.628341,-6.743305,0.999995,0.000290,-0.005647,0.010736,-0.000541,0.010753,-0.005664,-88.111849,0.010759,
580,430,2.600599,-15.779672,0.999996,0.000255,-0.005865,0.010017,-0.000179,0.010019,-0.005867,-89.355457,0.010068,
1520,250,-0.545705,-18.466172,0.999996,0.000244,-0.002636,0.008194,-0.000428,0.008210,-0.002653,-87.740333,0.008380,
1780,500,-2.287026,-15.400104,0.999996,0.000252,-0.005149,0.010262,0.000159,0.010264,-0.005151,89.408869,0.010264,
950,1130,2.384797,-8.794233,0.999994,0.000310,-0.005526,0.012884,-0.001284,0.012973,-0.005615,-86.030583,0.013012,
1000,1090,2.351707,-9.132458,0.999993,0.000311,-0.005439,0.014749,-0.000026,0.014749,-0.005439,-89.925650,0.014917,
1090,680,0.434942,-15.308017,0.999996,0.000264,-0.004651,0.008107,-0.003014,0.008783,-0.005327,-77.356584,0.008849,
740,490,1.967590,-15.686977,0.999998,0.000186,-0.005161,0.010242,-0.000248,0.010246,-0.005165,-89.076987,0.010246,
930,760,1.627656,-13.407768,0.999995,0.000234,-0.007197,0.012269,-0.000453,0.012279,-0.007208,-88.666909,0.012341,
1480,830,-1.554840,-12.823208,0.999993,0.000341,-0.007786,0.013239,0.000611,0.013257,-0.007803,88.336831,0.013326,
1300,1850,-0.083290,-1.178107,0.999998,0.000177,-0.001153,0.006753,0.000151,0.006756,-0.001156,88.908050,0.007226,
1290,90,-0.025787,-19.730230,0.999998,0.000177,-0.000336,0.006182,-0.000167,0.006186,-0.000340,-88.537145,0.006955,
1000,1150,1.934755,-8.248285,0.999994,0.000293,-0.006838,0.014211,-0.000017,0.014211,-0.006838,-89.954348,0.014214,
910,590,1.292917,-15.239936,0.999996,0.000252,-0.005610,0.010348,-0.000998,0.010410,-0.005672,-86.434008,0.010424,
1400,590,-0.523396,-15.914433,0.999996,0.000223,-0.004263,0.008351,0.002025,0.008668,-0.004580,81.100335,0.008672,
1810,1740,-1.875088,-2.977039,0.999997,0.000238,-0.004843,0.010041,0.000130,0.010043,-0.004844,89.498259,0.010045,
1430,1970,-0.089311,-0.417456,0.999998,0.000180,-0.000603,0.006517,0.000588,0.006566,-0.000651,85.308112,0.007235,
1130,1470,0.272817,-3.945451,0.999996,0.000244,-0.003210,0.007087,0.001511,0.007304,-0.003427,81.822166,0.007308,
1680,870,-3.022605,-11.707858,0.999996,0.000245,-0.005137,0.010694,-0.001226,0.010789,-0.005231,-85.597533,0.010790,
1040,1050,2.242741,-9.595066,0.999966,0.000863,-0.008979,0.021913,0.001781,0.022015,-0.009082,86.712002,0.022127,
1240,1660,-0.019796,-2.487762,0.999998,0.000183,-0.002297,0.007079,-0.000122,0.007080,-0.002299,-89.257443,0.007224,
1050,1720,0.398152,-2.212471,0.999996,0.000233,-0.002792,0.007732,0.000300,0.007741,-0.002800,88.366984,0.007839,
1860,120,-1.084331,-18.977729,0.999996,0.000242,-0.004756,0.010705,-0.001546,0.010858,-0.004910,-84.344573,0.010875,
830,60,0.154195,-19.873892,0.999998,0.000184,-0.000515,0.007239,0.001838,0.007653,-0.000928,77.314432,0.008352,
830,510,1.554695,-15.775525,0.999995,0.000250,-0.005214,0.010207,-0.000483,0.010222,-0.005229,-88.208517,0.010223,
1330,1460,-0.264883,-4.008525,0.999997,0.000242,-0.003185,0.007013,-0.001599,0.007258,-0.003430,-81.293444,0.007261,
1130,120,0.064888,-19.535006,0.999998,0.000169,-0.000753,0.006452,0.000234,0.006460,-0.000761,88.138339,0.007061,
620,500,2.608622,-15.197706,0.999996,0.000251,-0.005037,0.010131,-0.000080,0.010132,-0.005038,-89.696319,0.010132,
1740,100,-0.489905,-19.505037,0.999995,0.000267,-0.002652,0.008629,-0.002318,0.009087,-0.003109,-78.830528,0.009237,
860,1600,1.286128,-3.734322,0.999996,0.000253,-0.004778,0.009809,0.000500,0.009826,-0.004795,88.038848,0.009827,
790,90,0.327644,-19.629362,0.999997,0.000218,-0.001659,0.007892,0.001988,0.008289,-0.002057,78.698886,0.008633,
1360,1230,-0.621845,-5.955872,0.999994,0.000318,-0.006284,0.008714,-0.004410,0.009915,-0.007485,-74.771632,0.010335,
1530,390,-0.849627,-17.244427,0.999996,0.000243,-0.003647,0.008886,0.000329,0.008895,-0.003655,88.499537,0.008942,
1690,990,-3.377522,-10.456582,0.999996,0.000258,-0.004246,0.009979,-0.000378,0.009989,-0.004256,-88.477296,0.010025,
1060,310,0.345254,-18.155163,0.999997,0.000230,-0.002435,0.007594,-0.000140,0.007596,-0.002437,-89.201919,0.007757,
970,1600,0.802506,-3.398761,0.999996,0.000231,-0.003973,0.008914,0.000784,0.008961,-0.004021,86.532041,0.008977,
1900,1260,-3.845927,-8.095521,0.999996,0.000000,-0.004609,0.009085,0.000137,0.009087,-0.004610,89.428086,0.009087,
1030,1350,0.778486,-5.491349,0.999995,0.000289,-0.006192,0.010280,0.002721,0.010718,-0.006629,80.860153,0.010818,
600,690,3.312062,-13.201353,0.999997,0.000234,-0.004965,0.010038,0.000232,0.010042,-0.004969,89.113119,0.010042,
1480,1800,-0.447228,-1.674186,0.999996,0.000226,-0.002339,0.007893,0.000331,0.007903,-0.002350,88.147872,0.008117,
1390,530,-0.464680,-16.437555,0.999996,0.000224,-0.003593,0.008019,0.001367,0.008178,-0.003751,83.374132,0.008187,
620,1350,3.264145,-7.052491,0.999996,0.000228,-0.004996,0.010041,-0.000351,0.010050,-0.005005,-88.665469,0.010050,
1540,410,-0.920088,-17.039907,0.999996,0.000242,-0.004007,0.009108,0.000449,0.009123,-0.004022,88.040460,0.009145,
820,1410,1.961220,-5.851534,0.999994,0.000295,-0.005936,0.010949,0.000113,0.010950,-0.005937,89.615196,0.010963,
1600,550,-1.470543,-15.477374,0.999994,0.000300,-0.005412,0.010327,0.000665,0.010355,-0.005440,87.586632,0.010360,
590,200,1.672552,-18.089452,0.999996,0.000255,-0.004981,0.009934,0.000456,0.009948,-0.004995,88.249318,0.009948,
950,590,1.074458,-15.407770,0.999996,0.000247,-0.005462,0.010095,-0.001368,0.010214,-0.005581,-85.014177,0.010229,
1090,640,0.422134,-15.633657,0.999996,0.000242,-0.004242,0.007953,-0.002491,0.008442,-0.004731,-78.889424,0.008463,
1780,480,-2.229368,-15.604973,0.999996,0.000258,-0.005114,0.010224,0.000181,0.010226,-0.005117,89.324675,0.010226,
1280,1850,-0.061220,-1.174633,0.999998,0.000165,-0.001174,0.006738,0.000087,0.006739,-0.001175,89.372200,0.007200,
1290,70,-0.016930,-19.856291,0.999998,0.000165,-0.000215,0.006142,-0.000184,0.006147,-0.000220,-88.341930,0.006974,
1480,930,-2.223285,-11.444204,0.999995,0.000260,-0.005919,0.013976,-0.000688,0.013999,-0.005943,-88.022296,0.014052,
1810,1760,-1.800619,-2.774998,0.999997,0.000230,-0.004764,0.010099,0.000262,0.010104,-0.004769,88.989934,0.010109,
980,1090,2.454301,-9.221679,0.999995,0.000282,-0.004924,0.013636,-0.000753,0.013666,-0.004954,-87.680429,0.013837,
740,470,1.912229,-15.892752,0.999996,0.000240,-0.005084,0.010160,-0.000251,0.010164,-0.005088,-89.058391,0.010164,
910,570,1.258365,-15.446893,0.999996,0.000251,-0.005389,0.010242,-0.000981,0.010304,-0.005451,-86.423502,0.010309,
1130,1450,0.272456,-4.086248,0.999996,0.000232,-0.003303,0.007018,0.001760,0.007310,-0.003595,80.585129,0.007311,
1040,1040,2.258089,-9.820414,0.999962,0.000809,-0.009281,0.021908,0.000991,0.021940,-0.009313,88.182549,0.022023,
1860,100,-0.920983,-19.195120,0.999996,0.000240,-0.004643,0.010812,-0.002119,0.011098,-0.004928,-82.334316,0.011121,
1650,770,-2.450594,-12.877410,0.999994,0.000327,-0.006130,0.011324,-0.000799,0.011361,-0.006166,-87.385716,0.011375,
1120,1670,0.261051,-2.500958,0.999997,0.000186,-0.002565,0.007458,0.000462,0.007479,-0.002586,87.367837,0.007597,
1520,1890,-0.345098,-1.021392,0.999996,0.000229,-0.001717,0.007510,0.000834,0.007585,-0.001792,84.876993,0.007929,
1400,470,-0.471948,-16.895138,0.999996,0.000240,-0.003429,0.008038,0.001009,0.008126,-0.003517,85.012032,0.008150,
1740,80,-0.375134,-19.669281,0.999995,0.000244,-0.002109,0.008323,-0.002546,0.008911,-0.002697,-76.989501,0.009140,
1430,1990,-0.059892,-0.286787,0.999998,0.000173,-0.000444,0.006418,0.000604,0.006471,-0.000496,85.005021,0.007203,
600,50,0.461391,-19.738966,0.999993,0.000314,-0.002783,0.011027,0.004341,0.012278,-0.004034,73.922224,0.012517,
700,1160,3.515228,-8.797499,0.999996,0.000255,-0.004748,0.009889,-0.000905,0.009945,-0.004804,-86.475676,0.009947,
620,480,2.550612,-15.400450,0.999995,0.000283,-0.005036,0.010162,-0.000104,0.010162,-0.005036,-89.606856,0.010162,
1690,970,-3.358030,-10.657184,0.999995,0.000269,-0.004362,0.010116,-0.000674,0.010147,-0.004393,-87.339371,0.010177,
1680,850,-2.946609,-11.925299,0.999995,0.000292,-0.005341,0.010865,-0.001265,0.010963,-0.005439,-85.565170,0.010963,
1090,2020,0.015738,-0.097715,0.999998,0.000000,-0.000016,0.006051,-0.000384,0.006075,-0.000040,-86.391233,0.006992,
790,290,1.163685,-17.830432,0.999997,0.000198,-0.004285,0.009562,0.000403,0.009573,-0.004297,88.333448,0.009590,
930,1600,0.969063,-3.518035,0.999998,0.000215,-0.004380,0.009347,0.000767,0.009390,-0.004423,86.810954,0.009395,
1390,120,-0.102755,-19.523216,0.999998,0.000173,-0.000714,0.006617,-0.000471,0.006647,-0.000744,-86.342169,0.007284,
820,1350,2.157821,-6.521656,0.999996,0.000294,-0.006168,0.011297,-0.000246,0.011301,-0.006171,-89.192687,0.011317,
1310,1460,-0.204174,-3.953746,0.999998,0.000183,-0.002966,0.006664,-0.001391,0.006861,-0.003163,-81.943988,0.006868,
1900,1270,-3.814370,-8.002638,0.999995,0.000000,-0.004655,0.009219,0.000128,0.009220,-0.004657,89.470247,0.009220,
1340,1230,-0.507270,-5.665032,0.999994,0.000268,-0.005438,0.006954,-0.004292,0.008295,-0.006780,-72.643767,0.008834,
1530,370,-0.819022,-17.419785,0.999996,0.000241,-0.003451,0.008743,0.000182,0.008746,-0.003454,89.147329,0.008810,
1030,1330,0.815519,-5.701671,0.999995,0.000277,-0.006551,0.010639,0.002777,0.011077,-0.006989,81.046254,0.011203,
880,770,2.017503,-13.075918,0.999997,0.000198,-0.006717,0.011971,0.000353,0.011978,-0.006724,88.919480,0.012008,
1110,700,0.348455,-15.287508,0.999996,0.000261,-0.004398,0.007456,-0.003262,0.008295,-0.005236,-75.587444,0.008390,
800,1410,2.078627,-5.917394,0.999997,0.000192,-0.005860,0.010838,0.000005,0.010838,-0.005860,89.982163,0.010850,
1750,540,-2.246674,-15.082726,0.999995,0.000277,-0.005264,0.010318,0.000127,0.010319,-0.005265,89.533871,0.010320,
950,570,1.043107,-15.609607,0.999996,0.000240,-0.005202,0.009929,-0.001305,0.010041,-0.005314,-85.106039,0.010047,
1390,510,-0.456149,-16.599344,0.999997,0.000195,-0.003527,0.007995,0.001268,0.008133,-0.003665,83.793278,0.008147,
580,200,1.721539,-18.042362,0.999996,0.000244,-0.005311,0.009978,0.000500,0.009995,-0.005327,88.128274,0.010002,
1260,1850,-0.037752,-1.170435,0.999999,0.000177,-0.001205,0.006719,0.000009,0.006719,-0.001205,89.937846,0.007165,
980,1150,2.071215,-8.390019,0.999992,0.000314,-0.006534,0.013782,-0.000608,0.013800,-0.006552,-88.286341,0.013806,
1240,310,-0.016056,-18.271584,0.999998,0.000178,-0.001924,0.006991,0.000059,0.006991,-0.001924,89.620042,0.007223,
860,1580,1.328111,-3.933538,0.999995,0.000262,-0.004884,0.009872,0.000557,0.009893,-0.004905,87.841478,0.009893,
1280,1980,-0.017013,-0.334979,0.999998,0.000190,-0.000304,0.006146,0.000173,0.006150,-0.000308,88.465884,0.006931,
1780,460,-2.174047,-15.811519,0.999996,0.000259,-0.005066,0.010157,0.000182,0.010160,-0.005069,89.316165,0.010160,
1480,910,-2.086468,-11.721720,0.999991,0.000344,-0.006449,0.013817,-0.000560,0.013832,-0.006465,-88.418631,0.013842,
1480,1780,-0.483048,-1.833420,0.999996,0.000209,-0.002484,0.008000,0.000228,0.008005,-0.002489,88.752798,0.008193,
1610,60,-0.141065,-19.880459,0.999998,0.000186,-0.000631,0.007162,-0.001644,0.007495,-0.000963,-78.561072,0.008155,
620,460,2.491855,-15.604770,0.999995,0.000287,-0.005032,0.010131,-0.000140,0.010133,-0.005033,-89.471020,0.010133,
690,1760,1.624483,-2.655769,0.999995,0.000278,-0.004817,0.010101,-0.000288,0.010106,-0.004823,-88.896007,0.010110,
1090,450,0.367710,-17.124752,0.999997,0.000220,-0.003070,0.007721,-0.000807,0.007781,-0.003130,-85.748364,0.007831,
1600,390,-1.131974,-17.059804,0.999997,0.000198,-0.004218,0.009378,0.000213,0.009381,-0.004222,89.100904,0.009396,
1040,1030,2.267338,-10.027954,0.999983,0.000508,-0.009361,0.021893,0.000159,0.021893,-0.009362,89.707866,0.021970,
1490,1060,-2.604000,-9.643424,0.999992,0.000324,-0.004216,0.013663,0.000487,0.013676,-0.004230,88.439795,0.014004,
1540,1890,-0.377701,-1.035879,0.999997,0.000221,-0.001669,0.007645,0.000998,0.007751,-0.001775,83.954649,0.008122,
1740,60,-0.251549,-19.835799,0.999996,0.000247,-0.001476,0.008226,-0.002815,0.008984,-0.002233,-74.936114,0.009355,
1020,510,0.656826,-16.432557,0.999996,0.000219,-0.004160,0.008729,-0.001336,0.008866,-0.004297,-84.142371,0.008867,
700,1180,3.452023,-8.594320,0.999996,0.000234,-0.004864,0.010024,-0.001027,0.010095,-0.004935,-86.073320,0.010096,
1290,1480,-0.147575,-3.769318,0.999997,0.000179,-0.002765,0.006577,-0.001019,0.006686,-0.002875,-83.848362,0.006708,
830,490,1.506864,-15.983341,0.999995,0.000224,-0.005062,0.010037,-0.000457,0.010051,-0.005076,-88.267467,0.010051,
1700,190,-0.875048,-18.725626,0.999995,0.000224,-0.003280,0.009350,-0.001503,0.009527,-0.003457,-83.304350,0.009645,
1440,60,-0.054922,-19.904725,0.999998,0.000159,-0.000337,0.006358,-0.000647,0.006420,-0.000399,-84.530193,0.007194,
1340,120,-0.072385,-19.532326,0.999998,0.000150,-0.000761,0.006476,-0.000247,0.006485,-0.000770,-88.047174,0.007086,
1260,310,-0.053386,-18.264271,0.999998,0.000201,-0.001921,0.007016,0.000114,0.007018,-0.001922,89.272186,0.007253,
1660,870,-2.919168,-11.732068,0.999995,0.000274,-0.005291,0.010949,-0.001308,0.011053,-0.005395,-85.425268,0.011054,
1650,750,-2.369517,-13.108492,0.999994,0.000323,-0.006183,0.011339,-0.000651,0.011364,-0.006207,-87.874769,0.011380,
1070,120,0.104915,-19.522312,0.999998,0.000172,-0.000703,0.006635,0.000474,0.006665,-0.000733,86.321168,0.007310,
860,1560,1.370855,-4.132027,0.999995,0.000278,-0.004965,0.009950,0.000593,0.009973,-0.004989,87.727538,0.009973,
1090,1140,1.484231,-6.981350,0.999989,0.000000,-0.003522,0.010682,0.007299,0.013765,-0.006605,67.108043,0.013768,
1900,1490,-3.091793,-5.804065,0.999995,0.000000,-0.004987,0.010220,0.000009,0.010220,-0.004987,89.967069,0.010221,
570,1410,3.306654,-6.599653,0.999922,0.001072,-0.004364,0.010107,0.000100,0.010108,-0.004365,89.602924,0.010139,
1340,1210,-0.632169,-5.807130,0.999989,0.000428,-0.004730,0.006521,-0.003889,0.007734,-0.005944,-72.671880,0.008097,
1700,1610,-1.732208,-3.940142,0.999996,0.000221,-0.005019,0.010123,-0.000251,0.010127,-0.005023,-89.049445,0.010128,
1810,1750,-1.839867,-2.877073,0.999997,0.000221,-0.004798,0.010064,0.000199,0.010066,-0.004801,89.233352,0.010070,
1820,290,-1.828083,-17.404092,0.999996,0.000249,-0.004814,0.010147,-0.000220,0.010150,-0.004818,-89.159530,0.010155,
1130,1670,0.235457,-2.486000,0.999997,0.000192,-0.002581,0.007391,0.000488,0.007415,-0.002605,87.202555,0.007523,
1400,1790,-0.287325,-1.661066,0.999997,0.000215,-0.002048,0.007413,0.000069,0.007414,-0.002048,89.579749,0.007657,
890,960,2.832055,-10.828744,0.999994,0.000264,-0.004280,0.011216,0.001143,0.011300,-0.004364,85.803983,0.011398,
1530,350,-0.778434,-17.596644,0.999997,0.000206,-0.003281,0.008791,0.000046,0.008791,-0.003281,89.783037,0.008884,
1510,1180,-2.052324,-8.123237,0.999995,0.000263,-0.006812,0.013215,0.000807,0.013248,-0.006844,87.696015,0.013250,
1280,1960,-0.022914,-0.459506,0.999998,0.000169,-0.000414,0.006238,0.000121,0.006240,-0.000416,88.962188,0.006978,
910,550,1.221891,-15.649955,0.999995,0.000261,-0.005274,0.010116,-0.000976,0.010177,-0.005336,-86.385934,0.010181,
1480,1760,-0.518603,-1.997012,0.999997,0.000189,-0.002647,0.008059,0.000126,0.008060,-0.002649,89.327966,0.008217,
1000,240,0.384620,-18.619948,0.999998,0.000187,-0.001940,0.007723,0.000407,0.007740,-0.001957,87.594560,0.008049,
800,1350,2.278687,-6.580845,0.999996,0.000278,-0.006042,0.011149,-0.000370,0.011157,-0.006050,-88.767177,0.011171,
670,1760,1.720023,-2.719590,0.999995,0.000258,-0.004771,0.010110,-0.000307,0.010116,-0.004777,-88.820344,0.010121,
1090,430,0.359072,-17.278836,0.999997,0.000214,-0.002908,0.007695,-0.000672,0.007738,-0.002951,-86.385936,0.007810,
620,440,2.433173,-15.809580,0.999995,0.000278,-0.005013,0.010062,-0.000133,0.010063,-0.005014,-89.493014,0.010063,
1240,1850,-0.012341,-1.166746,0.999998,0.000165,-0.001274,0.006692,-0.000024,0.006692,-0.001274,-89.823850,0.007107,
920,1030,2.846422,-10.052102,0.999995,0.000268,-0.003551,0.011296,-0.000043,0.011296,-0.003551,-89.834221,0.011552,
780,460,1.686429,-16.121973,0.999996,0.000238,-0.005055,0.010116,-0.000304,0.010122,-0.005061,-88.851778,0.010122,
1730,540,-2.141720,-15.146298,0.999995,0.000274,-0.005325,0.010345,0.000154,0.010346,-0.005326,89.437484,0.010348,
1450,180,-0.260961,-19.077974,0.999998,0.000242,-0.001424,0.007185,-0.000531,0.007217,-0.001457,-86.482108,0.007633,
1190,790,0.110044,-15.367890,0.999996,0.000259,-0.002969,0.003017,-0.002316,0.003808,-0.003760,-71.133763,0.004370,
1240,1210,-0.076599,-4.796870,0.999983,0.000502,-0.008671,0.003090,0.000094,0.003091,-0.008672,89.541361,0.008790,
660,1020,3.886644,-10.149003,0.999997,0.000213,-0.004346,0.009298,0.000176,0.009300,-0.004349,89.262605,0.009306,
1740,260,-1.328100,-17.963017,0.999997,0.000234,-0.004429,0.009920,-0.000686,0.009953,-0.004461,-87.267349,0.009971,
1400,490,-0.481928,-16.732107,0.999995,0.000246,-0.003478,0.008077,0.001118,0.008184,-0.003585,84.525691,0.008205,
1000,1070,2.449270,-9.423022,0.999992,0.000338,-0.005201,0.015009,0.000013,0.015009,-0.005201,89.962007,0.015243,
1290,1460,-0.145977,-3.899324,0.999997,0.000222,-0.002779,0.006399,-0.001140,0.006539,-0.002918,-83.025059,0.006551,
1600,70,-0.169453,-19.805945,0.999997,0.000198,-0.000919,0.007263,-0.001588,0.007561,-0.001216,-79.393466,0.008120,
910,1880,0.426052,-1.123266,0.999996,0.000221,-0.001820,0.007803,-0.001008,0.007907,-0.001924,-84.084755,0.008247,
1440,500,-0.635113,-16.528409,0.999996,0.000221,-0.004055,0.008638,0.001278,0.008766,-0.004182,84.306788,0.008769,
830,690,2.041285,-13.840566,0.999996,0.000257,-0.006194,0.011217,0.000070,0.011217,-0.006194,89.768956,0.011237,
630,320,2.004162,-17.051952,0.999997,0.000226,-0.004870,0.009993,-0.000020,0.009993,-0.004870,-89.921632,0.009994,
700,1620,2.016039,-4.040544,0.999996,0.000220,-0.004982,0.010119,0.000206,0.010122,-0.004985,89.220383,0.010122,
1650,730,-2.291650,-13.335157,0.999996,0.000306,-0.006170,0.011282,-0.000510,0.011297,-0.006185,-88.326955,0.011314,
860,770,2.151001,-13.008860,0.999993,0.000294,-0.006555,0.011793,0.000548,0.011809,-0.006571,88.291816,0.011834,
970,120,0.198214,-19.485773,0.999998,0.000190,-0.001197,0.007074,0.000835,0.007158,-0.001280,84.292815,0.007634,
860,1540,1.410699,-4.331985,0.999994,0.000287,-0.005110,0.010122,0.000622,0.010147,-0.005136,87.667232,0.010148,
990,1720,0.564827,-2.313196,0.999997,0.000210,-0.002842,0.008248,0.000101,0.008249,-0.002843,89.476410,0.008381,
1110,1150,1.339162,-6.427934,0.999988,0.000000,-0.001779,0.007128,0.006064,0.010198,-0.004849,63.148481,0.010202,
1390,490,-0.447233,-16.760204,0.999996,0.000231,-0.003485,0.007996,0.001182,0.008117,-0.003605,84.180314,0.008134,
950,550,1.015856,-15.805253,0.999996,0.000234,-0.004922,0.009724,-0.001196,0.009821,-0.005019,-85.363967,0.009822,
1480,590,-0.902141,-15.550124,0.999995,0.000257,-0.005125,0.009699,0.001606,0.009871,-0.005297,83.886512,0.009880,
740,1880,0.877965,-1.327328,0.999996,0.000221,-0.003136,0.009471,-0.001794,0.009722,-0.003387,-82.054876,0.009870,
590,1400,3.242317,-6.637265,0.999997,0.000227,-0.004890,0.010078,-0.000152,0.010079,-0.004892,-89.416904,0.010081,
990,840,1.557873,-12.735033,0.999994,0.000332,-0.007780,0.013367,-0.000684,0.013389,-0.007802,-88.150231,0.013450,
1900,1480,-3.120433,-5.906990,0.999996,0.000000,-0.004975,0.010191,-0.000005,0.010191,-0.004975,-89.981338,0.010192,
1530,330,-0.740430,-17.774628,0.999998,0.000207,-0.003174,0.008810,-0.000040,0.008810,-0.003174,-89.810439,0.008924,
1340,1460,-0.294638,-4.040057,0.999997,0.000239,-0.003377,0.007201,-0.001769,0.007489,-0.003665,-80.754728,0.007490,
1480,1740,-0.553119,-2.156846,0.999997,0.000211,-0.002832,0.008213,0.000001,0.008213,-0.002832,89.992700,0.008343,
1810,1770,-1.762707,-2.671828,0.999997,0.000217,-0.004732,0.010118,0.000326,0.010125,-0.004739,88.744723,0.010132,
970,960,2.475806,-10.972983,0.999994,0.000273,-0.004840,0.013321,0.000985,0.013374,-0.004893,86.905462,0.013534,
650,620,2.823276,-14.060451,0.999997,0.000233,-0.005213,0.010231,0.000181,0.010233,-0.005215,89.326789,0.010233,
1090,410,0.350379,-17.430317,0.999997,0.000212,-0.002731,0.007635,-0.000519,0.007661,-0.002757,-87.139780,0.007761,
910,1280,1.831105,-7.026238,0.999993,0.000320,-0.007076,0.012224,-0.000058,0.012224,-0.007076,-89.827154,0.012274,
620,420,2.372636,-16.010337,0.999996,0.000247,-0.004964,0.010022,-0.000137,0.010024,-0.004965,-89.477368,0.010024,
1520,1730,-0.697272,-2.319447,0.999996,0.000229,-0.003220,0.008723,0.000014,0.008723,-0.003220,89.933573,0.008822,
1280,1940,-0.030650,-0.585727,0.999998,0.000162,-0.000554,0.006349,0.000159,0.006353,-0.000557,88.680510,0.007036,
850,1980,0.199365,-0.394705,0.999997,0.000187,-0.000848,0.007397,-0.001717,0.007740,-0.001191,-78.691942,0.008335,
1730,450,-1.894404,-16.072557,0.999997,0.000210,-0.005005,0.010096,0.000219,0.010099,-0.005008,89.169052,0.010099,
880,1350,1.775663,-6.311060,0.999996,0.000246,-0.006539,0.011557,0.000276,0.011561,-0.006543,89.126639,0.011594,
1710,1060,-3.466209,-9.757165,0.999993,0.000308,-0.004246,0.009831,0.000329,0.009839,-0.004254,88.662395,0.009869,
1070,60,0.040067,-19.910636,0.999998,0.000172,-0.000276,0.006253,0.000448,0.006284,-0.000306,86.093576,0.007086,
1890,340,-2.347720,-16.644127,0.999997,0.000214,-0.004879,0.009771,0.000025,0.009772,-0.004879,89.902131,0.009772,
830,280,0.974408,-18.016475,0.999996,0.000254,-0.003436,0.009232,0.000618,0.009262,-0.003466,87.211624,0.009359,
1350,1180,-0.991085,-6.162513,0.999996,0.000258,-0.003192,0.006151,-0.004188,0.007754,-0.004795,-69.061920,0.007826,
1170,1920,0.047414,-0.715872,0.999998,0.000193,-0.000623,0.006426,-0.000152,0.006429,-0.000626,-88.764256,0.007090,
1490,1180,-1.912541,-8.014463,0.999994,0.000330,-0.007124,0.013540,0.000418,0.013548,-0.007132,88.841589,0.013555,
600,1830,1.755369,-2.275703,0.999996,0.000220,-0.004841,0.009955,-0.000292,0.009960,-0.004847,-88.869287,0.009961,
820,860,2.785089,-11.869880,0.999996,0.000270,-0.005527,0.011226,0.001362,0.011336,-0.005637,85.382383,0.011336,
900,1030,2.917053,-10.052145,0.999995,0.000278,-0.003580,0.011033,-0.000077,0.011034,-0.003581,-89.697023,0.011258,
1000,220,0.353315,-18.770602,0.999998,0.000190,-0.001776,0.007534,0.000442,0.007554,-0.001797,87.288376,0.007893,
780,1480,1.984060,-5.227159,0.999996,0.000252,-0.005501,0.010496,0.000197,0.010499,-0.005504,89.293252,0.010503,
660,230,1.492287,-18.070663,0.999996,0.000252,-0.004558,0.010144,0.000876,0.010196,-0.004610,86.600965,0.010211,
700,1600,2.073304,-4.245372,0.999995,0.000260,-0.005039,0.010181,0.000188,0.010183,-0.005041,89.290843,0.010183,
660,980,3.854590,-10.522690,0.999997,0.000235,-0.004350,0.009197,0.000235,0.009201,-0.004354,89.007399,0.009206,
1440,480,-0.616826,-16.706581,0.999996,0.000223,-0.003844,0.008555,0.001113,0.008655,-0.003943,84.911248,0.008666,
1130,1430,0.270403,-4.227499,0.999997,0.000226,-0.003408,0.006941,0.002037,0.007328,-0.003794,79.257290,0.007329,
1020,430,0.584651,-17.118005,0.999998,0.000211,-0.003357,0.008283,-0.000694,0.008325,-0.003399,-86.597926,0.008371,
740,1860,0.973292,-1.515957,0.999996,0.000226,-0.003392,0.009655,-0.001544,0.009835,-0.003573,-83.340018,0.009957,
950,530,0.989588,-15.996817,0.999997,0.000201,-0.004769,0.009527,-0.001112,0.009613,-0.004855,-85.579325,0.009613,
860,1520,1.453873,-4.536884,0.999994,0.000273,-0.005320,0.010243,0.000646,0.010270,-0.005347,87.627897,0.010273,
1230,1480,0.002754,-3.709662,0.999997,0.000213,-0.002468,0.006257,0.000039,0.006257,-0.002468,89.742173,0.006304,
1030,120,0.142887,-19.506920,0.999997,0.000232,-0.000975,0.006796,0.000620,0.006845,-0.001024,85.463842,0.007384,
1090,1130,1.567731,-7.087279,0.999982,0.000000,-0.003563,0.011909,0.008100,0.015374,-0.007027,66.841934,0.015393,
1180,580,0.129017,-16.374557,0.999998,0.000172,-0.002705,0.006484,-0.000863,0.006564,-0.002785,-84.681650,0.006589,
1650,710,-2.216391,-13.560573,0.999996,0.000308,-0.006130,0.011262,-0.000337,0.011268,-0.006136,-88.889969,0.011283,
1090,390,0.338969,-17.582524,0.999997,0.000199,-0.002569,0.007644,-0.000374,0.007658,-0.002583,-87.903887,0.007792,
1500,930,-2.339715,-11.350547,0.999995,0.000314,-0.005580,0.013264,-0.001121,0.013331,-0.005647,-86.606205,0.013383,
990,880,1.824142,-12.184257,0.999991,0.000392,-0.007279,0.013838,-0.000015,0.013838,-0.007279,-89.957952,0.013844,
1530,310,-0.699691,-17.950521,0.999997,0.000230,-0.003107,0.008509,-0.000081,0.008509,-0.003108,-89.599268,0.008612,
1080,310,0.300936,-18.178337,0.999997,0.000211,-0.002101,0.007476,-0.000041,0.007477,-0.002101,-89.756807,0.007712,
1280,1920,-0.036684,-0.714703,0.999998,0.000137,-0.000665,0.006382,0.000123,0.006384,-0.000667,89.003369,0.007019,
890,1280,1.971965,-7.108848,0.999993,0.000293,-0.006813,0.012042,-0.000319,0.012047,-0.006818,-89.032508,0.012082,
860,1350,1.904126,-6.387633,0.999996,0.000242,-0.006423,0.011473,0.000077,0.011473,-0.006423,89.754192,0.011501,
1340,1420,-0.295870,-4.331218,0.999996,0.000218,-0.003617,0.007058,-0.002299,0.007532,-0.004091,-78.347736,0.007542,
1900,1470,-3.150249,-6.007279,0.999997,0.000000,-0.004966,0.010155,0.000011,0.010155,-0.004966,89.959297,0.010156,
1720,1950,-0.480062,-0.682693,0.999996,0.000253,-0.001705,0.008593,0.002481,0.009160,-0.002271,77.134369,0.009539,
1740,1790,-1.351712,-2.248185,0.999995,0.000274,-0.004476,0.009958,0.000614,0.009984,-0.004502,87.568439,0.010000,
1280,1290,-0.110664,-4.755074,0.999998,0.000183,-0.002727,0.003750,-0.002572,0.004647,-0.003624,-70.772451,0.004883,
1860,50,-0.448895,-19.750800,0.999993,0.000361,-0.002961,0.011038,-0.004183,0.012192,-0.004116,-74.569277,0.012405,
1610,1180,-2.666414,-8.408040,0.999994,0.000270,-0.005535,0.011551,0.001443,0.011672,-0.005655,85.207193,0.011674,
1510,1900,-0.302447,-0.936484,0.999996,0.000226,-0.001699,0.007412,0.000832,0.007487,-0.001774,84.825848,0.007825,
1000,200,0.314522,-18.922756,0.999997,0.000189,-0.001590,0.007434,0.000560,0.007469,-0.001624,86.460934,0.007856,
1730,1470,-2.272198,-5.483553,0.999995,0.000270,-0.005398,0.010499,-0.000055,0.010499,-0.005398,-89.802758,0.010500,
1480,980,-2.509738,-10.749453,0.999994,0.000313,-0.004702,0.013828,-0.000539,0.013844,-0.004717,-88.333715,0.014076,
1520,190,-0.402547,-18.948347,0.999997,0.000195,-0.002006,0.007757,-0.000766,0.007817,-0.002066,-85.538180,0.008101,
1330,1200,-0.688165,-5.691398,0.999995,0.000275,-0.004060,0.004979,-0.002884,0.005820,-0.004902,-73.729416,0.006258,
700,1580,2.129523,-4.448210,0.999996,0.000239,-0.005075,0.010207,0.000193,0.010209,-0.005078,89.275405,0.010209,
670,1020,3.842813,-10.149973,0.999997,0.000236,-0.004348,0.009357,0.000168,0.009359,-0.004350,89.296688,0.009367,
590,500,2.760333,-15.104252,0.999996,0.000226,-0.005099,0.010077,-0.000063,0.010077,-0.005099,-89.763942,0.010077,
1440,460,-0.599465,-16.877429,0.999997,0.000219,-0.003637,0.008436,0.000944,0.008509,-0.003710,85.554662,0.008532,
820,1880,0.631892,-1.213702,0.999996,0.000221,-0.002478,0.008595,-0.001426,0.008775,-0.002658,-82.779340,0.009000,
1890,330,-2.314879,-16.741723,0.999997,0.000203,-0.004847,0.009790,0.000064,0.009791,-0.004847,89.747633,0.009791,
1400,570,-0.514873,-16.081422,0.999996,0.000233,-0.004065,0.008238,0.001785,0.008492,-0.004319,81.910683,0.008492,
1110,60,0.028168,-19.913078,0.999998,0.000181,-0.000268,0.006173,0.000340,0.006191,-0.000286,86.988942,0.006990,
620,400,2.314170,-16.209907,0.999995,0.000265,-0.004967,0.010053,-0.000134,0.010054,-0.004968,-89.490775,0.010054,
1430,700,-0.753159,-14.740594,0.999994,0.000315,-0.006058,0.010103,0.002732,0.010552,-0.006508,80.659207,0.010648,
860,1500,1.498057,-4.747663,0.999995,0.000266,-0.005461,0.010384,0.000640,0.010410,-0.005487,87.691343,0.010415,
910,530,1.183547,-15.854369,0.999996,0.000260,-0.005125,0.009910,-0.000950,0.009970,-0.005185,-86.400458,0.009972,
1130,1390,0.268724,-4.510085,0.999996,0.000241,-0.003572,0.006807,0.002588,0.007417,-0.004181,76.745968,0.007437,
1010,120,0.161488,-19.501557,0.999998,0.000198,-0.000889,0.006883,0.000713,0.006948,-0.000954,84.799937,0.007532,
1090,370,0.325300,-17.735844,0.999997,0.000210,-0.002456,0.007602,-0.000295,0.007611,-0.002465,-88.323865,0.007767,
1030,1720,0.457126,-2.249735,0.999996,0.000225,-0.002818,0.007899,0.000257,0.007906,-0.002824,88.627405,0.008012,
1390,470,-0.438023,-16.921069,0.999996,0.000240,-0.003419,0.007959,0.001055,0.008056,-0.003516,84.744716,0.008078,
1090,930,1.615972,-12.997668,0.999985,0.000000,-0.003117,0.012975,-0.008290,0.016482,-0.006624,-67.072527,0.016587,
1210,1480,0.052410,-3.726104,0.999998,0.000198,-0.002496,0.006290,0.000468,0.006315,-0.002521,86.959691,0.006358,
1270,1800,-0.061860,-1.515887,0.999997,0.000195,-0.001506,0.006888,-0.000011,0.006888,-0.001506,-89.925205,0.007242,
1820,260,-1.706692,-17.711593,0.999996,0.000235,-0.004775,0.010138,-0.000421,0.010150,-0.004787,-88.382579,0.010155,
1530,290,-0.661218,-18.115397,0.999996,0.000227,-0.002960,0.008483,-0.000253,0.008488,-0.002965,-88.734088,0.008616,
1700,1950,-0.446246,-0.668362,0.999995,0.000269,-0.001703,0.008467,0.002338,0.008979,-0.002215,77.651013,0.009355,
780,1440,2.102236,-5.655802,0.999995,0.000247,-0.005684,0.010698,0.000064,0.010698,-0.005684,89.776620,0.010705,
1000,310,0.500368,-18.067391,0.999998,0.000186,-0.002534,0.007991,0.000045,0.007991,-0.002534,89.757111,0.008167,
660,210,1.392206,-18.275622,0.999994,0.000294,-0.004462,0.010235,0.001126,0.010321,-0.004548,85.642637,0.010346,
1280,1900,-0.043019,-0.842688,0.999999,0.000145,-0.000833,0.006525,0.000139,0.006528,-0.000835,88.915444,0.007105,
1900,1460,-3.182249,-6.110415,0.999996,0.000000,-0.004962,0.010161,0.000062,0.010162,-0.004962,89.766907,0.010163,
660,960,3.838684,-10.707040,0.999996,0.000252,-0.004427,0.009291,0.000424,0.009305,-0.004440,88.230618,0.009308,
1650,690,-2.146292,-13.788099,0.999996,0.000272,-0.006062,0.011130,-0.000170,0.011132,-0.006064,-89.433128,0.011147,
1860,40,-0.344573,-19.857637,0.999960,0.000827,-0.001852,0.011055,-0.004860,0.012681,-0.003478,-71.507838,0.013104,
1050,1280,0.794336,-6.074759,0.999994,0.000275,-0.007157,0.010978,0.003281,0.011554,-0.007732,80.052541,0.011772,
1480,890,-1.943429,-11.996680,0.999993,0.000290,-0.006969,0.013743,-0.000341,0.013749,-0.006974,-89.058018,0.013749,
1480,1720,-0.582922,-2.324209,0.999996,0.000216,-0.003055,0.008323,-0.000153,0.008325,-0.003057,-89.232149,0.008423,
1180,1330,0.109842,-4.608640,0.999998,0.000190,-0.002582,0.004528,0.002224,0.005166,-0.003221,73.986877,0.005218,
580,500,2.810516,-15.073155,0.999997,0.000199,-0.005234,0.010027,-0.000134,0.010028,-0.005236,-89.498610,0.010032,
990,860,1.685223,-12.461446,0.999993,0.000314,-0.007602,0.013660,-0.000343,0.013665,-0.007608,-89.077019,0.013695,
1400,550,-0.506376,-16.246496,0.999996,0.000242,-0.003859,0.008226,0.001564,0.008425,-0.004058,82.744874,0.008427,
1380,830,-0.782054,-13.861887,0.999990,0.000384,-0.006881,0.010437,0.004002,0.011317,-0.007762,77.596642,0.011575,
820,330,1.155185,-17.525305,0.999997,0.000203,-0.004091,0.009535,0.000162,0.009537,-0.004093,89.320270,0.009569,
1800,1990,-0.376155,-0.399228,0.999994,0.000277,-0.001218,0.009499,0.003926,0.010783,-0.002503,71.883424,0.011288,
1490,1920,-0.224112,-0.778529,0.999998,0.000187,-0.001343,0.007111,0.000788,0.007184,-0.001416,84.719003,0.007611,
820,1840,0.785076,-1.567013,0.999997,0.000192,-0.002987,0.008926,-0.001111,0.009029,-0.003090,-84.716773,0.009178,
620,600,2.913096,-14.175064,0.999997,0.000214,-0.005116,0.010180,0.000099,0.010180,-0.005117,89.628349,0.010180,
1540,290,-0.689632,-18.101292,0.999997,0.000219,-0.002924,0.008576,-0.000321,0.008585,-0.002933,-88.404299,0.008728,
710,120,0.662338,-19.294900,0.999996,0.000226,-0.003527,0.009346,0.002234,0.009722,-0.003904,80.428052,0.009785,
1440,440,-0.584001,-17.043005,0.999996,0.000234,-0.003413,0.008312,0.000739,0.008358,-0.003459,86.409368,0.008400,
700,1560,2.185206,-4.655210,0.999996,0.000253,-0.005129,0.010243,0.000186,0.010245,-0.005131,89.307069,0.010245,
620,1210,3.739361,-8.420925,0.999996,0.000239,-0.004666,0.009495,-0.000648,0.009524,-0.004696,-87.385123,0.009525,
1000,180,0.279638,-19.068470,0.999997,0.000198,-0.001381,0.007264,0.000593,0.007304,-0.001422,86.094985,0.007745,
1090,350,0.312422,-17.885900,0.999997,0.000212,-0.002316,0.007485,-0.000231,0.007490,-0.002322,-88.651100,0.007668,
1880,1370,-3.378120,-6.961747,0.999995,0.000298,-0.004958,0.010028,0.000140,0.010029,-0.004959,89.464678,0.010030,
1690,1980,-0.283478,-0.424695,0.999996,0.000239,-0.001280,0.007809,0.002258,0.008339,-0.001810,76.791275,0.008772,
1130,1370,0.269363,-4.645249,0.999997,0.000209,-0.003645,0.006727,0.002842,0.007455,-0.004372,75.636862,0.007492,
950,510,0.962099,-16.187121,0.999998,0.000214,-0.004687,0.009470,-0.001061,0.009549,-0.004766,-85.736816,0.009549,
1090,920,1.544020,-13.121887,0.999986,0.000000,-0.002995,0.011402,-0.007425,0.014545,-0.006138,-67.055562,0.014604,
1600,1420,-1.674068,-5.585852,0.999996,0.000244,-0.006057,0.010952,-0.000512,0.010967,-0.006073,-88.278624,0.010988,
1180,1980,0.019685,-0.336316,0.999998,0.000164,-0.000269,0.006151,-0.000152,0.006155,-0.000273,-88.644386,0.006955,
750,240,1.140248,-18.222503,0.999998,0.000180,-0.003785,0.009776,0.001046,0.009856,-0.003865,85.613773,0.009932,
1840,410,-2.328581,-16.120728,0.999996,0.000238,-0.004983,0.010025,0.000138,0.010027,-0.004984,89.473326,0.010027,
1340,560,-0.294964,-16.372487,0.999996,0.000210,-0.003185,0.007285,0.001367,0.007461,-0.003361,82.685187,0.007473,
1190,1480,0.103169,-3.745204,0.999998,0.000210,-0.002580,0.006397,0.000617,0.006439,-0.002622,86.086037,0.006476,
970,1840,0.399023,-1.377767,0.999996,0.000222,-0.002236,0.007696,-0.000471,0.007718,-0.002258,-87.288637,0.007937,
780,900,3.139315,-11.385911,0.999996,0.000261,-0.004918,0.010588,0.001270,0.010691,-0.005022,85.349763,0.010697,
1410,700,-0.638430,-14.878219,0.999994,0.000262,-0.005738,0.009530,0.002992,0.010095,-0.006303,79.298669,0.010199,
860,1480,1.544383,-4.955927,0.999995,0.000282,-0.005565,0.010484,0.000640,0.010509,-0.005591,87.720365,0.010517,
660,940,3.798016,-10.897297,0.999996,0.000248,-0.004509,0.009433,0.000674,0.009465,-0.004541,87.239515,0.009468,
630,340,2.070672,-16.852847,0.999997,0.000210,-0.004873,0.009978,-0.000045,0.009978,-0.004874,-89.827548,0.009979,
700,530,2.286430,-15.143588,0.999996,0.000222,-0.005227,0.010316,-0.000117,0.010317,-0.005228,-89.567425,0.010317,
1730,1430,-2.396914,-5.906503,0.999995,0.000251,-0.005530,0.010521,0.000125,0.010522,-0.005531,89.553122,0.010527,
1280,1880,-0.050890,-0.974122,0.999998,0.000156,-0.000958,0.006547,0.000086,0.006548,-0.000959,89.346084,0.007073,
1530,270,-0.613732,-18.291017,0.999996,0.000232,-0.002782,0.008331,-0.000354,0.008343,-0.002794,-88.176646,0.008493,
980,1990,0.080016,-0.291798,0.999997,0.000169,-0.000478,0.006596,-0.000843,0.006695,-0.000577,-83.300613,0.007420,
1900,1450,-3.214673,-6.212619,0.999995,0.000000,-0.004983,0.010207,0.000087,0.010207,-0.004983,89.672855,0.010208,
780,1090,3.314716,-9.449533,0.999996,0.000229,-0.004349,0.010207,-0.000799,0.010251,-0.004393,-86.866206,0.010286,
1650,1110,-3.122145,-9.226265,0.999996,0.000273,-0.004456,0.010443,0.001000,0.010509,-0.004523,86.176126,0.010543,
1480,870,-1.806188,-12.274826,0.999992,0.000348,-0.007379,0.013653,-0.000061,0.013653,-0.007379,-89.833967,0.013668,
980,310,0.551674,-18.038003,0.999997,0.000216,-0.002862,0.008175,-0.000002,0.008175,-0.002862,-89.992194,0.008297,
1080,1730,0.314165,-2.095145,0.999997,0.000196,-0.002210,0.007552,0.000061,0.007553,-0.002211,89.639885,0.007766,
1420,1250,-0.958345,-6.489852,0.999993,0.000338,-0.007674,0.011840,-0.002901,0.012262,-0.008096,-81.720214,0.012470,
570,500,2.862146,-15.042015,0.999989,0.000421,-0.005317,0.009967,-0.000212,0.009970,-0.005320,-89.206624,0.009977,
1480,1680,-0.642272,-2.660898,0.999997,0.000219,-0.003440,0.008526,-0.000439,0.008542,-0.003456,-87.903190,0.008594,
910,510,1.146600,-16.053101,0.999997,0.000236,-0.004888,0.009757,-0.000861,0.009807,-0.004938,-86.645238,0.009807,
1820,240,-1.618113,-17.916036,0.999995,0.000258,-0.004729,0.010154,-0.000543,0.010174,-0.004749,-87.911767,0.010181,
1220,1270,0.029200,-4.663962,0.999998,0.000194,-0.002590,0.002282,0.000671,0.002373,-0.002681,82.297297,0.002934,
700,1030,3.715535,-10.054196,0.999997,0.000198,-0.004302,0.009553,-0.000057,0.009553,-0.004302,-89.765495,0.009569,
1440,190,-0.260968,-19.013662,0.999998,0.000241,-0.001563,0.007237,-0.000471,0.007263,-0.001588,-86.946793,0.007636,
1370,1180,-1.059250,-6.570580,0.999992,0.000344,-0.004695,0.008424,-0.004647,0.009903,-0.006174,-72.342948,0.010003,
1250,1800,-0.030729,-1.509633,0.999998,0.000159,-0.001561,0.006860,-0.000063,0.006860,-0.001562,-89.569748,0.007192,
740,1840,1.070459,-1.714281,0.999996,0.000242,-0.003665,0.009705,-0.001314,0.009833,-0.003793,-84.440117,0.009918,
1020,550,0.687217,-16.078650,0.999996,0.000255,-0.004348,0.008845,-0.001530,0.009020,-0.004523,-83.469230,0.009020,
1470,1920,-0.203446,-0.771876,0.999997,0.000192,-0.000985,0.007031,0.000747,0.007100,-0.001054,84.718453,0.007662,
1440,420,-0.567362,-17.206055,0.999996,0.000216,-0.003239,0.008231,0.000601,0.008262,-0.003270,87.007673,0.008322,
820,1300,2.347093,-7.090620,0.999995,0.000311,-0.006177,0.011386,-0.000638,0.011409,-0.006200,-87.921658,0.011423,
950,490,0.933095,-16.378209,0.999997,0.000214,-0.004557,0.009380,-0.000990,0.009450,-0.004627,-85.958964,0.009451,
700,1540,2.243000,-4.860700,0.999995,0.000256,-0.005179,0.010271,0.000128,0.010272,-0.005180,89.523659,0.010272,
610,790,3.611274,-12.238644,0.999996,0.000249,-0.004772,0.009655,0.000485,0.009672,-0.004789,88.074883,0.009672,
1390,450,-0.426550,-17.081995,0.999996,0.000227,-0.003310,0.007918,0.000940,0.007996,-0.003388,85.249241,0.008027,
1090,30,0.012714,-20.094911,0.999998,0.000000,0.000053,0.006065,0.000422,0.006094,0.000023,86.004089,0.007050,
1090,330,0.297041,-18.035170,0.999996,0.000228,-0.002196,0.007527,-0.000107,0.007528,-0.002198,-89.370877,0.007743,
1770,1180,-3.484882,-8.603082,0.999995,0.000275,-0.004843,0.009991,0.001004,0.010059,-0.004911,86.146236,0.010060,
1000,160,0.241507,-19.215467,0.999997,0.000196,-0.001208,0.007219,0.000675,0.007273,-0.001262,85.446995,0.007773,
1130,1350,0.268361,-4.777265,0.999996,0.000231,-0.003792,0.006735,0.003153,0.007607,-0.004664,74.537368,0.007672,
1670,340,-1.302903,-17.351784,0.999995,0.000266,-0.004483,0.009757,-0.000070,0.009757,-0.004484,-89.719185,0.009768,
820,70,0.199559,-19.799569,0.999997,0.000211,-0.000797,0.007495,0.001942,0.007928,-0.001230,77.450317,0.008533,
1280,1860,-0.054661,-1.105780,0.999998,0.000149,-0.001104,0.006681,0.000102,0.006682,-0.001105,89.246214,0.007164,
1900,1440,-3.247269,-6.314837,0.999994,0.000000,-0.005027,0.010173,0.000095,0.010173,-0.005027,89.640050,0.010174,
860,1460,1.589564,-5.165199,0.999995,0.000274,-0.005720,0.010570,0.000599,0.010591,-0.005742,87.897730,0.010604,
1270,1480,-0.095041,-3.743201,0.999999,0.000138,-0.002510,0.006376,-0.000580,0.006413,-0.002548,-86.280727,0.006458,
1730,890,-3.337240,-11.447172,0.999997,0.000226,-0.004851,0.010259,-0.001140,0.010344,-0.004937,-85.711422,0.010348,
970,780,1.414456,-13.380671,0.999992,0.000310,-0.007565,0.012523,-0.001031,0.012576,-0.007618,-87.068984,0.012669,
1530,250,-0.572590,-18.450471,0.999996,0.000238,-0.002590,0.008282,-0.000504,0.008305,-0.002613,-87.349231,0.008493,
1650,1130,-3.067094,-9.015697,0.999996,0.000253,-0.004680,0.010639,0.001193,0.010731,-0.004772,85.574406,0.010753,
770,1400,2.286045,-6.117512,0.999995,0.000270,-0.005755,0.010767,-0.000179,0.010769,-0.005757,-89.380354,0.010778,
1870,1660,-2.433540,-3.987912,0.999996,0.000223,-0.004937,0.009922,-0.000120,0.009923,-0.004938,-89.535430,0.009923,
1480,1660,-0.672952,-2.835301,0.999996,0.000242,-0.003634,0.008569,-0.000568,0.008595,-0.003661,-87.343095,0.008627,
1510,1060,-2.685969,-9.674788,0.999996,0.000227,-0.003946,0.012684,0.000615,0.012707,-0.003969,87.886088,0.013002,
1340,540,-0.293697,-16.517217,0.999997,0.000190,-0.003078,0.007348,0.001185,0.007481,-0.003211,83.598519,0.007506,
1790,300,-1.724050,-17.398810,0.999997,0.000220,-0.004795,0.010091,-0.000257,0.010095,-0.004800,-89.010732,0.010099,
580,570,3.020223,-14.357448,0.999996,0.000244,-0.004888,0.010247,0.000036,0.010247,-0.004888,89.863891,0.010251,
950,1280,1.541899,-6.831216,0.999991,0.000331,-0.007425,0.012479,0.000665,0.012501,-0.007447,88.089750,0.012577,
1540,930,-2.552123,-11.231455,0.999996,0.000245,-0.005162,0.012198,-0.001428,0.012314,-0.005279,-85.328100,0.012356,
910,730,1.658243,-13.680972,0.999993,0.000316,-0.006937,0.011871,-0.000466,0.011883,-0.006948,-88.582100,0.011940,
1180,1940,0.030675,-0.586143,0.999998,0.000174,-0.000504,0.006340,-0.000163,0.006344,-0.000508,-88.636850,0.007051,
1580,1570,-1.235188,-3.955313,0.999997,0.000225,-0.004878,0.009801,-0.000682,0.009833,-0.004910,-87.344015,0.009833,
1240,1640,-0.019883,-2.629312,0.999998,0.000186,-0.002383,0.007052,-0.000125,0.007053,-0.002385,-89.238549,0.007176,
1820,220,-1.519599,-18.120557,0.999994,0.000284,-0.004688,0.010212,-0.000750,0.010250,-0.004726,-87.125543,0.010260,
610,1020,4.101192,-10.146707,0.999997,0.000206,-0.004208,0.008844,0.000147,0.008845,-0.004210,89.354412,0.008849,
780,880,3.071912,-11.597306,0.999996,0.000253,-0.005107,0.010589,0.001208,0.010682,-0.005199,85.623534,0.010683,
1100,1730,0.269084,-2.075299,0.999997,0.000220,-0.002215,0.007459,0.000120,0.007460,-0.002216,89.291704,0.007662,
1830,1320,-3.304330,-7.321095,0.999996,0.000232,-0.004986,0.009956,0.000501,0.009973,-0.005003,88.082448,0.009973,
1340,190,-0.123340,-19.068477,0.999998,0.000190,-0.001309,0.006802,-0.000152,0.006805,-0.001312,-88.930151,0.007220,
1640,610,-1.841652,-14.698632,0.999995,0.000250,-0.005767,0.010725,0.000316,0.010731,-0.005774,88.902019,0.010741,
1280,1210,-0.357605,-4.998288,0.999990,0.000365,-0.005831,0.002784,-0.000390,0.002802,-0.005848,-87.414971,0.005850,
820,1280,2.425623,-7.321809,0.999995,0.000319,-0.006129,0.011421,-0.000797,0.011457,-0.006165,-87.406275,0.011468,
1440,400,-0.548625,-17.369614,0.999996,0.000227,-0.003133,0.008179,0.000503,0.008202,-0.003155,87.456790,0.008274,
1090,310,0.280205,-18.188155,0.999997,0.000206,-0.002057,0.007426,-0.000047,0.007426,-0.002057,-89.716848,0.007668,
660,920,3.756519,-11.084960,0.999996,0.000263,-0.004548,0.009381,0.000644,0.009411,-0.004577,87.356472,0.009412,
820,1510,1.691379,-4.780323,0.999996,0.000233,-0.005360,0.010394,0.000454,0.010407,-0.005373,88.350230,0.010409,
1080,2020,0.015862,-0.096033,0.999998,0.000000,-0.000068,0.006100,-0.000425,0.006129,-0.000097,-86.078194,0.007023,
1750,1180,-3.388939,-8.582447,0.999997,0.000231,-0.004883,0.010134,0.001077,0.010211,-0.004960,85.918945,0.010213,
1580,1890,-0.452444,-1.066104,0.999996,0.000237,-0.002216,0.007944,0.001091,0.008060,-0.002332,83.937783,0.008295,
700,1520,2.300799,-5.067302,0.999995,0.000265,-0.005209,0.010270,0.000096,0.010271,-0.005209,89.644533,0.010271,
1000,360,0.569417,-17.660163,0.999997,0.000213,-0.002957,0.008200,-0.000265,0.008206,-0.002963,-88.639309,0.008311,
770,520,1.892065,-15.473254,0.999996,0.000217,-0.005243,0.010336,-0.000263,0.010340,-0.005247,-89.034648,0.010341,
740,1080,3.505424,-9.560680,0.999996,0.000221,-0.004373,0.009856,-0.000481,0.009872,-0.004389,-88.067613,0.009892,
1390,430,-0.412096,-17.239918,0.999996,0.000220,-0.003158,0.007884,0.000808,0.007943,-0.003216,85.838123,0.007990,
950,470,0.901665,-16.568591,0.999998,0.000197,-0.004318,0.009254,-0.000858,0.009308,-0.004372,-86.396695,0.009314,
1690,950,-3.310417,-10.862106,0.999996,0.000262,-0.004459,0.010148,-0.000938,0.010208,-0.004519,-86.341025,0.010231,
1230,1800,0.002057,-1.505791,0.999997,0.000183,-0.001632,0.006858,0.000000,0.006858,-0.001632,89.999619,0.007165,
1670,320,-1.243729,-17.549606,0.999996,0.000203,-0.004395,0.009739,-0.000175,0.009741,-0.004398,-89.292531,0.009757,
1210,1980,0.009190,-0.334668,0.999998,0.000161,-0.000378,0.006125,-0.000054,0.006126,-0.000378,-89.521068,0.006866,
1250,380,-0.040935,-17.773124,0.999998,0.000157,-0.002244,0.007090,0.000194,0.007094,-0.002248,88.810829,0.007251,
1130,1330,0.267008,-4.907247,0.999996,0.000255,-0.003984,0.006638,0.003478,0.007676,-0.005022,73.390542,0.007797,
1090,520,0.400364,-16.574101,0.999996,0.000236,-0.003517,0.007843,-0.001401,0.008013,-0.003687,-83.074781,0.008022,
760,890,3.206127,-11.472596,0.999994,0.000292,-0.004947,0.010465,0.001213,0.010559,-0.005042,85.528655,0.010563,
1250,1480,-0.045881,-3.723853,0.999998,0.000169,-0.002495,0.006273,-0.000443,0.006295,-0.002517,-87.116540,0.006337,
1320,190,-0.097437,-19.078510,0.999998,0.000209,-0.001244,0.006720,-0.000129,0.006722,-0.001246,-89.070029,0.007152,
800,70,0.223000,-19.790705,0.999997,0.000209,-0.001270,0.007588,0.001990,0.008015,-0.001696,77.901822,0.008447,
1530,230,-0.518341,-18.622907,0.999996,0.000232,-0.002376,0.008125,-0.000615,0.008161,-0.002412,-86.659654,0.008385,
1340,520,-0.293695,-16.664930,0.999997,0.000187,-0.002983,0.007405,0.001001,0.007500,-0.003079,84.544602,0.007540,
1030,1310,0.853933,-5.919864,0.999995,0.000294,-0.006877,0.010952,0.002806,0.011383,-0.007308,81.263877,0.011535,
1450,1100,-2.214490,-8.890336,0.999986,0.000457,-0.005924,0.015683,-0.000704,0.015706,-0.005946,-88.136822,0.015860,
930,1280,1.689439,-6.938936,0.999991,0.000347,-0.007261,0.012373,0.000292,0.012377,-0.007265,89.148035,0.012440,
930,720,1.485660,-13.890954,0.999995,0.000283,-0.006890,0.011725,-0.000815,0.011760,-0.006925,-87.498936,0.011822,
590,50,0.499018,-19.707985,0.999991,0.000388,-0.002368,0.011921,0.005326,0.013688,-0.004134,71.647664,0.014041,
1900,1430,-3.279428,-6.417783,0.999995,0.000000,-0.005056,0.010114,0.000118,0.010115,-0.005057,89.554589,0.010115,
1570,690,-1.641545,-14.073003,0.999995,0.000277,-0.006536,0.011392,0.000532,0.011408,-0.006551,88.302598,0.011449,
1480,350,-0.606891,-17.709307,0.999996,0.000227,-0.003143,0.008283,0.000275,0.008290,-0.003149,88.621293,0.008369,
670,1640,2.109155,-3.933791,0.999997,0.000200,-0.004977,0.010128,0.000161,0.010130,-0.004979,89.387524,0.010130,
1280,1840,-0.065535,-1.241829,0.999998,0.000177,-0.001239,0.006754,0.000042,0.006754,-0.001240,89.697734,0.007191,
610,1810,1.799385,-2.427579,0.999997,0.000219,-0.004830,0.009964,-0.000190,0.009966,-0.004832,-89.263861,0.009967,
1820,200,-1.414225,-18.329798,0.999994,0.000300,-0.004586,0.010289,-0.000897,0.010343,-0.004640,-86.560458,0.010361,
1770,300,-1.628182,-17.463965,0.999996,0.000257,-0.004811,0.010051,-0.000228,0.010055,-0.004815,-89.122627,0.010058,
1320,1730,-0.175857,-2.029505,0.999998,0.000183,-0.002149,0.007206,-0.000183,0.007210,-0.002153,-88.878822,0.007402,
1270,1210,-0.299678,-4.921657,0.999990,0.000361,-0.006530,0.002752,-0.000009,0.002752,-0.006530,-89.943975,0.006557,
1850,1060,-4.067296,-9.791042,0.999997,0.000218,-0.004199,0.008754,0.000210,0.008758,-0.004203,89.073613,0.008760,
1730,870,-3.273158,-11.654025,0.999996,0.000247,-0.004978,0.010245,-0.001090,0.010322,-0.005055,-85.923913,0.010323,
1780,660,-2.783354,-13.740934,0.999996,0.000244,-0.005305,0.010387,-0.000346,0.010395,-0.005313,-88.736370,0.010396,
1760,1810,-1.360738,-2.110093,0.999995,0.000283,-0.004630,0.009998,0.000650,0.010027,-0.004658,87.459242,0.010035,
780,860,3.001162,-11.811732,0.999996,0.000234,-0.005257,0.010781,0.001237,0.010876,-0.005352,85.616810,0.010876,
910,490,1.114382,-16.245848,0.999997,0.000232,-0.004641,0.009630,-0.000764,0.009671,-0.004682,-86.942465,0.009673,
820,1260,2.508110,-7.550314,0.999996,0.000280,-0.006086,0.011442,-0.000976,0.011496,-0.006140,-86.822279,0.011505,
1540,570,-1.189121,-15.496797,0.999995,0.000255,-0.005368,0.010131,0.001081,0.010206,-0.005443,86.030174,0.010214,
670,1400,2.835551,-6.402122,0.999995,0.000254,-0.005228,0.010367,-0.000301,0.010373,-0.005234,-88.892963,0.010373,
1480,1640,-0.702239,-3.009308,0.999997,0.000233,-0.003783,0.008668,-0.000670,0.008704,-0.003819,-86.929129,0.008726,
860,1440,1.639582,-5.378138,0.999994,0.000291,-0.005892,0.010707,0.000571,0.010727,-0.005912,88.031594,0.010745,
1240,480,-0.022315,-17.074770,0.999998,0.000201,-0.002527,0.006857,0.000165,0.006860,-0.002530,88.994685,0.006938,
1370,1600,-0.363215,-3.067329,0.999996,0.000257,-0.003033,0.007715,-0.000804,0.007775,-0.003093,-85.743601,0.007829,
740,1820,1.154508,-1.906894,0.999996,0.000220,-0.003839,0.009769,-0.001063,0.009852,-0.003921,-85.559488,0.009920,
780,1690,1.434729,-3.088120,0.999995,0.000251,-0.004543,0.009778,-0.000014,0.009778,-0.004543,-89.944911,0.009787,
1130,1310,0.278111,-5.039755,0.999995,0.000279,-0.004254,0.006558,0.003798,0.007759,-0.005455,72.457273,0.007969,
1270,380,-0.086032,-17.763267,0.999998,0.000166,-0.002218,0.007108,0.000162,0.007110,-0.002221,89.006105,0.007275,
1810,1320,-3.203128,-7.268864,0.999997,0.000191,-0.005090,0.010100,0.000579,0.010122,-0.005112,87.820816,0.010122,
1650,1150,-2.995754,-8.798447,0.999996,0.000248,-0.004918,0.010821,0.001335,0.010933,-0.005030,85.185518,0.010945,
990,550,0.820970,-15.964820,0.999996,0.000245,-0.004745,0.009267,-0.001443,0.009414,-0.004892,-84.182881,0.009417,
1600,1400,-1.729121,-5.809093,0.999996,0.000218,-0.006181,0.011071,-0.000420,0.011081,-0.006192,-88.607026,0.011107,
1690,930,-3.263422,-11.065077,0.999997,0.000244,-0.004599,0.010200,-0.000944,0.010259,-0.004659,-86.366220,0.010274,
1860,80,-0.733572,-19.410041,0.999996,0.000256,-0.004516,0.011526,-0.002724,0.011976,-0.004966,-80.621613,0.012034,
1220,710,0.022847,-15.727190,0.999998,0.000167,-0.001979,0.004087,-0.000553,0.004138,-0.002029,-84.831147,0.004138,
1890,870,-4.024243,-11.407552,0.999997,0.000193,-0.004338,0.008703,-0.000153,0.008705,-0.004340,-89.329585,0.008705,
950,450,0.872576,-16.752880,0.999998,0.000180,-0.004070,0.009078,-0.000717,0.009117,-0.004109,-86.887932,0.009132,
940,1470,1.121438,-4.748005,0.999997,0.000188,-0.005455,0.010161,0.001259,0.010262,-0.005555,85.418844,0.010273,
1080,1120,1.690222,-7.478263,0.999982,0.000000,-0.004441,0.014936,0.008134,0.017897,-0.007403,69.993376,0.017986,
660,900,3.711840,-11.272968,0.999994,0.000284,-0.004605,0.009415,0.000634,0.009443,-0.004633,87.417020,0.009444,
1030,1290,0.908932,-6.146799,0.999995,0.000265,-0.007249,0.011394,0.002762,0.011794,-0.007650,81.746445,0.011967,
1520,1400,-1.231136,-5.463237,0.999995,0.000276,-0.006165,0.010845,-0.001329,0.010948,-0.006268,-85.558003,0.010987,
1860,370,-2.302836,-16.455508,0.999995,0.000249,-0.004937,0.009937,0.000111,0.009938,-0.004938,89.572290,0.009938,
1390,410,-0.396980,-17.402828,0.999997,0.000202,-0.002987,0.007831,0.000654,0.007870,-0.003027,86.551225,0.007940,
1180,1400,0.119280,-4.245468,0.999997,0.000207,-0.002639,0.005641,0.001510,0.005908,-0.002906,79.980204,0.005908,
1780,1250,-3.301655,-7.915729,0.999996,0.000285,-0.005077,0.010117,0.000903,0.010171,-0.005130,86.612079,0.010171,
700,1500,2.358918,-5.272809,0.999996,0.000243,-0.005259,0.010312,0.000068,0.010312,-0.005259,89.748804,0.010313,
1690,1960,-0.379465,-0.579873,0.999996,0.000249,-0.001622,0.008081,0.002206,0.008559,-0.002100,77.772913,0.008922,
610,500,2.659986,-15.165465,0.999996,0.000237,-0.005041,0.010108,-0.000061,0.010109,-0.005041,-89.769372,0.010109,
1100,1670,0.311312,-2.527725,0.999998,0.000192,-0.002481,0.007569,0.000351,0.007581,-0.002493,88.000909,0.007728,
1480,330,-0.576958,-17.876678,0.999996,0.000215,-0.002970,0.008320,0.000114,0.008321,-0.002971,89.419846,0.008434,
1570,670,-1.582779,-14.302304,0.999993,0.000317,-0.006380,0.011258,0.000640,0.011282,-0.006403,87.925282,0.011316,
1560,1890,-0.409954,-1.048560,0.999997,0.000221,-0.001816,0.007783,0.001087,0.007905,-0.001937,83.622084,0.008240,
680,530,2.388775,-15.081599,0.999996,0.000266,-0.005172,0.010270,-0.000077,0.010271,-0.005172,-89.712995,0.010271,
1520,930,-2.449266,-11.280761,0.999991,0.000353,-0.005325,0.012661,-0.001329,0.012758,-0.005423,-85.795731,0.012806,
790,100,0.374115,-19.552258,0.999996,0.000234,-0.001891,0.008112,0.001998,0.008497,-0.002275,79.111847,0.008797,
1260,1210,-0.234185,-4.860765,0.999991,0.000350,-0.007247,0.002927,0.000240,0.002932,-0.007253,88.647858,0.007297,
800,1150,3.058885,-8.809203,0.999995,0.000262,-0.004926,0.010711,-0.001297,0.010818,-0.005032,-85.291690,0.010827,
1620,190,-0.631270,-18.844341,0.999997,0.000210,-0.002500,0.008524,-0.001231,0.008659,-0.002636,-83.702856,0.008878,
580,50,0.524398,-19.689330,0.999983,0.000498,-0.002591,0.012916,0.006339,0.015177,-0.004852,70.365290,0.015502,
1440,380,-0.527356,-17.534994,0.999996,0.000223,-0.003040,0.008230,0.000400,0.008244,-0.003054,87.968281,0.008336,
910,450,1.047963,-16.627024,0.999997,0.000212,-0.004421,0.009439,-0.000628,0.009468,-0.004449,-87.412003,0.009473,
700,1210,3.355424,-8.294916,0.999996,0.000219,-0.004977,0.010010,-0.000971,0.010072,-0.005039,-86.307502,0.010072,
780,840,2.923658,-12.029282,0.999996,0.000233,-0.005440,0.010860,0.001227,0.010952,-0.005532,85.718188,0.010952,
610,1770,1.970223,-2.831260,0.999996,0.000237,-0.004842,0.009864,-0.000039,0.009864,-0.004842,-89.847248,0.009864,
980,250,0.442662,-18.520390,0.999997,0.000246,-0.002348,0.007910,0.000341,0.007922,-0.002359,88.097036,0.008135,
1480,1620,-0.727839,-3.183646,0.999997,0.000218,-0.003881,0.008759,-0.000768,0.008806,-0.003928,-86.538161,0.008823,
1280,1820,-0.068015,-1.377663,0.999998,0.000184,-0.001375,0.006880,0.000064,0.006881,-0.001376,89.555385,0.007282,
1900,1420,-3.312770,-6.518535,0.999996,0.000000,-0.005076,0.010077,0.000129,0.010078,-0.005077,89.512968,0.010079,
1760,1790,-1.445967,-2.310047,0.999998,0.000225,-0.004709,0.010031,0.000495,0.010047,-0.004726,88.079382,0.010053,
1820,180,-1.301438,-18.538199,0.999995,0.000291,-0.004502,0.010372,-0.001196,0.010468,-0.004598,-85.432044,0.010493,
740,1780,1.317745,-2.305330,0.999996,0.000221,-0.004133,0.009878,-0.000688,0.009912,-0.004167,-87.196053,0.009953,
820,1240,2.594804,-7.781357,0.999994,0.000286,-0.005964,0.011420,-0.001130,0.011494,-0.006037,-86.295517,0.011498,
1240,1620,-0.021045,-2.772041,0.999997,0.000207,-0.002436,0.007051,-0.000142,0.007053,-0.002438,-89.142371,0.007164,
1080,1110,1.745540,-7.650224,0.999974,0.000000,-0.004637,0.016856,0.008597,0.019872,-0.007652,70.670428,0.020046,
730,1600,1.923864,-4.145540,0.999997,0.000182,-0.005026,0.010159,0.000215,0.010162,-0.005029,89.188511,0.010162,
1770,850,-3.406157,-11.807350,0.999995,0.000262,-0.004925,0.009925,-0.000943,0.009984,-0.004985,-86.379775,0.009984,
1690,910,-3.210289,-11.272043,0.999996,0.000252,-0.004771,0.010466,-0.001152,0.010552,-0.004857,-85.700222,0.010563,
780,1670,1.489043,-3.285994,0.999995,0.000243,-0.004642,0.009894,0.000084,0.009894,-0.004643,89.669914,0.009901,
1210,780,0.050903,-15.484765,0.999996,0.000236,-0.002512,0.002530,-0.001306,0.002848,-0.002830,-76.308443,0.003279,
1230,1540,0.004272,-3.319914,0.999997,0.000207,-0.002538,0.006708,0.000036,0.006708,-0.002538,89.776759,0.006774,
950,430,0.846220,-16.931330,0.999998,0.000206,-0.003872,0.008919,-0.000603,0.008948,-0.003901,-87.307409,0.008972,
1030,1270,0.976632,-6.378692,0.999995,0.000291,-0.007533,0.011851,0.002699,0.012220,-0.007902,82.218774,0.012394,
1320,710,-0.221788,-15.430889,0.999996,0.000221,-0.003501,0.006115,0.003068,0.007010,-0.004397,73.729667,0.007085,
1130,1290,0.297178,-5.175393,0.999995,0.000279,-0.004549,0.006568,0.004103,0.007918,-0.005900,71.781788,0.008229,
1600,1380,-1.788622,-6.034900,0.999997,0.000208,-0.006308,0.011233,-0.000328,0.011239,-0.006314,-88.928221,0.011268,
790,80,0.284444,-19.705991,0.999997,0.000208,-0.001471,0.007759,0.002035,0.008187,-0.001899,78.103517,0.008570,
1390,390,-0.382557,-17.559441,0.999997,0.000191,-0.002811,0.007819,0.000505,0.007842,-0.002835,87.287292,0.007942,
1730,850,-3.207524,-11.856223,0.999996,0.000263,-0.005105,0.010292,-0.001082,0.010368,-0.005181,-85.999438,0.010368,
740,350,1.569106,-17.109346,0.999994,0.000272,-0.004708,0.009972,0.000132,0.009973,-0.004709,89.482965,0.009978,
960,1150,2.199119,-8.489447,0.999993,0.000361,-0.006281,0.013323,-0.001069,0.013381,-0.006339,-86.888618,0.013387,
860,1420,1.692746,-5.597506,0.999994,0.000277,-0.006037,0.010991,0.000510,0.011006,-0.006052,88.287254,0.011024,
1870,110,-1.050260,-19.038945,0.999995,0.000253,-0.004676,0.010793,-0.001845,0.011010,-0.004893,-83.291656,0.011032,
1650,1170,-2.923958,-8.581020,0.999996,0.000276,-0.005180,0.010910,0.001308,0.011015,-0.005286,85.382854,0.011018,
780,820,2.844331,-12.248240,0.999997,0.000217,-0.005579,0.010880,0.001147,0.010959,-0.005658,86.034306,0.010961,
910,430,1.012018,-16.815964,0.999997,0.000210,-0.004314,0.009346,-0.000549,0.009368,-0.004336,-87.701416,0.009377,
1530,210,-0.477018,-18.777679,0.999997,0.000206,-0.002154,0.007915,-0.000731,0.007968,-0.002207,-85.871817,0.008228,
990,960,2.376384,-11.047533,0.999992,0.000323,-0.005273,0.014267,0.000505,0.014280,-0.005286,88.519524,0.014440,
1430,1920,-0.161650,-0.752817,0.999998,0.000161,-0.001105,0.006839,0.000524,0.006874,-0.001139,86.242110,0.007368,
850,580,1.610918,-15.116386,0.999995,0.000265,-0.005613,0.010534,-0.000551,0.010553,-0.005632,-88.049424,0.010561,
1220,1290,0.024058,-4.618138,0.999998,0.000180,-0.002221,0.002682,0.000683,0.002776,-0.002314,82.210434,0.002975,
990,1570,0.756198,-3.607311,0.999996,0.000208,-0.004051,0.008881,0.001022,0.008961,-0.004132,85.509297,0.008970,
1690,1400,-2.268525,-6.108615,0.999996,0.000241,-0.005779,0.010749,0.000164,0.010751,-0.005781,89.433226,0.010761,
1860,60,-0.538766,-19.658284,0.999993,0.000355,-0.003879,0.011100,-0.003393,0.011833,-0.004612,-77.813017,0.011928,
1460,1250,-1.267207,-6.862178,0.999991,0.000354,-0.007787,0.012629,-0.001583,0.012751,-0.007909,-85.592711,0.012874,
610,1230,3.721364,-8.249161,0.999996,0.000234,-0.004642,0.009368,-0.000492,0.009386,-0.004659,-87.990290,0.009386,
1620,170,-0.563840,-19.009267,0.999996,0.000237,-0.002233,0.008312,-0.001364,0.008486,-0.002407,-82.748085,0.008747,
720,1870,0.996851,-1.458397,0.999998,0.000161,-0.004003,0.009747,-0.001361,0.009881,-0.004136,-84.399919,0.009924,
700,1480,2.418977,-5.482196,0.999995,0.000241,-0.005322,0.010389,0.000006,0.010389,-0.005322,89.979221,0.010390,
1760,70,-0.363670,-19.730681,0.999992,0.000341,-0.002107,0.008850,-0.003113,0.009673,-0.002930,-75.198450,0.009920,
1570,650,-1.531013,-14.526953,0.999995,0.000290,-0.006227,0.011068,0.000750,0.011100,-0.006259,87.520357,0.011130,
1290,310,-0.111042,-18.254907,0.999998,0.000180,-0.001792,0.007097,0.000025,0.007098,-0.001792,89.838124,0.007382,
1160,1670,0.160190,-2.449563,0.999998,0.000163,-0.002310,0.007200,0.000204,0.007205,-0.002314,88.773913,0.007357,
940,410,0.855539,-17.082979,0.999997,0.000210,-0.003781,0.008924,-0.000461,0.008941,-0.003798,-87.926387,0.008974,
660,880,3.661352,-11.465278,0.999995,0.000260,-0.004683,0.009677,0.000813,0.009723,-0.004729,86.769268,0.009724,
1870,370,-2.351840,-16.419855,0.999996,0.000246,-0.004961,0.009882,0.000097,0.009883,-0.004962,89.626930,0.009883,
1080,1100,1.804812,-7.823544,0.999974,0.000000,-0.005200,0.018771,0.009103,0.021836,-0.008265,71.391511,0.022050,
820,1220,2.681712,-8.009317,0.999994,0.000305,-0.005791,0.011259,-0.001225,0.011347,-0.005879,-85.910821,0.011349,
1640,1510,-1.675041,-4.770215,0.999996,0.000230,-0.005383,0.010389,-0.000466,0.010402,-0.005397,-88.308448,0.010405,
1480,1600,-0.751499,-3.361693,0.999997,0.000222,-0.003944,0.008813,-0.000862,0.008871,-0.004001,-86.153092,0.008885,
1690,890,-3.139933,-11.485805,0.999996,0.000250,-0.004943,0.010539,-0.001235,0.010637,-0.005041,-85.467573,0.010642,
950,410,0.820383,-17.108097,0.999997,0.000229,-0.003738,0.008846,-0.000502,0.008866,-0.003758,-87.717530,0.008900,
960,250,0.497783,-18.490564,0.999997,0.000207,-0.002709,0.008020,0.000342,0.008031,-0.002720,88.177924,0.008169,
1240,1580,-0.022902,-3.047313,0.999998,0.000162,-0.002504,0.006857,-0.000157,0.006860,-0.002507,-89.041453,0.006942,
1900,1410,-3.345918,-6.618540,0.999996,0.000000,-0.005066,0.010101,0.000120,0.010102,-0.005067,89.548331,0.010102,
1880,870,-3.981910,-11.429400,0.999997,0.000185,-0.004361,0.008863,-0.000225,0.008867,-0.004365,-89.023897,0.008867,
1250,1210,-0.161196,-4.818492,0.999987,0.000422,-0.008129,0.003081,0.000223,0.003085,-0.008134,88.858678,0.008212,
1130,1400,0.270064,-4.440466,0.999996,0.000266,-0.003540,0.006865,0.002461,0.007417,-0.004092,77.342148,0.007431,
1500,1790,-0.519075,-1.783398,0.999996,0.000234,-0.002780,0.008076,0.000226,0.008081,-0.002784,88.806269,0.008210,
1030,1250,1.055205,-6.622870,0.999994,0.000302,-0.007726,0.012159,0.002461,0.012459,-0.008026,83.049239,0.012631,
740,1760,1.390808,-2.504440,0.999996,0.000241,-0.004301,0.009915,-0.000512,0.009933,-0.004319,-87.941396,0.009961,
760,1690,1.523796,-3.143281,0.999996,0.000214,-0.004542,0.009856,-0.000114,0.009857,-0.004543,-89.545535,0.009867,
1460,1510,-0.756992,-4.099262,0.999997,0.000200,-0.004474,0.009044,-0.001424,0.009193,-0.004622,-84.051236,0.009193,
1340,690,-0.294377,-15.440346,0.999996,0.000230,-0.003866,0.006968,0.002951,0.007720,-0.004618,75.708605,0.007770,
1390,370,-0.366650,-17.715422,0.999996,0.000214,-0.002647,0.007731,0.000359,0.007743,-0.002660,88.020892,0.007868,
1180,1380,0.116014,-4.356118,0.999997,0.000221,-0.002617,0.005338,0.001700,0.005687,-0.002965,78.427826,0.005688,
1770,1870,-1.115657,-1.534990,0.999997,0.000212,-0.004371,0.009920,0.001313,0.010040,-0.004491,84.793399,0.010058,
780,800,2.764664,-12.467688,0.999996,0.000234,-0.005719,0.011014,0.001051,0.011080,-0.005784,86.419461,0.011083,
1820,160,-1.176258,-18.750695,0.999996,0.000282,-0.004388,0.010424,-0.001452,0.010565,-0.004529,-84.454467,0.010601,
840,70,0.185200,-19.801858,0.999997,0.000196,-0.000685,0.007395,0.001800,0.007778,-0.001068,77.992885,0.008433,
1530,1120,-2.526288,-8.967648,0.999994,0.000288,-0.005132,0.012347,0.001382,0.012455,-0.005241,85.506070,0.012507,
990,1530,0.794408,-3.963846,0.999996,0.000242,-0.004374,0.009087,0.001272,0.009206,-0.004493,84.650713,0.009207,
810,1440,1.930411,-5.557738,0.999996,0.000218,-0.005767,0.010734,0.000209,0.010737,-0.005770,89.275168,0.010747,
1870,100,-0.965900,-19.145528,0.999996,0.000260,-0.004607,0.011029,-0.002201,0.011333,-0.004911,-82.138123,0.011366,
730,940,3.480900,-10.941855,0.999995,0.000251,-0.004536,0.009906,0.000852,0.009956,-0.004586,86.634500,0.009966,
1890,1870,-1.674101,-2.002804,0.999996,0.000226,-0.004893,0.009967,0.000568,0.009989,-0.004914,87.812637,0.009989,
1230,780,0.002152,-15.521010,0.999993,0.000331,-0.002456,0.002264,-0.000077,0.002265,-0.002457,-89.064499,0.002733,
790,580,1.945466,-14.910588,0.999996,0.000203,-0.005508,0.010519,-0.000219,0.010522,-0.005511,-89.215910,0.010526,
1130,1270,0.329664,-5.302256,0.999993,0.000314,-0.004872,0.006659,0.004389,0.008140,-0.006353,71.359109,0.008556,
1530,170,-0.374920,-19.091845,0.999997,0.000215,-0.001720,0.007633,-0.000899,0.007718,-0.001806,-84.556362,0.008074,
1290,840,-0.364274,-15.082106,0.999992,0.000320,-0.005046,0.003258,0.001207,0.003430,-0.005218,81.897330,0.005303,
1290,330,-0.117770,-18.109786,0.999998,0.000182,-0.001911,0.007132,0.000038,0.007132,-0.001911,89.758858,0.007384,
910,410,0.975738,-17.003517,0.999997,0.000186,-0.004168,0.009252,-0.000470,0.009268,-0.004185,-87.997361,0.009283,
1150,1280,0.225579,-5.044747,0.999993,0.000321,-0.003983,0.005326,0.003875,0.006728,-0.005385,70.110202,0.007121,
870,120,0.332229,-19.433773,0.999997,0.000214,-0.001712,0.007719,0.001390,0.007920,-0.001913,81.788489,0.008265,
1080,950,1.779654,-12.433462,0.999977,0.000000,-0.005196,0.018378,-0.008555,0.021155,-0.007974,-72.014467,0.021367,
640,1350,3.162094,-6.996890,0.999997,0.000219,-0.005095,0.010107,-0.000437,0.010120,-0.005108,-88.354669,0.010120,
610,1210,3.785442,-8.439469,0.999996,0.000215,-0.004611,0.009431,-0.000557,0.009454,-0.004633,-87.733593,0.009454,
1240,1560,-0.022099,-3.186218,0.999998,0.000163,-0.002526,0.006853,-0.000190,0.006857,-0.002530,-88.841917,0.006935,
860,1400,1.746312,-5.821719,0.999995,0.000269,-0.006157,0.011088,0.000412,0.011097,-0.006167,88.630739,0.011120,
1690,870,-3.072232,-11.696140,0.999996,0.000243,-0.005076,0.010582,-0.001194,0.010672,-0.005167,-85.665388,0.010674,
880,470,1.218795,-16.343063,0.999996,0.000253,-0.004759,0.009756,-0.000630,0.009784,-0.004786,-87.520655,0.009784,
1900,1400,-3.378910,-6.720564,0.999996,0.000000,-0.005046,0.010154,0.000103,0.010155,-0.005047,89.611028,0.010155,
1340,710,-0.297761,-15.306324,0.999994,0.000282,-0.004089,0.006981,0.003287,0.007884,-0.004992,74.648128,0.007976,
740,1740,1.460895,-2.702796,0.999995,0.000251,-0.004434,0.009886,-0.000327,0.009893,-0.004441,-88.693981,0.009911,
1760,1430,-2.558798,-5.996009,0.999995,0.000262,-0.005403,0.010409,0.000179,0.010411,-0.005405,89.353292,0.010414,
1020,1670,0.541505,-2.671509,0.999996,0.000236,-0.003051,0.008199,0.000398,0.008213,-0.003065,87.978424,0.008301,
1390,350,-0.351347,-17.865749,0.999997,0.000204,-0.002467,0.007604,0.000248,0.007610,-0.002473,88.591860,0.007764,
1230,1210,0.012929,-4.791206,0.999987,0.000434,-0.008809,0.003170,-0.000073,0.003170,-0.008809,-89.652812,0.008924,
780,780,2.685221,-12.691192,0.999996,0.000231,-0.005820,0.011061,0.000960,0.011116,-0.005874,86.754311,0.011122,
660,860,3.598309,-11.663951,0.999995,0.000242,-0.004769,0.009771,0.000859,0.009822,-0.004819,86.630841,0.009822,
820,1200,2.764305,-8.233644,0.999994,0.000296,-0.005608,0.011238,-0.001321,0.011341,-0.005711,-85.542279,0.011341,
1770,1830,-1.315424,-1.939149,0.999996,0.000254,-0.004592,0.009992,0.000856,0.010043,-0.004643,86.650660,0.010052,
1110,1400,0.343880,-4.538862,0.999996,0.000253,-0.003890,0.007445,0.002582,0.008006,-0.004450,77.753350,0.008022,
790,1440,2.045844,-5.624977,0.999995,0.000252,-0.005702,0.010741,0.000107,0.010741,-0.005702,89.627592,0.010748,
680,1850,1.277837,-1.777535,0.999995,0.000259,-0.004461,0.010113,-0.001145,0.010202,-0.004550,-85.535377,0.010222,
700,1460,2.481187,-5.691864,0.999995,0.000240,-0.005356,0.010416,-0.000058,0.010416,-0.005356,-89.788027,0.010418,
950,390,0.787827,-17.283331,0.999997,0.000192,-0.003661,0.008767,-0.000434,0.008782,-0.003676,-88.000163,0.008821,
950,1840,0.448054,-1.401114,0.999995,0.000259,-0.002312,0.007808,-0.000526,0.007835,-0.002340,-87.032176,0.008044,
1870,150,-1.354433,-18.610390,0.999996,0.000243,-0.004875,0.010304,-0.000982,0.010367,-0.004939,-86.314835,0.010371,
1730,1120,-3.456134,-9.165872,0.999994,0.000259,-0.004556,0.009932,0.000835,0.009980,-0.004604,86.712197,0.009990,
990,990,2.514408,-10.631260,0.999993,0.000324,-0.004754,0.014504,0.000258,0.014508,-0.004758,89.232580,0.014791,
1820,140,-1.036627,-18.961181,0.999996,0.000287,-0.004230,0.010347,-0.001802,0.010566,-0.004450,-83.055318,0.010610,
700,170,1.004208,-18.788365,0.999996,0.000219,-0.004214,0.009858,0.001503,0.010017,-0.004373,83.970259,0.010044,
1440,1510,-0.671419,-4.026107,0.999996,0.000228,-0.004290,0.008774,-0.001506,0.008946,-0.004462,-83.509609,0.008946,
1730,830,-3.135596,-12.069191,0.999996,0.000242,-0.005227,0.010468,-0.001105,0.010546,-0.005305,-85.991352,0.010546,
1600,1360,-1.853835,-6.262749,0.999996,0.000245,-0.006413,0.011413,-0.000209,0.011416,-0.006416,-89.329264,0.011445,
1570,630,-1.478258,-14.746790,0.999994,0.000291,-0.006062,0.010831,0.000828,0.010871,-0.006103,87.201239,0.010898,
1410,500,-0.522204,-16.622735,0.999995,0.000231,-0.003568,0.008215,0.001148,0.008326,-0.003679,84.485761,0.008345,
1130,1250,0.370172,-5.437198,0.999994,0.000321,-0.005052,0.006585,0.004425,0.008077,-0.006544,71.373998,0.008579,
1030,1230,1.158682,-6.866460,0.999992,0.000334,-0.007822,0.012606,0.002207,0.012842,-0.008058,83.904404,0.012980,
1130,1280,0.311261,-5.240787,0.999996,0.000239,-0.004735,0.006590,0.004241,0.008002,-0.006148,71.584414,0.008377,
910,390,0.934126,-17.190582,0.999997,0.000202,-0.003953,0.009104,-0.000321,0.009112,-0.003961,-88.594170,0.009138,
1530,150,-0.319064,-19.248383,0.999997,0.000190,-0.001530,0.007536,-0.000977,0.007640,-0.001634,-83.916646,0.008046,
1280,840,-0.315269,-15.173986,0.999993,0.000320,-0.005535,0.003010,0.000687,0.003064,-0.005590,85.433203,0.005598,
1080,940,1.708693,-12.593863,0.999977,0.000000,-0.004519,0.015709,-0.008439,0.018767,-0.007577,-70.079467,0.018883,
1880,1870,-1.625114,-1.955171,0.999996,0.000271,-0.004877,0.010011,0.000579,0.010033,-0.004899,87.774303,0.010034,
1290,350,-0.122432,-17.967980,0.999998,0.000178,-0.002016,0.007096,0.000078,0.007097,-0.002017,89.510578,0.007314,
1240,1540,-0.022148,-3.321569,0.999998,0.000170,-0.002528,0.006702,-0.000200,0.006706,-0.002532,-88.759864,0.006773,
620,450,2.462656,-15.706989,0.999994,0.000300,-0.005026,0.010094,-0.000140,0.010095,-0.005027,-89.468078,0.010095,
680,950,3.729851,-10.813651,0.999996,0.000248,-0.004488,0.009571,0.000653,0.009601,-0.004518,87.344877,0.009607,
1480,1580,-0.775096,-3.538769,0.999996,0.000238,-0.004001,0.008897,-0.000955,0.008967,-0.004071,-85.788901,0.008980,
1900,1510,-3.029029,-5.597171,0.999996,0.000000,-0.005036,0.010216,0.000028,0.010216,-0.005036,89.894049,0.010217,
900,550,1.273565,-15.613016,0.999995,0.000268,-0.005285,0.010158,-0.000908,0.010212,-0.005338,-86.645879,0.010215,
610,1190,3.850487,-8.630443,0.999996,0.000242,-0.004510,0.009295,-0.000524,0.009314,-0.004530,-87.828091,0.009316,
850,120,0.364927,-19.422040,0.999997,0.000217,-0.001577,0.007867,0.001573,0.008123,-0.001833,80.787041,0.008521,
1490,1640,-0.739289,-3.036781,0.999997,0.000221,-0.003781,0.008740,-0.000631,0.008772,-0.003813,-87.123586,0.008797,
860,1380,1.808857,-6.044565,0.999994,0.000281,-0.006284,0.011211,0.000289,0.011216,-0.006288,89.052798,0.011244,
940,390,0.824309,-17.260914,0.999998,0.000163,-0.003630,0.008803,-0.000370,0.008814,-0.003641,-88.298266,0.008859,
860,1330,1.976092,-6.620159,0.999995,0.000259,-0.006491,0.011603,-0.000101,0.011604,-0.006491,-89.680147,0.011631,
740,1720,1.523548,-2.902002,0.999996,0.000243,-0.004612,0.009929,-0.000177,0.009931,-0.004615,-89.303477,0.009939,
1340,510,-0.292088,-16.737835,0.999997,0.000166,-0.002955,0.007415,0.000929,0.007498,-0.003037,84.919643,0.007543,
1740,1430,-2.451938,-5.936993,0.999995,0.000267,-0.005479,0.010487,0.000142,0.010488,-0.005480,89.491727,0.010491,
1680,1630,-1.580294,-3.674790,0.999995,0.000263,-0.004820,0.009990,-0.000230,0.009994,-0.004824,-89.112303,0.009996,
1390,330,-0.333604,-18.019176,0.999997,0.000210,-0.002295,0.007582,0.000126,0.007584,-0.002297,89.268367,0.007778,
1770,1290,-3.105008,-7.486461,0.999996,0.000233,-0.005237,0.010323,0.000813,0.010365,-0.005280,87.017263,0.010366,
1690,850,-3.002625,-11.910028,0.999995,0.000262,-0.005255,0.010752,-0.001243,0.010847,-0.005351,-85.587168,0.010848,
780,760,2.605213,-12.914015,0.999994,0.000278,-0.005861,0.011011,0.000834,0.011053,-0.005902,87.176743,0.011061,
650,1400,2.937765,-6.459947,0.999996,0.000245,-0.005139,0.010261,-0.000284,0.010266,-0.005144,-88.943861,0.010266,
1870,140,-1.284579,-18.714529,0.999995,0.000281,-0.004836,0.010476,-0.001205,0.010570,-0.004930,-85.525946,0.010578,
1750,1120,-3.548212,-9.178892,0.999995,0.000258,-0.004566,0.009818,0.000818,0.009864,-0.004613,86.756661,0.009871,
700,210,1.212939,-18.391622,0.999996,0.000228,-0.004535,0.009981,0.001000,0.010049,-0.004603,86.076435,0.010061,
1220,1210,0.105146,-4.800632,0.999983,0.000488,-0.008408,0.003061,-0.000175,0.003064,-0.008410,-89.124176,0.008513,
1340,1290,-0.330527,-5.242060,0.999996,0.000253,-0.004795,0.007048,-0.004178,0.008374,-0.006121,-72.398827,0.008666,
660,840,3.535005,-11.856958,0.999996,0.000250,-0.004781,0.009683,0.000801,0.009728,-0.004825,86.838974,0.009728,
1560,1800,-0.657213,-1.786849,0.999997,0.000229,-0.002779,0.008488,0.000574,0.008517,-0.002809,87.090922,0.008680,
820,1180,2.849671,-8.461349,0.999995,0.000273,-0.005369,0.011139,-0.001330,0.011245,-0.005475,-85.422781,0.011246,
1820,120,-0.892914,-19.173574,0.999995,0.000263,-0.003974,0.010474,-0.002164,0.010791,-0.004291,-81.661554,0.010866,
990,970,2.432716,-10.904377,0.999993,0.000303,-0.005069,0.014064,0.000411,0.014073,-0.005077,88.768799,0.014253,
1680,1470,-1.997537,-5.326178,0.999998,0.000139,-0.005543,0.010544,-0.000196,0.010546,-0.005545,-89.300843,0.010551,
850,820,2.433609,-12.388757,0.999993,0.000310,-0.006225,0.011760,0.001107,0.011828,-0.006293,86.491328,0.011836,
1670,1180,-2.988278,-8.494800,0.999996,0.000265,-0.005131,0.010781,0.001250,0.010879,-0.005229,85.534565,0.010882,
1150,380,0.181529,-17.739263,0.999998,0.000162,-0.002397,0.007266,-0.000319,0.007276,-0.002408,-88.109269,0.007414,
1080,930,1.648893,-12.762160,0.999985,0.000000,-0.004080,0.014112,-0.007879,0.017050,-0.007018,-69.549136,0.017139,
1360,1850,-0.164267,-1.203988,0.999998,0.000171,-0.001366,0.006969,0.000224,0.006975,-0.001372,88.463474,0.007391,
1440,360,-0.503334,-17.703200,0.999997,0.000223,-0.002962,0.008077,0.000333,0.008087,-0.002972,88.272898,0.008181,
1030,1920,0.164983,-0.753623,0.999998,0.000152,-0.001084,0.006824,-0.000536,0.006860,-0.001121,-86.142162,0.007360,
1290,370,-0.126799,-17.824660,0.999997,0.000178,-0.002148,0.007134,0.000115,0.007135,-0.002150,89.292684,0.007321,
700,1440,2.542123,-5.899743,0.999995,0.000261,-0.005372,0.010391,-0.000128,0.010392,-0.005373,-89.534893,0.010394,
1470,1640,-0.663997,-2.981051,0.999996,0.000240,-0.003674,0.008549,-0.000666,0.008585,-0.003710,-86.892389,0.008612,
1730,810,-3.061430,-12.280763,0.999996,0.000243,-0.005321,0.010506,-0.001049,0.010576,-0.005390,-86.224894,0.010576,
680,1830,1.376790,-1.978803,0.999996,0.000239,-0.004573,0.009999,-0.000901,0.010055,-0.004629,-86.475793,0.010065,
1600,1340,-1.919535,-6.494139,0.999996,0.000237,-0.006497,0.011587,-0.000028,0.011587,-0.006497,-89.909901,0.011615,
880,550,1.378073,-15.540818,0.999996,0.000257,-0.005323,0.010236,-0.000771,0.010274,-0.005361,-87.171772,0.010278,
950,370,0.755668,-17.460847,0.999997,0.000212,-0.003598,0.008665,-0.000355,0.008675,-0.003609,-88.345487,0.008716,
1150,1260,0.259660,-5.149167,0.999994,0.000304,-0.004199,0.005184,0.003991,0.006652,-0.005667,69.807186,0.007180,
1080,450,0.402019,-17.100153,0.999997,0.000220,-0.003246,0.007823,-0.000915,0.007898,-0.003321,-85.306208,0.007931,
1850,1990,-0.540854,-0.524742,0.999995,0.000255,-0.004423,0.010785,0.002820,0.011291,-0.004929,79.825820,0.011322,
740,1700,1.582214,-3.100096,0.999995,0.000250,-0.004729,0.009944,-0.000099,0.009944,-0.004729,-89.613031,0.009948,
1480,1560,-0.796331,-3.717548,0.999996,0.000250,-0.004137,0.009027,-0.001032,0.009107,-0.004218,-85.544042,0.009115,
1240,1520,-0.020710,-3.455300,0.999998,0.000172,-0.002521,0.006583,-0.000195,0.006587,-0.002525,-88.772261,0.006647,
1900,1390,-3.411202,-6.824048,0.999995,0.000000,-0.005015,0.010179,0.000083,0.010179,-0.005016,89.687459,0.010180,
1130,1230,0.472296,-5.564091,0.999994,0.000330,-0.005095,0.006411,0.004227,0.007797,-0.006481,71.846004,0.008348,
1030,1210,1.272431,-7.132509,0.999990,0.000379,-0.007706,0.013118,0.001999,0.013308,-0.007896,84.566608,0.013385,
750,520,1.997360,-15.410019,0.999997,0.000212,-0.005220,0.010340,-0.000221,0.010343,-0.005223,-89.185127,0.010343,
1590,1500,-1.427964,-4.698292,0.999995,0.000273,-0.005435,0.010298,-0.000717,0.010331,-0.005467,-87.394449,0.010336,
910,370,0.893003,-17.372884,0.999996,0.000216,-0.003720,0.009009,-0.000123,0.009011,-0.003722,-89.447442,0.009056,
1530,130,-0.275056,-19.392680,0.999997,0.000196,-0.001291,0.007345,-0.001021,0.007464,-0.001410,-83.349517,0.007931,
610,1170,3.900649,-8.814409,0.999996,0.000218,-0.004396,0.009005,-0.000380,0.009016,-0.004407,-88.378557,0.009017,
1770,1270,-3.180626,-7.692768,0.999997,0.000224,-0.005176,0.010211,0.000873,0.010260,-0.005225,86.762809,0.010261,
940,370,0.792614,-17.435224,0.999997,0.000208,-0.003509,0.008705,-0.000276,0.008711,-0.003515,-88.706140,0.008765,
1390,310,-0.314582,-18.171087,0.999997,0.000214,-0.002146,0.007544,0.000061,0.007544,-0.002146,89.636969,0.007774,
1630,1720,-1.117364,-2.652522,0.999997,0.000208,-0.003939,0.009496,0.000166,0.009498,-0.003941,89.291631,0.009544,
750,200,0.964102,-18.609554,0.999997,0.000197,-0.003367,0.009605,0.001531,0.009783,-0.003545,83.357677,0.009906,
860,1360,1.870555,-6.272703,0.999995,0.000261,-0.006378,0.011404,0.000167,0.011405,-0.006379,89.463238,0.011432,
1660,1310,-2.410317,-7.020769,0.999995,0.000253,-0.006086,0.011228,0.000653,0.011252,-0.006111,87.844706,0.011266,
1690,830,-2.921330,-12.130035,0.999995,0.000260,-0.005429,0.010804,-0.001184,0.010890,-0.005515,-85.849889,0.010891,
660,820,3.469707,-12.050500,0.999996,0.000244,-0.004866,0.009789,0.000806,0.009834,-0.004911,86.861633,0.009834,
1310,1220,-0.411447,-5.304213,0.999987,0.000432,-0.004416,0.004413,-0.002797,0.005225,-0.005228,-73.820068,0.006035,
1870,870,-3.939308,-11.449849,0.999997,0.000188,-0.004412,0.008999,-0.000335,0.009007,-0.004420,-88.569802,0.009008,
1570,610,-1.436307,-14.959073,0.999995,0.000299,-0.005869,0.010555,0.000904,0.010604,-0.005918,86.859651,0.010628,
640,1150,3.812205,-8.952393,0.999995,0.000262,-0.004491,0.009219,-0.000539,0.009240,-0.004512,-87.750067,0.009241,
700,190,1.110959,-18.593109,0.999998,0.000181,-0.004424,0.009919,0.001221,0.010022,-0.004527,85.170155,0.010038,
990,950,2.318971,-11.193062,0.999993,0.000297,-0.005510,0.014356,0.000547,0.014372,-0.005525,88.423677,0.014499,
1820,100,-0.737436,-19.382680,0.999994,0.000282,-0.003567,0.010285,-0.002692,0.010789,-0.004071,-79.379820,0.010897,
1340,1270,-0.365317,-5.380388,0.999994,0.000327,-0.005167,0.007161,-0.004427,0.008586,-0.006592,-72.156362,0.008987,
1590,620,-1.575998,-14.775721,0.999995,0.000284,-0.005912,0.010741,0.000648,0.010767,-0.005937,87.773731,0.010786,
820,1160,2.925148,-8.681144,0.999995,0.000251,-0.005084,0.010921,-0.001314,0.011028,-0.005191,-85.337808,0.011034,
950,350,0.722784,-17.631786,0.999996,0.000232,-0.003466,0.008624,-0.000224,0.008628,-0.003470,-88.939689,0.008683,
780,740,2.529014,-13.134468,0.999994,0.000288,-0.005898,0.011021,0.000694,0.011049,-0.005926,87.653912,0.011059,
1090,1120,1.649370,-7.220584,0.999982,0.000000,-0.003525,0.014004,0.008558,0.017490,-0.007011,67.841754,0.017604,
1180,1360,0.113834,-4.462481,0.999997,0.000212,-0.002590,0.005047,0.001910,0.005498,-0.003040,76.716061,0.005509,
1150,1240,0.324328,-5.248322,0.999995,0.000277,-0.004526,0.004930,0.003783,0.006257,-0.005854,70.666114,0.007004,
700,680,2.761228,-13.578447,0.999997,0.000232,-0.005379,0.010486,0.000438,0.010498,-0.005392,88.420249,0.010499,
1820,1530,-2.565898,-5.145020,0.999996,0.000260,-0.005149,0.010199,-0.000087,0.010200,-0.005149,-89.673752,0.010200,
1840,490,-2.565576,-15.309060,0.999996,0.000259,-0.005063,0.010168,0.000098,0.010169,-0.005064,89.631286,0.010169,
1600,1320,-1.995404,-6.727596,0.999995,0.000253,-0.006552,0.011667,0.000144,0.011668,-0.006553,89.545656,0.011698,
1090,290,0.263876,-18.335510,0.999997,0.000200,-0.001953,0.007385,0.000043,0.007386,-0.001953,89.738360,0.007654,
1080,510,0.432673,-16.621357,0.999997,0.000205,-0.003535,0.007946,-0.001330,0.008098,-0.003687,-83.478591,0.008109,
1740,750,-2.890563,-12.895703,0.999998,0.000203,-0.005463,0.010546,-0.000777,0.010584,-0.005501,-87.228789,0.010586,
1220,1670,0.025918,-2.419242,0.999999,0.000138,-0.002249,0.007083,0.000141,0.007086,-0.002251,89.132427,0.007241,
1730,790,-2.986215,-12.487681,0.999996,0.000246,-0.005389,0.010567,-0.000997,0.010629,-0.005451,-86.437065,0.010631,
610,1780,1.930367,-2.732927,0.999996,0.000214,-0.004827,0.009934,-0.000101,0.009935,-0.004828,-89.608915,0.009936,
1390,290,-0.295802,-18.321363,0.999997,0.000200,-0.002033,0.007511,-0.000021,0.007511,-0.002033,-89.876078,0.007770,
1240,190,-0.009831,-19.092065,0.999998,0.000184,-0.001194,0.006607,0.000014,0.006607,-0.001194,89.897067,0.007042,
1480,1540,-0.815273,-3.898184,0.999996,0.000239,-0.004382,0.009120,-0.001184,0.009223,-0.004485,-85.027518,0.009224,
1340,500,-0.289468,-16.810767,0.999997,0.000184,-0.002931,0.007388,0.000882,0.007463,-0.003006,85.147044,0.007510,
960,310,0.615002,-18.000021,0.999997,0.000201,-0.003189,0.008359,-0.000024,0.008359,-0.003189,-89.883139,0.008437,
830,580,1.723277,-15.047132,0.999996,0.000227,-0.005630,0.010563,-0.000430,0.010575,-0.005642,-88.480581,0.010582,
1620,1950,-0.313521,-0.620493,0.999997,0.000214,-0.001311,0.007751,0.001641,0.008039,-0.001599,80.047856,0.008511,
740,1680,1.646579,-3.301736,0.999996,0.000253,-0.004797,0.010034,-0.000018,0.010034,-0.004797,-89.931872,0.010037,
1340,1730,-0.220295,-2.051047,0.999998,0.000166,-0.002268,0.007320,-0.000228,0.007325,-0.002273,-88.641286,0.007499,
1580,930,-2.748469,-11.163314,0.999996,0.000259,-0.004794,0.011468,-0.001431,0.011593,-0.004919,-85.010657,0.011637,
1290,810,-0.208874,-15.175109,0.999995,0.000245,-0.003926,0.003513,0.002948,0.004540,-0.004953,70.797473,0.005496,
880,530,1.340462,-15.742925,0.999997,0.000256,-0.005131,0.010086,-0.000742,0.010122,-0.005167,-87.214060,0.010123,
1870,130,-1.208893,-18.822129,0.999996,0.000248,-0.004791,0.010649,-0.001408,0.010776,-0.004918,-84.832875,0.010790,
1850,1970,-0.734933,-0.760975,0.999996,0.000221,-0.004644,0.011043,0.002479,0.011425,-0.005026,81.230801,0.011453,
1900,1370,-3.476681,-7.027309,0.999994,0.000000,-0.004965,0.009987,0.000114,0.009987,-0.004966,89.564445,0.009987,
910,350,0.852388,-17.552515,0.999996,0.000223,-0.003535,0.009018,0.000020,0.009018,-0.003535,89.907891,0.009088,
1130,1210,0.588885,-5.694869,0.999990,0.000418,-0.004482,0.005831,0.003557,0.006939,-0.005590,72.699360,0.007359,
1720,1410,-2.403742,-6.090149,0.999995,0.000274,-0.005576,0.010626,0.000209,0.010628,-0.005578,89.261417,0.010633,
1660,1570,-1.633074,-4.218639,0.999994,0.000270,-0.005096,0.010149,-0.000410,0.010160,-0.005107,-88.459681,0.010160,
1650,1610,-1.487645,-3.782507,0.999996,0.000225,-0.004779,0.009922,-0.000328,0.009930,-0.004787,-88.722454,0.009932,
1580,670,-1.647183,-14.260311,0.999993,0.000295,-0.006367,0.011256,0.000540,0.011272,-0.006383,88.247690,0.011305,
1680,1450,-2.056056,-5.537171,0.999996,0.000226,-0.005631,0.010680,-0.000149,0.010681,-0.005632,-89.477570,0.010686,
1570,570,-1.348236,-15.381799,0.999994,0.000288,-0.005483,0.010339,0.000878,0.010387,-0.005531,86.832797,0.010395,
570,1340,3.547757,-7.303008,0.999553,0.002579,-0.006802,0.009765,0.000506,0.009781,-0.006817,88.252779,0.010031,
960,1090,2.549897,-9.278807,0.999996,0.000282,-0.004572,0.012827,-0.001038,0.012889,-0.004634,-86.598315,0.013057,
1040,1850,0.257822,-1.244871,0.999998,0.000200,-0.001797,0.007237,-0.000328,0.007249,-0.001809,-87.923737,0.007546,
1440,340,-0.481325,-17.857107,0.999996,0.000235,-0.002830,0.007932,0.000260,0.007938,-0.002836,88.618118,0.008045,
820,1140,2.996997,-8.899665,0.999996,0.000247,-0.004797,0.010829,-0.001342,0.010944,-0.004912,-85.126436,0.010963,
1210,2020,0.004232,-0.093159,0.999998,0.000000,-0.000228,0.005985,-0.000006,0.005985,-0.000228,-89.946327,0.006783,
1110,1280,0.414808,-5.450152,0.999993,0.000334,-0.005429,0.007861,0.004341,0.009153,-0.006721,73.421543,0.009482,
780,720,2.454517,-13.357622,0.999995,0.000283,-0.005932,0.011051,0.000570,0.011070,-0.005952,88.079693,0.011081,
1770,1250,-3.249514,-7.896949,0.999996,0.000253,-0.005139,0.010205,0.000942,0.010263,-0.005197,86.500356,0.010263,
950,330,0.686020,-17.805875,0.999997,0.000211,-0.003283,0.008702,-0.000064,0.008702,-0.003283,-89.692604,0.008789,
1530,110,-0.214008,-19.543853,0.999998,0.000188,-0.001057,0.007251,-0.001110,0.007397,-0.001203,-82.516460,0.007938,
720,330,1.600980,-17.247961,0.999997,0.000237,-0.004793,0.010000,0.000077,0.010000,-0.004793,89.702230,0.010003,
660,800,3.401037,-12.253104,0.999995,0.000249,-0.004972,0.010017,0.000820,0.010061,-0.005016,86.877321,0.010061,
1090,270,0.242640,-18.482734,0.999997,0.000211,-0.001791,0.007296,0.000083,0.007297,-0.001792,89.477405,0.007606,
990,930,2.181735,-11.485661,0.999995,0.000270,-0.006036,0.014157,0.000498,0.014169,-0.006048,88.588903,0.014220,
1820,80,-0.544622,-19.593133,0.999994,0.000293,-0.003117,0.010361,-0.003272,0.011113,-0.003869,-77.049046,0.011283,
1600,1300,-2.068627,-6.963715,0.999995,0.000261,-0.006576,0.011752,0.000350,0.011759,-0.006582,88.906858,0.011787,
590,1600,2.627191,-4.599712,0.999996,0.000246,-0.005033,0.010083,0.000076,0.010083,-0.005033,89.712552,0.010083,
1240,1500,-0.021322,-3.586176,0.999998,0.000180,-0.002503,0.006448,-0.000216,0.006454,-0.002508,-88.618654,0.006507,
700,1420,2.607646,-6.108687,0.999995,0.000261,-0.005397,0.010425,-0.000257,0.010429,-0.005401,-89.070864,0.010432,
1550,1000,-2.844681,-10.388873,0.999997,0.000234,-0.003675,0.011427,-0.000624,0.011453,-0.003700,-87.638827,0.011689,
770,440,1.684223,-16.292527,0.999996,0.000228,-0.005015,0.010103,-0.000280,0.010108,-0.005020,-88.938608,0.010108,
610,1150,3.944064,-8.990927,0.999997,0.000199,-0.004359,0.008943,-0.000406,0.008955,-0.004372,-88.253018,0.008956,
1690,1180,-3.088780,-8.516672,0.999995,0.000259,-0.005090,0.010564,0.001188,0.010654,-0.005180,85.683131,0.010655,
1690,540,-1.929054,-15.274615,0.999996,0.000261,-0.005314,0.010377,0.000275,0.010382,-0.005319,88.996704,0.010383,
1730,770,-2.911410,-12.705484,0.999997,0.000227,-0.005465,0.010672,-0.000899,0.010722,-0.005515,-86.821491,0.010723,
1200,1670,0.070484,-2.428809,0.999998,0.000204,-0.002254,0.007103,0.000194,0.007107,-0.002258,88.813568,0.007262,
860,1340,1.938531,-6.503505,0.999996,0.000234,-0.006467,0.011548,-0.000017,0.011548,-0.006467,-89.945662,0.011576,
1080,630,0.464252,-15.662703,0.999996,0.000250,-0.004367,0.008131,-0.002422,0.008585,-0.004821,-79.406275,0.008606,
660,890,3.688763,-11.368032,0.999994,0.000298,-0.004645,0.009546,0.000716,0.009582,-0.004681,87.118775,0.009583,
1180,1340,0.110758,-4.562523,0.999997,0.000209,-0.002570,0.004702,0.002125,0.005277,-0.003146,74.845421,0.005310,
1620,1890,-0.545606,-1.108096,0.999997,0.000216,-0.002178,0.008327,0.001413,0.008514,-0.002365,82.472385,0.008790,
1490,920,-2.217048,-11.529308,0.999994,0.000316,-0.006054,0.013564,-0.000874,0.013602,-0.006092,-87.453938,0.013627,
1290,790,-0.163253,-15.249879,0.999996,0.000241,-0.003406,0.003836,0.003154,0.005017,-0.004587,69.471880,0.005561,
910,330,0.810857,-17.732264,0.999996,0.000229,-0.003386,0.008911,0.000067,0.008911,-0.003386,89.687538,0.008997,
1130,1410,0.270578,-4.368048,0.999996,0.000254,-0.003497,0.006882,0.002337,0.007384,-0.003999,77.877548,0.007393,
1850,1950,-0.916674,-0.969841,0.999996,0.000232,-0.004771,0.010630,0.001849,0.010849,-0.004990,83.247286,0.010860,
1240,830,-0.052143,-15.409014,0.999992,0.000327,-0.006121,0.002743,0.000125,0.002745,-0.006122,89.193782,0.006133,
740,1660,1.709471,-3.504605,0.999996,0.000245,-0.004852,0.010128,0.000093,0.010129,-0.004853,89.645045,0.010132,
1390,270,-0.273145,-18.471643,0.999997,0.000191,-0.001905,0.007355,-0.000095,0.007356,-0.001906,-89.414731,0.007636,
1890,1440,-3.195993,-6.283402,0.999994,0.000296,-0.005006,0.010164,0.000080,0.010165,-0.005006,89.698174,0.010165,
1420,190,-0.229195,-19.027243,0.999998,0.000203,-0.001651,0.007129,-0.000372,0.007145,-0.001667,-87.575139,0.007476,
820,1120,3.067197,-9.115073,0.999997,0.000225,-0.004551,0.010588,-0.001110,0.010669,-0.004632,-85.828361,0.010700,
820,1710,1.195470,-2.779172,0.999997,0.000197,-0.004255,0.009508,-0.000100,0.009508,-0.004256,-89.582091,0.009526,
1570,550,-1.310779,-15.587739,0.999995,0.000262,-0.005268,0.010156,0.000842,0.010202,-0.005314,86.882969,0.010205,
950,310,0.646222,-17.982323,0.999997,0.000206,-0.003179,0.008420,0.000020,0.008420,-0.003179,89.901361,0.008504,
1090,1280,0.526962,-5.667035,0.999994,0.000290,-0.006110,0.009111,0.004154,0.010171,-0.007170,75.687104,0.010452,
1340,480,-0.284305,-16.959463,0.999998,0.000189,-0.002862,0.007365,0.000794,0.007427,-0.002923,85.586604,0.007483,
780,700,2.379283,-13.578439,0.999994,0.000308,-0.005907,0.010995,0.000418,0.011005,-0.005918,88.585106,0.011016,
1860,1870,-1.526746,-1.860487,0.999994,0.000282,-0.004879,0.010117,0.000625,0.010143,-0.004905,87.616962,0.010145,
1060,1850,0.220893,-1.226947,0.999998,0.000189,-0.001571,0.007133,-0.000295,0.007143,-0.001581,-88.059028,0.007503,
760,1090,3.402203,-9.456620,0.999995,0.000260,-0.004373,0.010044,-0.000742,0.010082,-0.004411,-87.061053,0.010109,
1480,1520,-0.838254,-4.081814,0.999996,0.000242,-0.004665,0.009256,-0.001343,0.009384,-0.004793,-84.538335,0.009385,
1770,1230,-3.324318,-8.100370,0.999997,0.000214,-0.005056,0.010091,0.000977,0.010154,-0.005119,86.324412,0.010154,
1600,1280,-2.151276,-7.200255,0.999994,0.000294,-0.006569,0.011847,0.000581,0.011865,-0.006587,88.196318,0.011889,
580,1600,2.676130,-4.632235,0.999996,0.000229,-0.005152,0.010110,0.000020,0.010110,-0.005153,89.924229,0.010110,
1740,1310,-2.871424,-7.209731,0.999995,0.000264,-0.005467,0.010555,0.000765,0.010592,-0.005503,87.271628,0.010595,
660,1000,3.870547,-10.337463,0.999997,0.000221,-0.004346,0.009282,0.000306,0.009289,-0.004352,88.714566,0.009295,
1090,470,0.378276,-16.969094,0.999997,0.000219,-0.003197,0.007747,-0.000965,0.007832,-0.003281,-84.998918,0.007866,
1440,320,-0.454590,-18.021501,0.999997,0.000234,-0.002694,0.007943,0.000130,0.007944,-0.002696,89.300822,0.008080,
750,180,0.872766,-18.799978,0.999997,0.000211,-0.003076,0.009344,0.001720,0.009578,-0.003309,82.260858,0.009729,
860,1320,2.014054,-6.737386,0.999995,0.000255,-0.006512,0.011650,-0.000185,0.011652,-0.006514,-89.418014,0.011679,
1730,750,-2.836515,-12.919266,0.999997,0.000221,-0.005519,0.010611,-0.000793,0.010650,-0.005558,-87.193805,0.010654,
700,1380,2.743376,-6.528658,0.999995,0.000257,-0.005409,0.010471,-0.000398,0.010481,-0.005419,-88.566231,0.010483,
630,1400,3.040167,-6.516286,0.999997,0.000196,-0.005097,0.010159,-0.000249,0.010163,-0.005101,-89.063475,0.010163,
1680,830,-2.867486,-12.144513,0.999994,0.000284,-0.005522,0.010888,-0.001198,0.010975,-0.005609,-85.847295,0.010976,
1530,1640,-0.889371,-3.138199,0.999997,0.000206,-0.003914,0.009022,-0.000495,0.009041,-0.003933,-87.810166,0.009067,
560,1950,1.152151,-1.224977,0.999983,0.000000,-0.004306,0.011870,-0.002105,0.012139,-0.004575,-82.705283,0.012261,
990,910,2.043061,-11.766812,0.999993,0.000325,-0.006593,0.014053,0.000401,0.014061,-0.006601,88.886600,0.014070,
1490,900,-2.082117,-11.800809,0.999993,0.000300,-0.006559,0.013545,-0.000752,0.013574,-0.006587,-87.861174,0.013576,
910,310,0.773045,-17.907374,0.999997,0.000208,-0.003164,0.008679,0.000172,0.008681,-0.003167,89.167152,0.008786,
1900,1360,-3.512069,-7.127123,0.999993,0.000000,-0.004950,0.009887,0.000144,0.009888,-0.004951,89.444360,0.009888,
1080,610,0.456453,-15.826728,0.999996,0.000247,-0.004143,0.008061,-0.002177,0.008438,-0.004520,-80.183218,0.008445,
580,620,3.176308,-13.847195,0.999995,0.000284,-0.004703,0.010366,-0.000009,0.010366,-0.004703,-89.964833,0.010381,
1290,770,-0.138124,-15.327981,0.999996,0.000253,-0.003096,0.004077,0.003050,0.005199,-0.004217,69.809716,0.005525,
940,330,0.717022,-17.787910,0.999997,0.000182,-0.003219,0.008791,0.000013,0.008791,-0.003219,89.936869,0.008895,
1240,1480,-0.019995,-3.712644,0.999998,0.000183,-0.002490,0.006258,-0.000246,0.006265,-0.002497,-88.390212,0.006308,
1400,190,-0.195954,-19.041785,0.999998,0.000197,-0.001420,0.007027,-0.000343,0.007041,-0.001434,-87.678633,0.007442,
1390,250,-0.252740,-18.615872,0.999997,0.000192,-0.001754,0.007292,-0.000163,0.007295,-0.001757,-88.968087,0.007614,
1880,1440,-3.146196,-6.252327,0.999995,0.000291,-0.005018,0.010164,0.000069,0.010165,-0.005018,89.740393,0.010165,
1110,1850,0.156141,-1.201209,0.999998,0.000163,-0.001362,0.006927,-0.000171,0.006930,-0.001365,-88.817800,0.007342,
820,1100,3.114297,-9.327118,0.999997,0.000206,-0.004334,0.010523,-0.001004,0.010590,-0.004402,-86.149848,0.010640,
1850,1930,-1.074397,-1.186313,0.999996,0.000226,-0.004846,0.010653,0.001388,0.010776,-0.004969,84.922982,0.010787,
1620,790,-2.345630,-12.723922,0.999993,0.000291,-0.006306,0.011678,-0.000838,0.011717,-0.006345,-87.338333,0.011731,
1640,1250,-2.533074,-7.657998,0.999993,0.000319,-0.006065,0.011484,0.001040,0.011545,-0.006126,86.618579,0.011552,
950,290,0.610486,-18.144962,0.999996,0.000224,-0.003035,0.008348,0.000169,0.008350,-0.003038,89.147610,0.008453,
810,580,1.836267,-14.976520,0.999996,0.000213,-0.005558,0.010557,-0.000348,0.010564,-0.005566,-88.761881,0.010569,
1320,1210,-0.542769,-5.489644,0.999987,0.000462,-0.004355,0.004658,-0.002724,0.005417,-0.005114,-74.426867,0.006088,
1340,1850,-0.136678,-1.193792,0.999998,0.000171,-0.001427,0.006877,0.000139,0.006879,-0.001429,89.044164,0.007260,
1080,360,0.343512,-17.798923,0.999997,0.000221,-0.002455,0.007611,-0.000273,0.007619,-0.002462,-88.447242,0.007776,
1570,530,-1.272348,-15.788188,0.999995,0.000253,-0.005125,0.010049,0.000827,0.010094,-0.005170,86.888367,0.010095,
780,680,2.309937,-13.798796,0.999995,0.000265,-0.005841,0.010920,0.000269,0.010925,-0.005846,89.081772,0.010934,
980,1730,0.576672,-2.247604,0.999997,0.000209,-0.002986,0.008325,0.000092,0.008326,-0.002986,89.535166,0.008436,
570,1600,2.731900,-4.666788,0.999922,0.001131,-0.005235,0.010144,-0.000039,0.010144,-0.005235,-89.855256,0.010146,
1320,250,-0.134373,-18.666720,0.999998,0.000183,-0.001651,0.006975,-0.000011,0.006975,-0.001651,-89.923949,0.007290,
1530,1060,-2.761436,-9.699299,0.999996,0.000261,-0.003818,0.012041,0.000682,0.012070,-0.003847,87.542343,0.012332,
1210,1220,0.137321,-4.797368,0.999987,0.000409,-0.006231,0.002806,0.000206,0.002811,-0.006236,88.694892,0.006246,
1600,1260,-2.239135,-7.439254,0.999995,0.000302,-0.006519,0.011945,0.000792,0.011979,-0.006553,87.548787,0.011996,
700,1360,2.814607,-6.739901,0.999996,0.000241,-0.005375,0.010448,-0.000506,0.010464,-0.005391,-88.168839,0.010466,
1770,1210,-3.389762,-8.302759,0.999995,0.000264,-0.004961,0.009983,0.000936,0.010041,-0.005020,86.428519,0.010041,
650,1190,3.661341,-8.563554,0.999995,0.000255,-0.004734,0.009689,-0.000833,0.009737,-0.004782,-86.705847,0.009737,
990,890,1.894910,-12.043104,0.999992,0.000350,-0.007092,0.013916,0.000122,0.013916,-0.007093,89.668195,0.013917,
1440,540,-0.668572,-16.177362,0.999996,0.000234,-0.004291,0.008806,0.001501,0.008976,-0.004461,83.543945,0.008976,
1600,1890,-0.499804,-1.088582,0.999996,0.000271,-0.002328,0.008130,0.001227,0.008272,-0.002470,83.399375,0.008493,
1480,1500,-0.861672,-4.273712,0.999997,0.000219,-0.004876,0.009443,-0.001476,0.009593,-0.005027,-84.177173,0.009597,
600,890,3.954955,-11.286094,0.999997,0.000207,-0.004315,0.008871,0.000309,0.008878,-0.004322,88.657162,0.008879,
560,1930,1.317360,-1.449299,0.999949,0.000000,-0.004616,0.010542,-0.002118,0.010832,-0.004907,-82.192008,0.010848,
1490,880,-1.945169,-12.076304,0.999994,0.000286,-0.007040,0.013555,-0.000502,0.013567,-0.007052,-88.604338,0.013571,
1510,1640,-0.814481,-3.087567,0.999997,0.000223,-0.003755,0.008824,-0.000545,0.008848,-0.003779,-87.523961,0.008879,
1840,1890,-1.301909,-1.556296,0.999994,0.000300,-0.004877,0.010397,0.000903,0.010450,-0.004931,86.627557,0.010456,
750,260,1.219228,-18.022927,0.999997,0.000184,-0.003964,0.009723,0.000843,0.009775,-0.004015,86.487436,0.009827,
1730,730,-2.760094,-13.130210,0.999997,0.000220,-0.005554,0.010621,-0.000710,0.010652,-0.005585,-87.493137,0.010656,
1690,600,-2.097030,-14.643549,0.999997,0.000204,-0.005594,0.010594,0.000135,0.010595,-0.005595,89.522568,0.010601,
780,1510,1.905055,-4.915151,0.999998,0.000202,-0.005377,0.010398,0.000299,0.010403,-0.005382,88.914236,0.010405,
1780,1370,-2.869078,-6.680159,0.999996,0.000229,-0.005283,0.010358,0.000451,0.010371,-0.005296,88.350266,0.010372,
1290,750,-0.128021,-15.412640,0.999996,0.000248,-0.002899,0.004415,0.002854,0.005397,-0.003881,71.012412,0.005567,
910,290,0.725080,-18.081247,0.999997,0.000201,-0.002970,0.008664,0.000369,0.008675,-0.002982,88.183692,0.008815,
570,570,3.069355,-14.327754,0.999991,0.000350,-0.004817,0.010272,0.000037,0.010272,-0.004817,89.858937,0.010279,
1480,490,-0.790034,-16.488244,0.999997,0.000193,-0.004149,0.008969,0.001023,0.009048,-0.004229,85.568410,0.009055,
820,1080,3.165936,-9.538893,0.999997,0.000194,-0.004174,0.010411,-0.000787,0.010454,-0.004216,-86.920147,0.010519,
1850,1910,-1.222426,-1.399368,0.999996,0.000254,-0.004913,0.010406,0.001043,0.010477,-0.004984,86.121243,0.010481,
1080,570,0.448932,-16.144474,0.999996,0.000246,-0.003763,0.007932,-0.001725,0.008181,-0.004012,-81.781706,0.008182,
900,1450,1.384002,-5.118025,0.999994,0.000313,-0.005820,0.010469,0.000966,0.010526,-0.005877,86.617510,0.010550,
1620,1250,-2.410050,-7.609830,0.999994,0.000287,-0.006230,0.011684,0.000983,0.011738,-0.006284,86.869228,0.011748,
1900,1350,-3.546349,-7.225061,0.999994,0.000000,-0.004945,0.009805,0.000165,0.009807,-0.004947,89.358728,0.009807,
1220,190,0.013466,-19.091474,0.999998,0.000179,-0.001177,0.006622,-0.000007,0.006622,-0.001177,-89.947674,0.007066,
1390,230,-0.230961,-18.764168,0.999998,0.000181,-0.001570,0.007196,-0.000231,0.007202,-0.001576,-88.493380,0.007572,
1080,1660,0.366886,-2.627781,0.999996,0.000212,-0.002744,0.007698,0.000466,0.007719,-0.002765,87.450627,0.007822,
1800,670,-2.923064,-13.582498,0.999995,0.000255,-0.005202,0.010294,-0.000361,0.010302,-0.005211,-88.664546,0.010303,
1500,1290,-1.405283,-6.630820,0.999993,0.000300,-0.007411,0.012304,-0.001027,0.012357,-0.007464,-87.026132,0.012446,
1110,1830,0.169386,-1.339363,0.999998,0.000176,-0.001519,0.007001,-0.000114,0.007002,-0.001520,-89.235342,0.007366,
1550,1700,-0.852477,-2.648623,0.999997,0.000218,-0.003465,0.008976,-0.000007,0.008976,-0.003465,-89.968066,0.009054,
600,450,2.562691,-15.642210,0.999995,0.000267,-0.004979,0.010056,-0.000108,0.010057,-0.004980,-89.589429,0.010057,
1820,300,-1.867552,-17.300738,0.999996,0.000231,-0.004831,0.010104,-0.000186,0.010107,-0.004834,-89.285166,0.010110,
950,270,0.564595,-18.318237,0.999996,0.000243,-0.002904,0.008216,0.000282,0.008223,-0.002912,88.545831,0.008339,
700,1590,2.102201,-4.346276,0.999996,0.000238,-0.005057,0.010192,0.000193,0.010194,-0.005059,89.274129,0.010194,
1770,1190,-3.453223,-8.502920,0.999995,0.000277,-0.004875,0.009997,0.000997,0.010063,-0.004941,86.181190,0.010064,
780,1770,1.187888,-2.308021,0.999997,0.000209,-0.004247,0.009652,-0.000486,0.009669,-0.004264,-87.998628,0.009692,
1200,1220,0.193176,-4.849881,0.999995,0.000252,-0.005774,0.002871,0.000455,0.002895,-0.005798,86.996163,0.005798,
1600,1240,-2.327913,-7.681457,0.999995,0.000288,-0.006399,0.011909,0.000986,0.011962,-0.006452,86.924684,0.011974,
560,640,3.329591,-13.575303,0.999941,0.000000,-0.004355,0.009730,-0.000129,0.009731,-0.004356,-89.473836,0.009749,
780,660,2.243430,-14.019371,0.999995,0.000254,-0.005795,0.010840,0.000161,0.010841,-0.005797,89.445778,0.010850,
700,330,1.696606,-17.181774,0.999997,0.000190,-0.004821,0.010035,0.000056,0.010035,-0.004822,89.782965,0.010037,
1530,90,-0.171125,-19.683659,0.999998,0.000170,-0.000783,0.006951,-0.001072,0.007096,-0.000929,-82.254726,0.007714,
740,1640,1.763763,-3.710597,0.999995,0.000269,-0.004920,0.010106,0.000166,0.010108,-0.004922,89.366001,0.010109,
1240,1460,-0.020960,-3.835905,0.999998,0.000172,-0.002422,0.006045,-0.000266,0.006053,-0.002431,-88.203923,0.006092,
990,870,1.754654,-12.319297,0.999993,0.000334,-0.007468,0.013754,-0.000175,0.013756,-0.007469,-89.527720,0.013773,
1570,510,-1.234247,-15.989411,0.999996,0.000255,-0.005007,0.009899,0.000791,0.009941,-0.005048,86.970978,0.009941,
700,1340,2.888714,-6.950083,0.999996,0.000242,-0.005357,0.010386,-0.000627,0.010411,-0.005382,-87.721766,0.010413,
1650,1820,-0.882201,-1.755757,0.999997,0.000225,-0.003382,0.009152,0.000929,0.009221,-0.003450,85.782672,0.009317,
740,890,3.303435,-11.454226,0.999996,0.000256,-0.004867,0.010313,0.001164,0.010402,-0.004956,85.641887,0.010406,
940,1090,2.637786,-9.324725,0.999993,0.000316,-0.004393,0.012236,-0.001086,0.012306,-0.004464,-86.277705,0.012460,
1440,300,-0.430416,-18.175846,0.999997,0.000227,-0.002498,0.007756,0.000025,0.007756,-0.002498,89.862206,0.007918,
1490,860,-1.812613,-12.352303,0.999991,0.000371,-0.007418,0.013505,-0.000161,0.013506,-0.007419,-89.558473,0.013528,
1500,730,-1.285939,-13.950596,0.999995,0.000265,-0.007057,0.011667,0.001351,0.011764,-0.007154,85.893922,0.011855,
860,1300,2.088500,-6.973947,0.999995,0.000238,-0.006558,0.011736,-0.000386,0.011744,-0.006566,-88.791350,0.011772,
1530,1000,-2.773089,-10.401544,0.999997,0.000197,-0.003748,0.011982,-0.000583,0.012003,-0.003770,-87.881674,0.012277,
610,1130,3.989906,-9.171224,0.999998,0.000190,-0.004351,0.008994,-0.000507,0.009013,-0.004370,-87.829294,0.009014,
660,260,1.628647,-17.763502,0.999997,0.000255,-0.004688,0.010156,0.000586,0.010179,-0.004711,87.741662,0.010188,
820,1060,3.191390,-9.745465,0.999997,0.000196,-0.004024,0.010259,-0.000437,0.010272,-0.004037,-88.248558,0.010350,
1290,730,-0.127332,-15.496904,0.999997,0.000219,-0.002790,0.004760,0.002564,0.005549,-0.003578,72.905516,0.005626,
1340,460,-0.278901,-17.108015,0.999998,0.000171,-0.002801,0.007394,0.000713,0.007443,-0.002851,86.017780,0.007511,
1850,1890,-1.351260,-1.602102,0.999996,0.000258,-0.004902,0.010355,0.000824,0.010399,-0.004946,86.918834,0.010404,
1730,710,-2.685724,-13.345165,0.999996,0.000262,-0.005582,0.010688,-0.000587,0.010709,-0.005603,-87.935675,0.010713,
910,270,0.677870,-18.254664,0.999997,0.000218,-0.002757,0.008496,0.000477,0.008517,-0.002777,87.577061,0.008687,
1150,1540,0.213469,-3.404040,0.999997,0.000216,-0.002902,0.007174,0.000969,0.007266,-0.002995,84.558774,0.007303,
1730,1180,-3.288725,-8.557795,0.999996,0.000260,-0.004971,0.010273,0.001100,0.010352,-0.005050,85.892434,0.010353,
1180,1320,0.109974,-4.651538,0.999997,0.000194,-0.002601,0.004385,0.002353,0.005104,-0.003320,73.015073,0.005180,
770,1280,2.721308,-7.432980,0.999996,0.000232,-0.005740,0.010997,-0.000948,0.011050,-0.005794,-86.767172,0.011055,
1480,470,-0.769188,-16.665513,0.999997,0.000191,-0.004034,0.008848,0.000914,0.008912,-0.004099,85.960136,0.008922,
750,1660,1.659306,-3.473515,0.999996,0.000240,-0.004818,0.010078,0.000096,0.010079,-0.004819,89.631383,0.010082,
1480,1310,-1.190393,-6.264478,0.999993,0.000329,-0.007251,0.011857,-0.001662,0.012001,-0.007394,-85.065354,0.012108,
880,370,1.017286,-17.293214,0.999997,0.000211,-0.004160,0.009263,-0.000242,0.009268,-0.004165,-88.966606,0.009284,
1720,1370,-2.542807,-6.518290,0.999996,0.000308,-0.005667,0.010728,0.000429,0.010740,-0.005678,88.500501,0.010745,
1080,550,0.445497,-16.301866,0.999997,0.000216,-0.003648,0.007931,-0.001569,0.008140,-0.003857,-82.418069,0.008144,
1110,1810,0.189304,-1.483104,0.999998,0.000165,-0.001671,0.007115,-0.000084,0.007116,-0.001672,-89.450926,0.007442,
900,1430,1.426859,-5.329809,0.999994,0.000295,-0.005980,0.010752,0.000911,0.010802,-0.006030,86.891415,0.010826,
1550,120,-0.266809,-19.460977,0.999997,0.000232,-0.001109,0.007459,-0.001222,0.007629,-0.001280,-82.040161,0.008172,
1600,1220,-2.421556,-7.914948,0.999994,0.000303,-0.006198,0.011871,0.001168,0.011946,-0.006273,86.315223,0.011951,
700,1570,2.157811,-4.552087,0.999996,0.000230,-0.005098,0.010219,0.000197,0.010222,-0.005100,89.264705,0.010222,
1450,1920,-0.184616,-0.762219,0.999998,0.000142,-0.000996,0.006941,0.000625,0.006990,-0.001045,85.522568,0.007541,
1080,1620,0.392327,-2.940006,0.999997,0.000211,-0.003130,0.007806,0.000798,0.007864,-0.003188,85.845905,0.007910,
1570,490,-1.194810,-16.189688,0.999996,0.000255,-0.004828,0.009758,0.000711,0.009793,-0.004862,87.214842,0.009793,
1820,590,-2.762290,-14.346958,0.999996,0.000212,-0.005162,0.010215,-0.000057,0.010215,-0.005162,-89.788892,0.010216,
570,270,2.100233,-17.314601,0.999987,0.000435,-0.004601,0.009606,0.000010,0.009606,-0.004601,89.960942,0.009609,
780,640,2.177585,-14.234979,0.999995,0.000249,-0.005768,0.010770,0.000041,0.010770,-0.005768,89.859108,0.010779,
1770,1170,-3.518283,-8.704619,0.999996,0.000247,-0.004787,0.009921,0.000967,0.009984,-0.004850,86.255859,0.009986,
950,250,0.527021,-18.476058,0.999997,0.000223,-0.002704,0.008089,0.000385,0.008102,-0.002717,87.959505,0.008247,
1530,1700,-0.790403,-2.610124,0.999998,0.000185,-0.003330,0.008777,-0.000102,0.008777,-0.003331,-89.519363,0.008862,
1480,1700,-0.614253,-2.490164,0.999997,0.000198,-0.003236,0.008344,-0.000309,0.008352,-0.003245,-88.472955,0.008421,
1840,1870,-1.429202,-1.765537,0.999995,0.000278,-0.004877,0.010252,0.000722,0.010286,-0.004912,87.275530,0.010290,
740,1620,1.818237,-3.912364,0.999995,0.000257,-0.004965,0.010070,0.000178,0.010072,-0.004967,89.323208,0.010072,
1240,1440,-0.019244,-3.954690,0.999998,0.000155,-0.002356,0.005799,-0.000280,0.005809,-0.002366,-88.033990,0.005842,
1900,1340,-3.580380,-7.323363,0.999995,0.000000,-0.004947,0.009765,0.000172,0.009767,-0.004949,89.329599,0.009768,
940,1150,2.319813,-8.567151,0.999995,0.000268,-0.005939,0.012826,-0.001293,0.012915,-0.006028,-86.076003,0.012925,
1170,380,0.136201,-17.752525,0.999998,0.000186,-0.002202,0.007161,-0.000139,0.007163,-0.002204,-89.150862,0.007338,
1030,1190,1.403138,-7.408422,0.999990,0.000382,-0.007446,0.013599,0.001837,0.013758,-0.007606,85.048024,0.013783,
1820,670,-3.025123,-13.525598,0.999996,0.000226,-0.005121,0.010189,-0.000326,0.010196,-0.005128,-88.780663,0.010196,
700,1320,2.959633,-7.156844,0.999996,0.000249,-0.005365,0.010432,-0.000698,0.010463,-0.005396,-87.474291,0.010465,
1690,1050,-3.390467,-9.854990,0.999996,0.000215,-0.004169,0.009970,0.000361,0.009979,-0.004178,88.540346,0.010023,
970,900,2.101084,-11.787136,0.999996,0.000273,-0.006462,0.013511,0.000798,0.013543,-0.006494,87.715528,0.013546,
1390,210,-0.209205,-18.904678,0.999998,0.000184,-0.001422,0.007063,-0.000286,0.007073,-0.001432,-88.070401,0.007478,
1870,120,-1.130479,-18.930323,0.999995,0.000244,-0.004739,0.010747,-0.001586,0.010908,-0.004900,-84.214038,0.010927,
1700,170,-0.784086,-18.909365,0.999996,0.000234,-0.002986,0.009139,-0.001734,0.009382,-0.003229,-82.019307,0.009532,
1650,1800,-0.949050,-1.943771,0.999996,0.000256,-0.003562,0.009227,0.000746,0.009270,-0.003605,86.673391,0.009346,
1200,190,0.036435,-19.089383,0.999998,0.000177,-0.001131,0.006635,0.000032,0.006635,-0.001131,89.761866,0.007099,
560,630,3.281435,-13.644387,0.999954,0.000000,-0.004362,0.010477,-0.000009,0.010477,-0.004362,-89.965355,0.010526,
940,550,1.065504,-15.768378,0.999996,0.000261,-0.005022,0.009851,-0.001133,0.009937,-0.005108,-85.670107,0.009939,
990,850,1.618448,-12.596085,0.999994,0.000318,-0.007691,0.013544,-0.000497,0.013556,-0.007703,-88.660220,0.013597,
1490,840,-1.690989,-12.620685,0.999991,0.000381,-0.007653,0.013339,0.000207,0.013341,-0.007655,89.436137,0.013390,
1650,1590,-1.534506,-3.982040,0.999996,0.000221,-0.004936,0.010018,-0.000391,0.010028,-0.004946,-88.504372,0.010028,
910,470,1.082176,-16.436404,0.999997,0.000224,-0.004508,0.009520,-0.000685,0.009554,-0.004541,-87.210659,0.009558,
850,1340,2.003187,-6.537743,0.999996,0.000240,-0.006417,0.011498,-0.000105,0.011498,-0.006418,-89.664071,0.011524,
750,1640,1.714701,-3.677777,0.999994,0.000289,-0.004907,0.010100,0.000187,0.010103,-0.004910,89.284844,0.010104,
1730,690,-2.616496,-13.560617,0.999994,0.000293,-0.005615,0.010680,-0.000451,0.010693,-0.005628,-88.416450,0.010698,
660,220,1.445753,-18.171834,0.999996,0.000261,-0.004507,0.010186,0.001009,0.010255,-0.004576,86.088200,0.010275,
1400,1250,-0.808937,-6.272241,0.999993,0.000313,-0.007381,0.011203,-0.003528,0.011850,-0.008029,-79.604279,0.012097,
1290,710,-0.130103,-15.593003,0.999997,0.000214,-0.002714,0.005069,0.002267,0.005680,-0.003326,74.890905,0.005708,
1440,260,-0.370219,-18.487794,0.999997,0.000223,-0.002196,0.007625,-0.000151,0.007627,-0.002199,-89.121956,0.007852,
920,1090,2.722013,-9.354635,0.999994,0.000283,-0.004302,0.011734,-0.001141,0.011815,-0.004383,-85.950706,0.011945,
1850,1870,-1.478692,-1.813793,0.999995,0.000276,-0.004904,0.010188,0.000652,0.010216,-0.004932,87.529591,0.010218,
820,1040,3.210170,-9.951367,0.999996,0.000233,-0.003953,0.010253,-0.000260,0.010258,-0.003958,-88.950423,0.010347,
1660,1550,-1.682609,-4.423421,0.999997,0.000181,-0.005180,0.010242,-0.000410,0.010253,-0.005191,-88.478497,0.010254,
1480,730,-1.145697,-14.071427,0.999995,0.000281,-0.007000,0.011548,0.001747,0.011711,-0.007164,84.667226,0.011808,
1340,670,-0.294711,-15.578703,0.999997,0.000224,-0.003726,0.007028,0.002708,0.007671,-0.004369,76.636068,0.007696,
950,230,0.479089,-18.641622,0.999997,0.000213,-0.002522,0.008001,0.000484,0.008024,-0.002544,87.370784,0.008201,
1600,1200,-2.518006,-8.156992,0.999994,0.000303,-0.005960,0.011740,0.001294,0.011834,-0.006054,85.839449,0.011835,
1560,1570,-1.139434,-3.888058,0.999996,0.000241,-0.004661,0.009626,-0.000724,0.009663,-0.004698,-87.106747,0.009664,
1570,470,-1.157891,-16.385023,0.999996,0.000251,-0.004594,0.009667,0.000621,0.009694,-0.004621,87.512042,0.009697,
1100,540,0.370751,-16.449345,0.999996,0.000245,-0.003501,0.007709,-0.001521,0.007911,-0.003703,-82.407497,0.007917,
1390,380,-0.375334,-17.636596,0.999997,0.000188,-0.002732,0.007791,0.000432,0.007809,-0.002750,87.653683,0.007922,
1080,800,0.665952,-14.140146,0.999993,0.000309,-0.006864,0.010177,-0.004092,0.011109,-0.007796,-77.173366,0.011406,
780,620,2.117131,-14.450856,0.999996,0.000248,-0.005701,0.010737,-0.000075,0.010738,-0.005701,-89.738225,0.010745,
1770,1150,-3.574021,-8.901403,0.999997,0.000230,-0.004669,0.009662,0.000779,0.009704,-0.004712,86.896182,0.009706,
560,620,3.273432,-13.781057,0.999944,0.000000,-0.004314,0.010949,-0.000102,0.010950,-0.004314,-89.617361,0.011031,
1130,1540,0.272192,-3.445858,0.999997,0.000194,-0.002945,0.007322,0.000972,0.007413,-0.003036,84.640318,0.007453,
1390,190,-0.183773,-19.047846,0.999998,0.000177,-0.001257,0.006979,-0.000346,0.006994,-0.001272,-87.596246,0.007451,
700,1300,3.029924,-7.367448,0.999996,0.000259,-0.005283,0.010412,-0.000795,0.010452,-0.005323,-87.109090,0.010452,
620,1470,2.864579,-5.831818,0.999996,0.000224,-0.005109,0.010179,-0.000056,0.010179,-0.005109,-89.790081,0.010179,
1060,1730,0.359575,-2.117914,0.999997,0.000223,-0.002536,0.007653,0.000181,0.007656,-0.002539,88.984589,0.007799,
970,880,1.967789,-12.059340,0.999995,0.000269,-0.006973,0.013488,0.000581,0.013505,-0.006989,88.375791,0.013507,
1570,540,-1.291429,-15.688270,0.999995,0.000249,-0.005185,0.010097,0.000835,0.010142,-0.005230,86.879970,0.010144,
1630,1820,-0.816982,-1.727083,0.999996,0.000232,-0.002989,0.008965,0.000971,0.009043,-0.003067,85.388343,0.009198,
1650,1570,-1.581260,-4.182017,0.999995,0.000233,-0.005088,0.010115,-0.000422,0.010127,-0.005100,-88.410656,0.010127,
1440,1250,-1.111653,-6.688285,0.999994,0.000287,-0.007753,0.012264,-0.002267,0.012517,-0.008006,-83.619782,0.012679,
1490,820,-1.580205,-12.885008,0.999994,0.000337,-0.007742,0.013105,0.000536,0.013119,-0.007755,88.528617,0.013191,
1730,670,-2.547698,-13.773386,0.999995,0.000273,-0.005605,0.010616,-0.000372,0.010625,-0.005613,-88.686622,0.010630,
870,1660,1.112890,-3.127129,0.999997,0.000192,-0.004231,0.009399,0.000234,0.009403,-0.004235,89.015693,0.009418,
940,530,1.036559,-15.961791,0.999998,0.000198,-0.004801,0.009603,-0.001036,0.009677,-0.004875,-85.907939,0.009677,
990,830,1.499585,-12.870581,0.999992,0.000361,-0.007845,0.013215,-0.000827,0.013248,-0.007878,-87.754513,0.013327,
1210,1260,0.058205,-4.710140,0.999994,0.000300,-0.002959,0.002298,0.001205,0.002561,-0.003222,77.681314,0.003404,
650,1630,2.238128,-4.102723,0.999996,0.000244,-0.005027,0.010114,0.000143,0.010115,-0.005029,89.460119,0.010115,
1340,650,-0.297336,-15.720951,0.999995,0.000289,-0.003652,0.007047,0.002467,0.007588,-0.004193,77.621834,0.007602,
1700,1370,-2.426927,-6.464709,0.999996,0.000261,-0.005799,0.010866,0.000379,0.010875,-0.005807,88.697903,0.010883,
1340,440,-0.276096,-17.254980,0.999998,0.000184,-0.002750,0.007423,0.000632,0.007462,-0.002789,86.460046,0.007541,
1440,240,-0.341752,-18.640641,0.999997,0.000225,-0.002054,0.007610,-0.000269,0.007617,-0.002062,-88.407202,0.007880,
1870,170,-1.481453,-18.407068,0.999996,0.000242,-0.004898,0.010208,-0.000742,0.010244,-0.004934,-87.193197,0.010247,
1530,120,-0.246191,-19.468041,0.999998,0.000169,-0.001192,0.007326,-0.001086,0.007463,-0.001329,-82.845685,0.007962,
1530,70,-0.118305,-19.822576,0.999998,0.000157,-0.000547,0.006813,-0.001112,0.006977,-0.000711,-81.594663,0.007679,
1540,490,-1.056942,-16.285801,0.999995,0.000259,-0.004600,0.009513,0.000855,0.009564,-0.004651,86.547511,0.009566,
1080,780,0.600144,-14.338829,0.999994,0.000299,-0.006541,0.009730,-0.004029,0.010673,-0.007484,-76.825967,0.010957,
820,1020,3.214921,-10.157105,0.999997,0.000216,-0.003959,0.010280,0.000190,0.010283,-0.003962,89.237318,0.010373,
1650,1060,-3.218679,-9.745677,0.999997,0.000218,-0.004040,0.010195,0.000410,0.010207,-0.004051,88.351552,0.010279,
700,310,1.630827,-17.386602,0.999996,0.000260,-0.004830,0.010093,0.000143,0.010094,-0.004831,89.451596,0.010097,
860,1720,1.014631,-2.591760,0.999997,0.000200,-0.003840,0.009394,-0.000122,0.009395,-0.003841,-89.473221,0.009447,
1680,670,-2.260182,-13.916890,0.999996,0.000258,-0.005872,0.010878,-0.000228,0.010881,-0.005875,-89.220708,0.010892,
1810,1960,-0.666136,-0.711872,0.999995,0.000248,-0.002763,0.010076,0.003241,0.010848,-0.003535,76.605761,0.011065,
1850,1850,-1.587350,-2.011397,0.999995,0.000281,-0.004899,0.010087,0.000439,0.010100,-0.004912,88.324058,0.010101,
1570,450,-1.123182,-16.575258,0.999997,0.000229,-0.004421,0.009551,0.000545,0.009572,-0.004442,87.769604,0.009580,
910,1730,0.801938,-2.382457,0.999997,0.000212,-0.003333,0.008868,-0.000083,0.008869,-0.003333,-89.610751,0.008959,
1740,1930,-0.645687,-0.884341,0.999995,0.000275,-0.003083,0.009175,0.002267,0.009580,-0.003489,79.851431,0.009698,
1630,1420,-1.854208,-5.695687,0.999994,0.000268,-0.005933,0.010930,-0.000294,0.010935,-0.005938,-89.001871,0.010949,
1690,810,-2.844672,-12.345834,0.999996,0.000270,-0.005544,0.010896,-0.001097,0.010969,-0.005617,-86.200604,0.010970,
1600,1620,-1.225536,-3.527701,0.999998,0.000239,-0.004578,0.009687,-0.000416,0.009700,-0.004590,-88.330847,0.009704,
950,210,0.439138,-18.797160,0.999997,0.000233,-0.002269,0.007816,0.000572,0.007848,-0.002301,86.763976,0.008069,
1700,610,-2.182100,-14.505084,0.999996,0.000251,-0.005590,0.010614,0.000050,0.010614,-0.005590,89.822609,0.010619,
590,450,2.611599,-15.609987,0.999996,0.000248,-0.005147,0.010058,-0.000115,0.010058,-0.005148,-89.564908,0.010059,
1100,520,0.362854,-16.608319,0.999996,0.000236,-0.003378,0.007695,-0.001333,0.007853,-0.003536,-83.231825,0.007866,
1030,1170,1.562115,-7.689951,0.999990,0.000358,-0.007103,0.014012,0.001688,0.014146,-0.007237,85.456935,0.014148,
1640,1550,-1.578880,-4.355061,0.999995,0.000240,-0.005178,0.010220,-0.000457,0.010233,-0.005191,-88.302474,0.010234,
1820,60,-0.365985,-19.797939,0.999992,0.000351,-0.002706,0.009630,-0.003335,0.010474,-0.003550,-75.798267,0.010654,
1770,1130,-3.615906,-9.094407,0.999996,0.000242,-0.004586,0.009648,0.000748,0.009687,-0.004625,86.999187,0.009691,
1470,1890,-0.261512,-0.983993,0.999998,0.000183,-0.001288,0.007210,0.000684,0.007265,-0.001342,85.429256,0.007731,
610,1110,4.033395,-9.354352,0.999997,0.000207,-0.004310,0.008921,-0.000351,0.008930,-0.004320,-88.482054,0.008932,
1710,1180,-3.190168,-8.537538,0.999997,0.000200,-0.005036,0.010402,0.001145,0.010486,-0.005120,85.780334,0.010487,
1700,150,-0.682129,-19.096536,0.999996,0.000234,-0.002656,0.009000,-0.001935,0.009313,-0.002968,-80.818576,0.009515,
920,1150,2.435264,-8.627272,0.999994,0.000324,-0.005664,0.012404,-0.001481,0.012524,-0.005784,-85.345149,0.012537,
1240,1420,-0.019317,-4.068989,0.999998,0.000153,-0.002265,0.005482,-0.000278,0.005492,-0.002275,-87.944965,0.005519,
1790,840,-3.470938,-11.877967,0.999995,0.000279,-0.004846,0.009774,-0.000851,0.009823,-0.004895,-86.681453,0.009823,
1180,1300,0.110754,-4.732856,0.999996,0.000233,-0.002704,0.004056,0.002607,0.004944,-0.003592,71.178739,0.005110,
790,700,2.319727,-13.607356,0.999994,0.000318,-0.005983,0.011065,0.000371,0.011073,-0.005991,88.753134,0.011086,
1290,690,-0.132960,-15.693991,0.999998,0.000191,-0.002695,0.005317,0.002032,0.005802,-0.003181,76.552906,0.005811,
1570,520,-1.253675,-15.889209,0.999995,0.000266,-0.005074,0.009988,0.000820,0.010033,-0.005118,86.893729,0.010033,
1870,1770,-2.050935,-2.897896,0.999998,0.000197,-0.004857,0.009739,0.000049,0.009739,-0.004857,89.809335,0.009739,
590,1780,2.026729,-2.812114,0.999996,0.000211,-0.004804,0.009764,-0.000069,0.009764,-0.004805,-89.729153,0.009764,
1370,380,-0.325153,-17.663316,0.999998,0.000175,-0.002481,0.007638,0.000293,0.007647,-0.002490,88.343545,0.007800,
1710,1660,-1.642824,-3.464700,0.999997,0.000229,-0.004795,0.010024,-0.000114,0.010024,-0.004796,-89.559062,0.010027,
1870,940,-4.095388,-10.831054,0.999997,0.000211,-0.004250,0.008736,-0.000333,0.008745,-0.004259,-88.534064,0.008746,
820,1000,3.196258,-10.364062,0.999998,0.000181,-0.003984,0.010282,0.000407,0.010294,-0.003996,88.366761,0.010379,
1520,1980,-0.127658,-0.369645,0.999998,0.000183,-0.000681,0.006843,0.001061,0.006990,-0.000828,82.125329,0.007638,
1390,170,-0.161681,-19.185433,0.999998,0.000177,-0.001096,0.006875,-0.000373,0.006892,-0.001113,-87.328383,0.007400,
1420,250,-0.313602,-18.586462,0.999997,0.000231,-0.002146,0.007482,-0.000115,0.007483,-0.002147,-89.315605,0.007706,
1080,490,0.423486,-16.782363,0.999995,0.000253,-0.003442,0.007918,-0.001183,0.008040,-0.003564,-84.115391,0.008057,
1440,220,-0.311889,-18.793154,0.999997,0.000219,-0.001827,0.007387,-0.000323,0.007399,-0.001839,-87.992123,0.007704,
560,610,3.231823,-13.907444,0.999970,0.000000,-0.004366,0.010976,-0.000157,0.010977,-0.004368,-89.413994,0.011053,
650,1610,2.297931,-4.306792,0.999996,0.000240,-0.005065,0.010135,0.000158,0.010136,-0.005067,89.405455,0.010136,
1750,1060,-3.637022,-9.764426,0.999996,0.000215,-0.004340,0.009609,0.000319,0.009616,-0.004347,88.691028,0.009631,
1640,150,-0.524235,-19.163991,0.999996,0.000252,-0.002027,0.008359,-0.001620,0.008606,-0.002274,-81.334306,0.008919,
890,1570,1.201218,-3.929187,0.999995,0.000269,-0.004835,0.009730,0.000679,0.009761,-0.004866,87.338380,0.009761,
1850,1830,-1.691956,-2.219322,0.999997,0.000235,-0.004893,0.010070,0.000360,0.010078,-0.004902,88.623777,0.010080,
860,1740,0.964339,-2.402022,0.999997,0.000221,-0.003768,0.009165,-0.000158,0.009167,-0.003770,-89.300845,0.009215,
1600,1640,-1.186074,-3.335278,0.999997,0.000249,-0.004373,0.009551,-0.000289,0.009557,-0.004379,-88.811625,0.009568,
1570,1460,-1.402562,-5.040822,0.999996,0.000255,-0.005751,0.010451,-0.000867,0.010498,-0.005797,-86.943984,0.010517,
1840,1570,-2.550103,-4.800858,0.999996,0.000252,-0.005049,0.010114,-0.000096,0.010115,-0.005050,-89.635515,0.010115,
1440,310,-0.441966,-18.100672,0.999998,0.000223,-0.002589,0.007825,0.000081,0.007826,-0.002590,89.554098,0.007973,
1180,1670,0.116397,-2.437845,0.999998,0.000175,-0.002221,0.007127,0.000145,0.007129,-0.002223,89.110903,0.007295,
950,900,2.228687,-11.693957,0.999992,0.000330,-0.006216,0.013077,0.001115,0.013141,-0.006280,86.703916,0.013145,
950,190,0.389325,-18.957450,0.999996,0.000236,-0.002086,0.007713,0.000711,0.007764,-0.002137,85.870716,0.008022,
1020,1270,1.051346,-6.467572,0.999996,0.000254,-0.007575,0.012080,0.002395,0.012368,-0.007862,83.151214,0.012519,
1880,650,-3.260815,-13.551976,0.999996,0.000241,-0.005059,0.010100,-0.000132,0.010101,-0.005060,-89.502437,0.010101,
1690,770,-2.684919,-12.789679,0.999996,0.000247,-0.005774,0.010928,-0.000897,0.010976,-0.005822,-86.933868,0.010983,
1770,1110,-3.661500,-9.288691,0.999995,0.000258,-0.004534,0.009681,0.000755,0.009721,-0.004574,86.969117,0.009726,
1650,1550,-1.630568,-4.389559,0.999996,0.000217,-0.005182,0.010229,-0.000425,0.010241,-0.005194,-88.420383,0.010241,
570,330,2.330695,-16.734822,0.999880,0.001318,-0.004674,0.009679,-0.000024,0.009679,-0.004674,-89.904884,0.009681,
960,1910,0.265133,-0.856431,0.999998,0.000155,-0.001618,0.007302,-0.000807,0.007374,-0.001690,-84.874482,0.007726,
1900,1330,-3.614568,-7.421302,0.999995,0.000000,-0.004920,0.009711,0.000184,0.009713,-0.004922,89.281020,0.009713,
570,1210,3.965818,-8.535095,0.999997,0.000225,-0.004435,0.009137,-0.000201,0.009140,-0.004438,-89.150812,0.009141,
780,600,2.057776,-14.666357,0.999996,0.000240,-0.005622,0.010631,-0.000132,0.010632,-0.005623,-89.534870,0.010638,
1840,370,-2.204674,-16.524881,0.999995,0.000261,-0.004898,0.010064,0.000088,0.010065,-0.004899,89.662823,0.010066,
1880,1430,-3.178245,-6.354323,0.999995,0.000281,-0.005034,0.010140,0.000092,0.010141,-0.005035,89.652446,0.010141,
1180,1280,0.123036,-4.804410,0.999997,0.000221,-0.002933,0.003663,0.002820,0.004705,-0.003974,69.734389,0.005064,
1730,650,-2.474929,-13.988459,0.999994,0.000280,-0.005569,0.010591,-0.000251,0.010595,-0.005573,-89.109231,0.010600,
1810,1970,-0.574976,-0.607630,0.999994,0.000257,-0.002466,0.010089,0.003591,0.011044,-0.003420,75.113216,0.011308,
1550,540,-1.188251,-15.762686,0.999995,0.000287,-0.005201,0.010001,0.000976,0.010063,-0.005263,86.341946,0.010067,
1100,500,0.357739,-16.762336,0.999997,0.000213,-0.003244,0.007642,-0.001134,0.007759,-0.003361,-84.118029,0.007782,
700,390,1.887441,-16.576866,0.999997,0.000221,-0.004905,0.010134,-0.000122,0.010135,-0.004906,-89.536654,0.010136,
1030,1150,1.731464,-7.968646,0.999991,0.000336,-0.006763,0.014474,0.001723,0.014613,-0.006902,85.391534,0.014620,
920,710,1.523069,-13.963282,0.999995,0.000260,-0.006802,0.011621,-0.000757,0.011652,-0.006833,-87.650242,0.011710,
1340,420,-0.265465,-17.404524,0.999998,0.000212,-0.002709,0.007435,0.000598,0.007470,-0.002744,86.636431,0.007557,
1500,1750,-0.594564,-2.111465,0.999997,0.000202,-0.003093,0.008232,0.000013,0.008232,-0.003093,89.934694,0.008316,
1480,960,-2.412232,-11.015747,0.999993,0.000313,-0.005135,0.013834,-0.000754,0.013864,-0.005165,-87.726678,0.014014,
610,1090,4.057362,-9.529704,0.999997,0.000219,-0.004240,0.008707,-0.000126,0.008708,-0.004241,-89.443201,0.008709,
570,1860,1.747166,-2.111073,0.999930,0.000952,-0.005243,0.009783,-0.000505,0.009800,-0.005260,-88.077858,0.009809,
560,600,3.202449,-13.997116,0.999979,0.000000,-0.004594,0.010036,0.000164,0.010038,-0.004596,89.359092,0.010050,
990,810,1.392141,-13.136992,0.999991,0.000361,-0.007832,0.012887,-0.001126,0.012948,-0.007893,-86.898507,0.013051,
930,120,0.249579,-19.466430,0.999997,0.000197,-0.001147,0.007355,0.001102,0.007495,-0.001287,82.733106,0.008016,
1570,430,-1.086555,-16.765982,0.999997,0.000220,-0.004334,0.009441,0.000482,0.009458,-0.004351,87.997574,0.009468,
1080,760,0.556031,-14.536071,0.999993,0.000323,-0.006197,0.009492,-0.003882,0.010400,-0.007105,-76.835868,0.010630,
760,950,3.368033,-10.856878,0.999996,0.000259,-0.004511,0.010113,0.000902,0.010168,-0.004566,86.485021,0.010186,
1850,1680,-2.270176,-3.719119,0.999996,0.000242,-0.004939,0.010019,-0.000083,0.010019,-0.004940,-89.681291,0.010019,
1110,380,0.283085,-17.684011,0.999997,0.000248,-0.002500,0.007542,-0.000369,0.007556,-0.002513,-87.897819,0.007696,
1520,1960,-0.171080,-0.506864,0.999998,0.000178,-0.000886,0.006991,0.001014,0.007120,-0.001015,82.783738,0.007702,
1640,130,-0.443677,-19.327250,0.999997,0.000225,-0.001771,0.008114,-0.001710,0.008401,-0.002059,-80.457614,0.008758,
1020,1010,2.410712,-10.385168,0.999987,0.000412,-0.006558,0.018163,-0.000512,0.018173,-0.006569,-88.814783,0.018405,
1240,1400,-0.019367,-4.172582,0.999998,0.000156,-0.002194,0.005163,-0.000303,0.005175,-0.002207,-87.642928,0.005194,
1870,1760,-2.089951,-2.994078,0.999998,0.000187,-0.004856,0.009785,0.000028,0.009785,-0.004856,89.891546,0.009785,
1420,310,-0.387830,-18.130814,0.999997,0.000223,-0.002684,0.007724,0.000172,0.007727,-0.002687,89.052651,0.007845,
1440,1590,-0.604900,-3.326305,0.999997,0.000194,-0.003691,0.008457,-0.000984,0.008537,-0.003771,-85.397218,0.008556,
1120,710,0.306850,-15.281309,0.999995,0.000273,-0.004148,0.007106,-0.003347,0.008026,-0.005069,-74.626145,0.008118,
950,610,1.109121,-15.200617,0.999996,0.000255,-0.005648,0.010275,-0.001388,0.010395,-0.005768,-85.053946,0.010416,
1870,930,-4.072561,-10.920636,0.999998,0.000179,-0.004282,0.008835,-0.000401,0.008847,-0.004295,-88.252689,0.008848,
1690,750,-2.608077,-13.005427,0.999995,0.000267,-0.005836,0.010954,-0.000764,0.010989,-0.005870,-87.400500,0.010997,
640,1730,1.972602,-3.121304,0.999994,0.000294,-0.004883,0.010021,-0.000024,0.010021,-0.004883,-89.908827,0.010023,
890,1530,1.278177,-4.331076,0.999996,0.000228,-0.005111,0.010045,0.000816,0.010089,-0.005155,86.927226,0.010089,
1290,670,-0.134824,-15.804800,0.999997,0.000213,-0.002722,0.005550,0.001827,0.005935,-0.003108,78.083344,0.005938,
820,980,3.173927,-10.569306,0.999997,0.000216,-0.004097,0.010351,0.000683,0.010384,-0.004129,87.298956,0.010456,
1730,1060,-3.551160,-9.760828,0.999997,0.000221,-0.004261,0.009707,0.000313,0.009714,-0.004268,88.716407,0.009738,
1870,1180,-3.949800,-8.753609,0.999995,0.000277,-0.004370,0.008879,0.000289,0.008886,-0.004377,88.751591,0.008886,
1580,510,-1.284978,-15.955374,0.999996,0.000236,-0.005031,0.009974,0.000734,0.010010,-0.005066,87.207430,0.010010,
1180,1260,0.145724,-4.870599,0.999996,0.000227,-0.003323,0.003334,0.002815,0.004364,-0.004353,69.889584,0.005033,
1600,1660,-1.141450,-3.146654,0.999997,0.000234,-0.004243,0.009422,-0.000226,0.009426,-0.004247,-89.051878,0.009441,
1760,1250,-3.198687,-7.879180,0.999996,0.000252,-0.005194,0.010276,0.000977,0.010337,-0.005256,86.401418,0.010338,
1650,1530,-1.679213,-4.595737,0.999995,0.000236,-0.005271,0.010311,-0.000423,0.010322,-0.005283,-88.447857,0.010323,
640,890,3.779102,-11.343472,0.999997,0.000221,-0.004558,0.009355,0.000588,0.009380,-0.004583,87.582444,0.009381,
860,1760,0.915517,-2.223517,0.999996,0.000231,-0.003662,0.009035,-0.000321,0.009043,-0.003670,-88.552522,0.009096,
1850,1810,-1.783013,-2.415770,0.999997,0.000224,-0.004875,0.010001,0.000197,0.010004,-0.004877,89.240490,0.010005,
1730,630,-2.413843,-14.199439,0.999994,0.000267,-0.005537,0.010577,-0.000166,0.010578,-0.005539,-89.410293,0.010582,
1810,1950,-0.745702,-0.808003,0.999994,0.000288,-0.003046,0.010169,0.002925,0.010787,-0.003665,78.062069,0.010970,
880,410,1.102954,-16.918926,0.999997,0.000218,-0.004297,0.009384,-0.000349,0.009393,-0.004306,-88.539485,0.009404,
1390,150,-0.136588,-19.324566,0.999998,0.000179,-0.000919,0.006772,-0.000395,0.006793,-0.000939,-87.068388,0.007361,
750,1940,0.526810,-0.767152,0.999996,0.000226,-0.001842,0.008789,-0.002499,0.009347,-0.002401,-77.411039,0.009708,
1670,720,-2.376058,-13.391493,0.999994,0.000316,-0.006034,0.011132,-0.000525,0.011148,-0.006050,-88.250494,0.011161,
610,1070,4.074117,-9.704265,0.999997,0.000208,-0.004191,0.008702,-0.000178,0.008704,-0.004193,-89.207167,0.008706,
600,1930,1.137539,-1.249555,0.999996,0.000226,-0.004802,0.010666,-0.001461,0.010803,-0.004938,-84.651787,0.010816,
700,1470,2.449920,-5.586408,0.999996,0.000235,-0.005350,0.010415,-0.000027,0.010415,-0.005350,-89.900671,0.010416,
650,1590,2.354824,-4.510170,0.999995,0.000261,-0.005063,0.010163,0.000162,0.010165,-0.005065,89.389157,0.010165,
1440,200,-0.278957,-18.938405,0.999998,0.000219,-0.001669,0.007313,-0.000448,0.007335,-0.001691,-87.149814,0.007682,
1020,1030,2.419333,-10.040206,0.999991,0.000385,-0.006680,0.017766,0.000015,0.017766,-0.006680,89.964520,0.017948,
1090,380,0.332743,-17.659320,0.999997,0.000177,-0.002510,0.007642,-0.000326,0.007652,-0.002521,-88.162856,0.007799,
1460,1810,-0.388455,-1.578226,0.999997,0.000185,-0.002013,0.007748,0.000384,0.007763,-0.002028,87.750541,0.008053,
580,580,3.050990,-14.254292,0.999996,0.000241,-0.004843,0.010189,0.000054,0.010189,-0.004843,89.793030,0.010194,
570,320,2.296447,-16.833402,0.999896,0.001159,-0.004695,0.009540,0.000053,0.009540,-0.004695,89.785310,0.009541,
1810,600,-2.741269,-14.274007,0.999996,0.000224,-0.005185,0.010241,-0.000087,0.010242,-0.005185,-89.676353,0.010242,
1100,480,0.352547,-16.914186,0.999997,0.000205,-0.003089,0.007645,-0.000938,0.007726,-0.003171,-85.042063,0.007767,
560,590,3.175124,-14.090813,0.999982,0.000000,-0.004586,0.009767,0.000078,0.009767,-0.004587,89.686762,0.009773,
1030,1130,1.891676,-8.267022,0.999992,0.000339,-0.006504,0.014899,0.001845,0.015057,-0.006661,85.109538,0.015090,
1890,790,-3.783613,-12.139203,0.999996,0.000270,-0.004648,0.009305,-0.000182,0.009307,-0.004650,-89.251057,0.009307,
1240,1600,-0.022020,-2.911438,0.999998,0.000177,-0.002483,0.006921,-0.000157,0.006924,-0.002486,-89.043153,0.007015,
650,160,1.144931,-18.768529,0.999994,0.000304,-0.004154,0.010372,0.001703,0.010569,-0.004351,83.401808,0.010624,
860,70,0.172698,-19.807297,0.999998,0.000156,-0.000869,0.007261,0.001633,0.007576,-0.001185,79.056465,0.008151,
1520,1940,-0.221660,-0.652587,0.999997,0.000200,-0.001169,0.007223,0.001034,0.007349,-0.001294,83.079963,0.007846,
1500,1730,-0.633612,-2.282247,0.999996,0.000226,-0.003251,0.008544,-0.000103,0.008545,-0.003252,-89.501825,0.008626,
1120,310,0.215002,-18.216528,0.999998,0.000172,-0.002175,0.007293,-0.000188,0.007297,-0.002179,-88.864001,0.007492,
1480,920,-2.157728,-11.579722,0.999993,0.000301,-0.006201,0.013882,-0.000621,0.013901,-0.006220,-88.231962,0.013926,
670,1620,2.166179,-4.137507,0.999997,0.000220,-0.005032,0.010125,0.000168,0.010127,-0.005034,89.365406,0.010127,
950,630,1.140077,-14.992705,0.999996,0.000245,-0.005812,0.010377,-0.001413,0.010499,-0.005935,-85.050463,0.010529,
1290,650,-0.140690,-15.919473,0.999997,0.000215,-0.002762,0.005807,0.001644,0.006112,-0.003067,79.507053,0.006112,
1080,470,0.413590,-16.941352,0.999996,0.000223,-0.003350,0.007869,-0.001049,0.007966,-0.003448,-84.703761,0.007990,
700,1280,3.106318,-7.576100,0.999997,0.000230,-0.005197,0.010274,-0.000862,0.010322,-0.005245,-86.820989,0.010323,
1690,730,-2.530536,-13.228452,0.999994,0.000280,-0.005899,0.011007,-0.000642,0.011031,-0.005923,-87.827333,0.011041,
1810,960,-3.868364,-10.702794,0.999997,0.000211,-0.004380,0.009201,-0.000375,0.009212,-0.004390,-88.418705,0.009215,
880,880,2.536504,-11.743121,0.999994,0.000296,-0.005759,0.011894,0.001429,0.012009,-0.005873,85.402728,0.012010,
740,1600,1.874230,-4.112994,0.999997,0.000209,-0.005022,0.010139,0.000222,0.010142,-0.005025,89.162452,0.010142,
820,960,3.127720,-10.780796,0.999996,0.000261,-0.004279,0.010489,0.000971,0.010553,-0.004343,86.253619,0.010608,
900,1090,2.803071,-9.377939,0.999997,0.000260,-0.004229,0.011351,-0.001087,0.011426,-0.004304,-86.028444,0.011541,
1180,1240,0.201577,-4.931633,0.999995,0.000246,-0.003908,0.003161,0.002451,0.003928,-0.004675,72.630108,0.005023,
1600,1680,-1.098854,-2.957018,0.999997,0.000207,-0.004156,0.009314,-0.000164,0.009316,-0.004158,-89.302380,0.009334,
1810,1930,-0.894142,-1.019393,0.999995,0.000261,-0.003627,0.010378,0.002454,0.010795,-0.004045,80.345542,0.010908,
1590,320,-0.927643,-17.739673,0.999996,0.000265,-0.003825,0.009178,-0.000097,0.009179,-0.003826,-89.573932,0.009221,
1870,160,-1.418135,-18.509605,0.999996,0.000238,-0.004896,0.010218,-0.000826,0.010263,-0.004941,-86.881851,0.010266,
620,890,3.867857,-11.316984,0.999995,0.000288,-0.004439,0.009102,0.000452,0.009117,-0.004454,88.091127,0.009118,
1870,1250,-3.739033,-8.104788,0.999996,0.000251,-0.004654,0.009282,0.000326,0.009290,-0.004661,88.659203,0.009290,
680,1470,2.555725,-5.646843,0.999995,0.000263,-0.005256,0.010358,-0.000033,0.010358,-0.005256,-89.879524,0.010358,
1490,1700,-0.649273,-2.514391,0.999997,0.000188,-0.003449,0.008442,-0.000360,0.008452,-0.003460,-88.265751,0.008499,
730,1920,0.683869,-0.964227,0.999998,0.000205,-0.002879,0.009113,-0.002173,0.009495,-0.003261,-80.040132,0.009649,
1770,1090,-3.698297,-9.482832,0.999995,0.000251,-0.004450,0.009535,0.000473,0.009551,-0.004466,88.065342,0.009557,
610,1050,4.089057,-9.880186,0.999998,0.000200,-0.004183,0.008748,-0.000248,0.008753,-0.004187,-88.900192,0.008755,
1440,180,-0.243911,-19.085445,0.999998,0.000225,-0.001462,0.007129,-0.000477,0.007155,-0.001488,-86.831848,0.007551,
1530,920,-2.448971,-11.379537,0.999994,0.000304,-0.005466,0.012532,-0.001400,0.012640,-0.005574,-85.579165,0.012669,
1520,1920,-0.269424,-0.795080,0.999997,0.000205,-0.001385,0.007275,0.000911,0.007370,-0.001480,84.057500,0.007797,
1640,90,-0.281124,-19.645483,0.999997,0.000181,-0.001110,0.007639,-0.001868,0.008021,-0.001492,-78.440757,0.008532,
1850,1180,-3.861827,-8.718148,0.999995,0.000278,-0.004491,0.009166,0.000488,0.009183,-0.004508,87.958012,0.009184,
880,390,1.060499,-17.105523,0.999996,0.000244,-0.004217,0.009341,-0.000278,0.009347,-0.004223,-88.825223,0.009361,
1160,450,0.176221,-17.241947,0.999998,0.000203,-0.002648,0.007207,-0.000471,0.007229,-0.002670,-87.268747,0.007311,
580,1930,1.233076,-1.347369,0.999996,0.000235,-0.004687,0.010658,-0.001681,0.010840,-0.004869,-83.820466,0.010859,
650,820,3.517720,-12.033541,0.999995,0.000246,-0.004836,0.009701,0.000745,0.009739,-0.004875,87.073953,0.009739,
1650,1510,-1.726721,-4.803130,0.999996,0.000239,-0.005398,0.010408,-0.000420,0.010419,-0.005409,-88.479911,0.010422,
1100,460,0.343843,-17.067864,0.999997,0.000213,-0.002937,0.007632,-0.000765,0.007687,-0.002992,-85.882812,0.007750,
950,650,1.177058,-14.785832,0.999995,0.000256,-0.006078,0.010653,-0.001410,0.010771,-0.006196,-85.215424,0.010812,
650,140,1.014287,-18.975514,0.999995,0.000276,-0.003926,0.010297,0.002064,0.010591,-0.004219,81.908834,0.010663,
860,1780,0.853925,-2.038715,0.999996,0.000220,-0.003528,0.008988,-0.000468,0.009005,-0.003546,-87.861943,0.009073,
1230,1390,0.002986,-4.219103,0.999997,0.000181,-0.002159,0.004970,0.000062,0.004971,-0.002160,89.505125,0.004985,
880,860,2.440117,-11.980113,0.999994,0.000310,-0.006101,0.011958,0.001290,0.012049,-0.006192,85.934170,0.012051,
760,750,2.683266,-12.977331,0.999994,0.000296,-0.005711,0.010816,0.000788,0.010853,-0.005748,87.277129,0.010859,
1850,1790,-1.873576,-2.622242,0.999997,0.000219,-0.004838,0.010029,0.000140,0.010030,-0.004839,89.460013,0.010032,
1030,1110,2.052273,-8.560556,0.999991,0.000379,-0.006463,0.015782,0.002101,0.015979,-0.006659,84.651126,0.016053,
1180,1220,0.289923,-4.992558,0.999991,0.000337,-0.004977,0.003191,0.001272,0.003384,-0.005170,81.350237,0.005252,
1690,710,-2.459153,-13.450029,0.999996,0.000263,-0.005917,0.010966,-0.000515,0.010981,-0.005933,-88.255189,0.010993,
1610,190,-0.605640,-18.857662,0.999997,0.000228,-0.002561,0.008454,-0.001150,0.008573,-0.002679,-84.104437,0.008771,
820,940,3.079708,-10.990874,0.999996,0.000271,-0.004513,0.010542,0.001049,0.010615,-0.004586,86.033086,0.010648,
710,620,2.505261,-14.236061,0.999996,0.000240,-0.005403,0.010447,0.000137,0.010448,-0.005405,89.505566,0.010450,
1000,1850,0.324359,-1.274723,0.999997,0.000213,-0.001648,0.007501,-0.000540,0.007533,-0.001679,-86.633636,0.007909,
1390,130,-0.115446,-19.456383,0.999998,0.000170,-0.000791,0.006643,-0.000436,0.006669,-0.000817,-86.657106,0.007275,
1580,270,-0.760129,-18.209860,0.999997,0.000214,-0.003391,0.008709,-0.000406,0.008722,-0.003405,-88.079136,0.008792,
1480,380,-0.650289,-17.456079,0.999997,0.000222,-0.003444,0.008535,0.000458,0.008553,-0.003462,87.814387,0.008604,
1470,1700,-0.583851,-2.471185,0.999997,0.000195,-0.002999,0.008249,-0.000256,0.008255,-0.003005,-88.697584,0.008356,
650,1570,2.411597,-4.712800,0.999995,0.000265,-0.005087,0.010180,0.000146,0.010182,-0.005088,89.451404,0.010182,
1770,1070,-3.716312,-9.673558,0.999996,0.000215,-0.004372,0.009488,0.000278,0.009493,-0.004378,88.849533,0.009503,
1820,150,-1.109894,-18.852482,0.999996,0.000311,-0.004304,0.010359,-0.001611,0.010534,-0.004479,-83.802768,0.010573,
1630,1060,-3.139658,-9.741411,0.999997,0.000250,-0.003985,0.010336,0.000471,0.010351,-0.004001,88.116499,0.010440,
650,1020,3.929556,-10.149262,0.999998,0.000177,-0.004335,0.009234,0.000160,0.009235,-0.004337,89.325563,0.009241,
1670,2000,-0.162031,-0.258890,0.999997,0.000194,-0.001078,0.007379,0.001968,0.007814,-0.001514,77.523480,0.008288,
1460,1430,-0.836796,-4.857152,0.999996,0.000224,-0.005345,0.009659,-0.001938,0.009905,-0.005592,-82.756873,0.009933,
590,650,3.225585,-13.574104,0.999996,0.000266,-0.004925,0.010042,0.000116,0.010042,-0.004926,89.557184,0.010043,
1440,160,-0.215356,-19.225510,0.999998,0.000206,-0.001292,0.007082,-0.000567,0.007120,-0.001330,-86.146267,0.007572,
610,1030,4.105084,-10.057071,0.999997,0.000228,-0.004194,0.008827,-0.000029,0.008827,-0.004194,-89.871444,0.008831,
1530,190,-0.421702,-18.940784,0.999997,0.000211,-0.001932,0.007813,-0.000847,0.007886,-0.002005,-85.070716,0.008197,
1640,70,-0.197615,-19.798487,0.999997,0.000175,-0.000743,0.007481,-0.001923,0.007909,-0.001171,-77.471024,0.008537,
1100,440,0.337020,-17.217775,0.999997,0.000210,-0.002824,0.007606,-0.000637,0.007644,-0.002862,-86.516755,0.007724,
1040,250,0.321228,-18.582700,0.999997,0.000204,-0.002146,0.007480,0.000118,0.007482,-0.002147,89.299949,0.007705,
1510,920,-2.335059,-11.444672,0.999994,0.000321,-0.005695,0.013041,-0.001238,0.013123,-0.005777,-86.235824,0.013154,
1140,450,0.230332,-17.210795,0.999997,0.000223,-0.002770,0.007351,-0.000698,0.007398,-0.002818,-86.072656,0.007468,
1270,780,-0.094415,-15.411857,0.999997,0.000217,-0.002701,0.003051,0.002216,0.003806,-0.003456,71.188367,0.004207,
950,670,1.222309,-14.563160,0.999995,0.000263,-0.006354,0.011019,-0.001416,0.011134,-0.006469,-85.369581,0.011182,
1730,610,-2.349985,-14.412592,0.999995,0.000243,-0.005508,0.010528,-0.000101,0.010528,-0.005509,-89.637366,0.010532,
1420,1370,-0.679451,-5.202627,0.999993,0.000298,-0.005664,0.009645,-0.002763,0.010129,-0.006147,-80.076545,0.010206,
560,580,3.146201,-14.193051,0.999989,0.000000,-0.004634,0.010186,0.000063,0.010186,-0.004634,89.754794,0.010200,
920,810,1.921349,-12.735800,0.999996,0.000236,-0.007069,0.012544,0.000394,0.012552,-0.007077,88.848305,0.012586,
870,290,0.863270,-18.002171,0.999998,0.000175,-0.003654,0.008940,0.000313,0.008948,-0.003662,88.576488,0.008997,
630,300,1.928831,-17.255432,0.999998,0.000186,-0.004875,0.010080,0.000094,0.010081,-0.004875,89.639897,0.010082,
880,840,2.339169,-12.223325,0.999994,0.000315,-0.006379,0.012093,0.001120,0.012161,-0.006446,86.543559,0.012168,
1010,1040,2.471352,-9.881931,0.999986,0.000478,-0.005689,0.016640,0.000212,0.016642,-0.005691,89.456010,0.016916,
1850,1770,-1.955931,-2.818378,0.999997,0.000225,-0.004853,0.009898,0.000070,0.009898,-0.004853,89.728520,0.009899,
1390,550,-0.471555,-16.279122,0.999996,0.000223,-0.003700,0.008051,0.001529,0.008247,-0.003895,82.706437,0.008251,
820,920,3.017186,-11.205438,0.999996,0.000250,-0.004773,0.010809,0.001295,0.010916,-0.004880,85.280134,0.010937,
1180,820,0.218408,-15.209306,0.999993,0.000311,-0.004114,0.003182,-0.002252,0.003821,-0.004753,-74.155823,0.005037,
1580,250,-0.707850,-18.381412,0.999997,0.000182,-0.003199,0.008639,-0.000555,0.008665,-0.003225,-87.320766,0.008759,
1240,460,-0.021557,-17.215018,0.999997,0.000203,-0.002501,0.006944,0.000153,0.006946,-0.002504,89.074848,0.007036,
1810,1910,-1.036273,-1.225706,0.999996,0.000251,-0.003869,0.010275,0.002039,0.010563,-0.004157,81.959449,0.010643,
1470,1680,-0.611601,-2.640495,0.999997,0.000242,-0.003229,0.008449,-0.000383,0.008461,-0.003242,-88.122185,0.008538,
1140,1250,0.329397,-5.317802,0.999994,0.000283,-0.004712,0.005808,0.004193,0.007274,-0.006179,70.718301,0.007844,
580,510,2.840522,-14.971800,0.999998,0.000184,-0.005137,0.010057,-0.000095,0.010057,-0.005138,-89.641865,0.010058,
800,890,3.006101,-11.512752,0.999996,0.000263,-0.005024,0.010751,0.001288,0.010856,-0.005128,85.363721,0.010861,
1610,170,-0.542787,-19.017263,0.999996,0.000227,-0.002271,0.008211,-0.001256,0.008359,-0.002419,-83.261538,0.008603,
980,1850,0.357853,-1.290491,0.999997,0.000210,-0.001922,0.007613,-0.000538,0.007643,-0.001953,-86.779393,0.007942,
1890,1930,-1.263670,-1.381583,0.999994,0.000314,-0.004796,0.010813,0.001581,0.010971,-0.004955,84.275714,0.010988,
1610,1060,-3.061052,-9.736266,0.999996,0.000228,-0.003912,0.010512,0.000507,0.010530,-0.003930,87.991255,0.010642,
640,450,2.362014,-15.771421,0.999996,0.000246,-0.005039,0.010119,-0.000145,0.010120,-0.005041,-89.451595,0.010120,
580,670,3.341890,-13.339541,0.999996,0.000250,-0.005000,0.010120,0.000233,0.010124,-0.005004,89.118031,0.010124,
1770,1050,-3.732193,-9.864365,0.999996,0.000222,-0.004342,0.009532,0.000337,0.009540,-0.004351,88.607935,0.009553,
650,1550,2.471621,-4.919489,0.999995,0.000268,-0.005113,0.010174,0.000108,0.010174,-0.005114,89.596590,0.010174,
610,1010,4.091634,-10.235691,0.999997,0.000202,-0.004200,0.008822,0.000254,0.008827,-0.004205,88.884854,0.008831,
1560,730,-1.707173,-13.647931,0.999993,0.000353,-0.006902,0.011839,0.000371,0.011846,-0.006910,88.867188,0.011901,
1460,1410,-0.859367,-5.050031,0.999994,0.000293,-0.005611,0.009877,-0.002064,0.010148,-0.005882,-82.537191,0.010191,
1690,690,-2.386002,-13.667474,0.999995,0.000268,-0.005874,0.010907,-0.000382,0.010915,-0.005882,-88.695206,0.010926,
1480,360,-0.621233,-17.627288,0.999997,0.000223,-0.003235,0.008367,0.000339,0.008377,-0.003245,88.329713,0.008448,
1440,140,-0.179403,-19.369537,0.999998,0.000197,-0.001087,0.006914,-0.000571,0.006955,-0.001128,-85.935669,0.007465,
940,470,0.946782,-16.533770,0.999998,0.000176,-0.004458,0.009365,-0.000846,0.009416,-0.004509,-86.509981,0.009419,
880,350,0.972689,-17.477403,0.999997,0.000201,-0.004064,0.009209,-0.000144,0.009211,-0.004066,-89.379166,0.009232,
920,790,1.827873,-12.986495,0.999995,0.000256,-0.007134,0.012407,0.000105,0.012408,-0.007135,89.693461,0.012455,
1640,1570,-1.530972,-4.149526,0.999996,0.000220,-0.005055,0.010065,-0.000439,0.010078,-0.005068,-88.336756,0.010078,
940,1790,0.584909,-1.818443,0.999995,0.000253,-0.002781,0.008221,-0.000341,0.008232,-0.002791,-88.226660,0.008372,
1100,420,0.328478,-17.370145,0.999997,0.000206,-0.002714,0.007550,-0.000546,0.007579,-0.002743,-86.963274,0.007674,
1520,360,-0.765814,-17.528023,0.999997,0.000229,-0.003475,0.008668,0.000216,0.008672,-0.003479,88.983323,0.008728,
1620,70,-0.183699,-19.802258,0.999997,0.000194,-0.000703,0.007396,-0.001777,0.007769,-0.001076,-78.152903,0.008419,
750,940,3.391360,-10.951319,0.999994,0.000273,-0.004526,0.010013,0.000884,0.010067,-0.004580,86.535129,0.010080,
1340,590,-0.295785,-16.153671,0.999997,0.000238,-0.003353,0.007238,0.001719,0.007510,-0.003625,81.008663,0.007512,
630,280,1.854126,-17.458320,0.999997,0.000193,-0.004870,0.010048,0.000145,0.010050,-0.004871,89.444273,0.010051,
1290,630,-0.143419,-16.041273,0.999997,0.000194,-0.002778,0.006032,0.001455,0.006266,-0.003012,80.862640,0.006268,
880,820,2.243904,-12.467910,0.999995,0.000285,-0.006528,0.012097,0.000910,0.012141,-0.006572,87.207867,0.012155,
1350,380,-0.276578,-17.687807,0.999998,0.000161,-0.002517,0.007531,0.000377,0.007545,-0.002531,87.853591,0.007680,
570,1910,1.442773,-1.607039,0.999536,0.002670,-0.005515,0.010177,-0.001691,0.010357,-0.005696,-83.917691,0.010374,
950,1110,2.494922,-9.049289,0.999994,0.000312,-0.004999,0.012719,-0.001259,0.012808,-0.005088,-85.954924,0.012898,
1180,800,0.153215,-15.273405,0.999996,0.000273,-0.003459,0.003277,-0.002758,0.004262,-0.004444,-70.345125,0.005030,
1390,570,-0.474267,-16.120079,0.999996,0.000217,-0.003864,0.008043,0.001706,0.008283,-0.004104,82.004500,0.008283,
870,270,0.805479,-18.184009,0.999997,0.000216,-0.003497,0.008840,0.000452,0.008857,-0.003513,87.903956,0.008920,
820,900,2.942731,-11.424648,0.999997,0.000236,-0.005041,0.010903,0.001335,0.011014,-0.005152,85.245997,0.011021,
1560,250,-0.646103,-18.414903,0.999997,0.000223,-0.002751,0.008505,-0.000608,0.008538,-0.002784,-86.918981,0.008709,
1850,1750,-2.032411,-3.020383,0.999997,0.000233,-0.004863,0.010003,0.000013,0.010003,-0.004863,89.949840,0.010005,
1010,1720,0.512042,-2.282287,0.999996,0.000218,-0.002726,0.008076,0.000132,0.008078,-0.002728,89.297605,0.008219,
1240,420,-0.021945,-17.496682,0.999997,0.000194,-0.002350,0.007062,0.000136,0.007064,-0.002352,89.174190,0.007194,
570,310,2.258759,-16.928396,0.999934,0.000962,-0.004644,0.009496,0.000122,0.009497,-0.004645,89.504233,0.009498,
680,1030,3.802252,-10.056012,0.999997,0.000212,-0.004345,0.009432,-0.000038,0.009432,-0.004345,-89.841436,0.009442,
1030,1090,2.177713,-8.910689,0.999984,0.000550,-0.006803,0.017180,0.002289,0.017397,-0.007020,84.596953,0.017504,
1880,1930,-1.216299,-1.333522,0.999996,0.000266,-0.004775,0.010758,0.001532,0.010908,-0.004924,84.421138,0.010925,
780,1850,0.885662,-1.548699,0.999996,0.000212,-0.003568,0.009266,-0.001210,0.009379,-0.003681,-84.660359,0.009451,
1770,1060,-3.723641,-9.769145,0.999996,0.000216,-0.004365,0.009491,0.000314,0.009499,-0.004372,88.701358,0.009509,
610,990,4.075611,-10.413665,0.999997,0.000207,-0.004205,0.008743,0.000178,0.008745,-0.004208,89.213624,0.008747,
1650,1490,-1.779372,-5.014222,0.999996,0.000221,-0.005510,0.010475,-0.000388,0.010484,-0.005519,-88.611704,0.010489,
650,1530,2.529959,-5.121899,0.999995,0.000262,-0.005147,0.010202,0.000091,0.010203,-0.005147,89.658781,0.010203,
1770,1030,-3.747829,-10.056220,0.999997,0.000204,-0.004332,0.009534,0.000069,0.009535,-0.004332,89.715433,0.009548,
580,650,3.275642,-13.541880,0.999996,0.000232,-0.004593,0.009901,0.000016,0.009901,-0.004593,89.935738,0.009909,
560,570,3.116508,-14.298000,0.999991,0.000000,-0.004714,0.010294,0.000034,0.010294,-0.004714,89.870103,0.010306,
1610,150,-0.464006,-19.188567,0.999996,0.000239,-0.002014,0.008147,-0.001422,0.008343,-0.002210,-82.182680,0.008645,
1440,120,-0.151738,-19.503987,0.999998,0.000181,-0.000906,0.006830,-0.000637,0.006882,-0.000958,-85.321820,0.007456,
1730,590,-2.287120,-14.624384,0.999995,0.000254,-0.005448,0.010482,0.000011,0.010482,-0.005448,89.959131,0.010485,
1390,590,-0.480812,-15.961276,0.999996,0.000217,-0.004068,0.008155,0.001964,0.008463,-0.004376,81.090696,0.008465,
1340,400,-0.258639,-17.552920,0.999997,0.000200,-0.002638,0.007381,0.000562,0.007413,-0.002669,86.799987,0.007509,
1620,1370,-1.946895,-6.218267,0.999997,0.000207,-0.006235,0.011268,-0.000075,0.011268,-0.006235,-89.754922,0.011289,
1430,1040,-2.320812,-9.833628,0.999978,0.000715,-0.008309,0.020509,-0.000787,0.020531,-0.008330,-88.436632,0.020652,
960,950,2.469217,-11.079908,0.999994,0.000267,-0.004999,0.013029,0.001169,0.013104,-0.005074,86.306319,0.013215,
780,890,3.105675,-11.491911,0.999996,0.000244,-0.005016,0.010597,0.001247,0.010696,-0.005115,85.460621,0.010699,
1530,1500,-1.109116,-4.469421,0.999996,0.000251,-0.005195,0.009963,-0.001138,0.010048,-0.005280,-85.730254,0.010053,
1810,1890,-1.164641,-1.435058,0.999996,0.000250,-0.004151,0.010385,0.001711,0.010583,-0.004350,83.377050,0.010639,
880,800,2.148189,-12.710929,0.999995,0.000279,-0.006649,0.012114,0.000692,0.012139,-0.006674,87.891027,0.012160,
780,1750,1.254244,-2.498501,0.999997,0.000213,-0.004348,0.009632,-0.000294,0.009638,-0.004355,-88.795191,0.009653,
1890,1180,-4.036873,-8.797673,0.999997,0.000192,-0.004345,0.008568,0.000105,0.008569,-0.004346,89.535081,0.008570,
860,1270,2.214749,-7.328612,0.999997,0.000208,-0.006522,0.011856,-0.000676,0.011881,-0.006546,-87.896311,0.011901,
820,1320,2.266604,-6.862357,0.999996,0.000287,-0.006222,0.011328,-0.000471,0.011341,-0.006234,-88.464362,0.011360,
1180,780,0.124946,-15.339258,0.999996,0.000298,-0.003016,0.003654,-0.002859,0.004712,-0.004074,-69.694939,0.005113,
1820,1550,-2.507710,-4.940898,0.999996,0.000256,-0.005121,0.010158,-0.000122,0.010159,-0.005122,-89.542466,0.010160,
1290,1230,-0.264364,-5.030065,0.999992,0.000334,-0.004284,0.003471,-0.002355,0.004130,-0.004943,-74.360434,0.005301,
950,1090,2.596718,-9.303828,0.999995,0.000277,-0.004462,0.012535,-0.001067,0.012601,-0.004529,-86.422613,0.012766,
590,510,2.789866,-15.002905,0.999997,0.000216,-0.005074,0.010087,-0.000053,0.010088,-0.005074,-89.798929,0.010088,
1600,1630,-1.207069,-3.431236,0.999998,0.000240,-0.004473,0.009622,-0.000355,0.009631,-0.004482,-88.558854,0.009639,
1310,780,-0.220449,-15.117854,0.999997,0.000224,-0.003860,0.005139,0.003839,0.006554,-0.005275,69.762750,0.006948,
1430,1380,-0.724937,-5.172371,0.999994,0.000277,-0.005656,0.009756,-0.002554,0.010168,-0.006068,-80.833295,0.010232,
700,1260,3.177413,-7.782564,0.999997,0.000222,-0.005158,0.010274,-0.000916,0.010328,-0.005212,-86.615141,0.010328,
1520,1380,-1.277295,-5.689860,0.999994,0.000283,-0.006402,0.011120,-0.001287,0.011214,-0.006496,-85.820423,0.011261,
1820,130,-0.966121,-19.064323,0.999994,0.000302,-0.004142,0.010438,-0.001987,0.010704,-0.004408,-82.376047,0.010760,
1870,1930,-1.170265,-1.284799,0.999996,0.000254,-0.004763,0.010724,0.001476,0.010863,-0.004903,84.604142,0.010881,
1100,400,0.320678,-17.518756,0.999997,0.000209,-0.002596,0.007519,-0.000438,0.007538,-0.002615,-87.523871,0.007655,
1570,410,-1.046980,-16.954529,0.999996,0.000237,-0.004257,0.009369,0.000410,0.009382,-0.004269,88.279657,0.009394,
720,50,0.195377,-19.914890,0.999997,0.000222,-0.001263,0.008067,0.002937,0.008915,-0.002110,73.901729,0.009318,
1500,250,-0.490083,-18.497007,0.999997,0.000203,-0.002656,0.008010,-0.000327,0.008020,-0.002666,-88.245906,0.008168,
750,100,0.441340,-19.525002,0.999997,0.000215,-0.001533,0.008362,0.002426,0.008925,-0.002096,76.938500,0.009333,
560,560,3.081636,-14.404100,0.999993,0.000000,-0.004816,0.010216,-0.000028,0.010216,-0.004816,-89.893391,0.010222,
740,1800,1.240232,-2.106269,0.999996,0.000235,-0.004034,0.009851,-0.000896,0.009908,-0.004092,-86.324164,0.009958,
580,630,3.208974,-13.744891,0.999997,0.000234,-0.004725,0.010227,0.000036,0.010228,-0.004725,89.861448,0.010237,
940,510,1.008910,-16.152752,0.999997,0.000226,-0.004691,0.009513,-0.000994,0.009583,-0.004761,-86.015936,0.009583,
590,1070,4.155921,-9.715449,0.999997,0.000228,-0.004067,0.008445,-0.000131,0.008446,-0.004069,-89.398004,0.008448,
1230,1830,0.002143,-1.300274,0.999998,0.000152,-0.001447,0.006748,-0.000013,0.006748,-0.001447,-89.907235,0.007105,
1650,1470,-1.832410,-5.225399,0.999996,0.000214,-0.005609,0.010586,-0.000313,0.010592,-0.005615,-88.894071,0.010598,
750,300,1.367829,-17.631170,0.999997,0.000229,-0.004272,0.009828,0.000465,0.009843,-0.004287,88.112933,0.009871,
1100,870,0.976498,-13.765665,0.999993,0.000322,-0.004477,0.007775,-0.004471,0.009233,-0.005935,-71.938452,0.009358,
1210,1240,0.089906,-4.750874,0.999992,0.000351,-0.004035,0.002273,0.000936,0.002409,-0.004171,81.732328,0.004188,
1340,570,-0.295548,-16.298745,0.999996,0.000244,-0.003244,0.007282,0.001481,0.007486,-0.003448,82.143833,0.007494,
1850,1730,-2.102351,-3.219521,0.999996,0.000228,-0.004846,0.009948,-0.000093,0.009948,-0.004847,-89.638748,0.009950,
1890,1380,-3.394187,-6.893635,0.999995,0.000271,-0.004979,0.010074,0.000101,0.010075,-0.004980,89.615243,0.010075,
760,1850,0.954077,-1.583747,0.999996,0.000248,-0.003456,0.009496,-0.001393,0.009644,-0.003604,-83.928474,0.009746,
1030,1510,0.641625,-3.998939,0.999996,0.000221,-0.004317,0.008682,0.001557,0.008866,-0.004501,83.264992,0.008866,
1590,380,-1.068465,-17.180126,0.999996,0.000243,-0.004191,0.009305,0.000245,0.009310,-0.004196,88.959340,0.009325,
1420,790,-0.895541,-13.845365,0.999992,0.000353,-0.007500,0.011515,0.003008,0.011980,-0.007965,81.223107,0.012195,
870,250,0.753102,-18.355886,0.999997,0.000206,-0.003302,0.008755,0.000596,0.008784,-0.003332,87.178819,0.008869,
1810,1870,-1.290078,-1.645907,0.999995,0.000264,-0.004316,0.010255,0.001366,0.010382,-0.004443,84.691408,0.010418,
1600,1370,-1.820824,-6.147644,0.999996,0.000238,-0.006355,0.011316,-0.000277,0.011321,-0.006360,-89.103411,0.011349,
610,970,4.060165,-10.588009,0.999996,0.000218,-0.004202,0.008677,0.000100,0.008678,-0.004203,89.557087,0.008680,
1900,1320,-3.648637,-7.519242,0.999995,0.000000,-0.004883,0.009679,0.000172,0.009681,-0.004885,89.322093,0.009681,
1690,670,-2.318797,-13.889198,0.999995,0.000264,-0.005809,0.010824,-0.000269,0.010828,-0.005814,-89.074492,0.010838,
1700,830,-2.974696,-12.114298,0.999996,0.000229,-0.005376,0.010734,-0.001162,0.010818,-0.005459,-85.897307,0.010818,
1530,1480,-1.142521,-4.674278,0.999997,0.000243,-0.005390,0.010127,-0.001179,0.010216,-0.005479,-85.679450,0.010225,
850,1160,2.772221,-8.645630,0.999994,0.000292,-0.005266,0.011324,-0.001402,0.011441,-0.005384,-85.202689,0.011448,
1880,670,-3.329293,-13.348845,0.999996,0.000240,-0.005008,0.010108,-0.000120,0.010109,-0.005009,-89.546677,0.010109,
1480,340,-0.590636,-17.793157,0.999996,0.000219,-0.003055,0.008291,0.000198,0.008295,-0.003058,89.001658,0.008390,
1150,1920,0.056724,-0.717191,0.999998,0.000142,-0.000746,0.006460,-0.000208,0.006466,-0.000752,-88.345932,0.007072,
780,580,2.000539,-14.879957,0.999996,0.000224,-0.005522,0.010526,-0.000171,0.010528,-0.005524,-89.390058,0.010532,
880,780,2.058175,-12.956948,0.999996,0.000230,-0.006702,0.012011,0.000461,0.012022,-0.006713,88.588614,0.012050,
1350,1220,-0.624550,-5.885804,0.999993,0.000309,-0.005660,0.007797,-0.004348,0.009080,-0.006942,-73.564076,0.009495,
1000,1790,0.429431,-1.735748,0.999996,0.000214,-0.002142,0.007792,-0.000261,0.007799,-0.002149,-88.497989,0.008057,
1760,450,-2.044767,-15.976522,0.999996,0.000241,-0.005038,0.010127,0.000182,0.010129,-0.005041,89.313346,0.010130,
1880,790,-3.737510,-12.167740,0.999996,0.000267,-0.004674,0.009399,-0.000246,0.009403,-0.004679,-88.999858,0.009403,
950,1070,2.668564,-9.549618,0.999995,0.000282,-0.004014,0.012544,-0.000809,0.012584,-0.004053,-87.210479,0.012846,
870,1460,1.533195,-5.130101,0.999996,0.000236,-0.005711,0.010534,0.000659,0.010561,-0.005738,87.682255,0.010574,
820,1340,2.193535,-6.635663,0.999997,0.000287,-0.006193,0.011309,-0.000328,0.011315,-0.006199,-88.927709,0.011332,
1180,760,0.116078,-15.408669,0.999997,0.000227,-0.002773,0.003949,-0.002676,0.004884,-0.003708,-70.739661,0.005098,
1520,1340,-1.383088,-6.148222,0.999993,0.000311,-0.006895,0.011623,-0.001089,0.011686,-0.006959,-86.646511,0.011757,
1810,1700,-2.007296,-3.381822,0.999997,0.000201,-0.004972,0.010052,0.000000,0.010052,-0.004972,-89.998137,0.010052,
1290,610,-0.146180,-16.165201,0.999998,0.000201,-0.002790,0.006230,0.001281,0.006409,-0.002968,82.070132,0.006414,
1820,110,-0.818247,-19.276215,0.999993,0.000307,-0.003761,0.010394,-0.002398,0.010789,-0.004156,-80.642367,0.010884,
1100,380,0.307644,-17.672340,0.999997,0.000215,-0.002489,0.007591,-0.000333,0.007602,-0.002500,-88.110676,0.007749,
720,40,0.134332,-19.993284,0.999997,0.000215,-0.000977,0.007900,0.002963,0.008798,-0.001875,73.137840,0.009268,
730,1990,0.272896,-0.361699,0.999996,0.000229,-0.001346,0.008129,-0.002685,0.008837,-0.002054,-75.225776,0.009249,
1480,250,-0.438384,-18.523281,0.999997,0.000223,-0.002256,0.007858,-0.000353,0.007870,-0.002268,-88.003188,0.008102,
1570,390,-1.006271,-17.142379,0.999996,0.000241,-0.004181,0.009263,0.000320,0.009270,-0.004189,88.636701,0.009285,
1300,710,-0.156780,-15.549068,0.999995,0.000256,-0.002947,0.005408,0.002541,0.006120,-0.003659,74.343439,0.006159,
700,1240,3.249638,-7.986866,0.999995,0.000280,-0.005131,0.010268,-0.000995,0.010332,-0.005195,-86.319857,0.010332,
560,550,3.055683,-14.502306,0.999995,0.000000,-0.004868,0.010132,-0.000063,0.010133,-0.004868,-89.759477,0.010135,
770,1960,0.384441,-0.583025,0.999997,0.000185,-0.001637,0.008134,-0.002184,0.008600,-0.002103,-77.958180,0.008966,
1650,1450,-1.885055,-5.438968,0.999996,0.000211,-0.005699,0.010735,-0.000250,0.010738,-0.005702,-89.130231,0.010745,
1450,720,-0.916683,-14.387962,0.999995,0.000286,-0.006656,0.010926,0.002411,0.011250,-0.006980,82.332149,0.011358,
1880,1180,-3.993478,-8.774516,0.999995,0.000251,-0.004341,0.008737,0.000177,0.008740,-0.004343,89.222838,0.008740,
940,490,0.978940,-16.343284,0.999997,0.000221,-0.004609,0.009465,-0.000929,0.009526,-0.004670,-86.240279,0.009526,
1030,1530,0.626461,-3.824910,0.999996,0.000233,-0.004224,0.008646,0.001461,0.008810,-0.004388,83.603410,0.008810,
750,280,1.294418,-17.830631,0.999997,0.000249,-0.004119,0.009802,0.000668,0.009834,-0.004151,87.259642,0.009874,
1850,1710,-2.169996,-3.418930,0.999996,0.000236,-0.004827,0.009926,-0.000126,0.009927,-0.004828,-89.510966,0.009929,
1480,1370,-1.043070,-5.581687,0.999997,0.000182,-0.006372,0.010813,-0.001879,0.011016,-0.006576,-83.830900,0.011085,
1500,990,-2.631278,-10.564029,0.999995,0.000335,-0.004133,0.013132,-0.000635,0.013155,-0.004157,-87.895193,0.013449,
1830,1060,-3.983260,-9.784309,0.999997,0.000234,-0.004245,0.008982,0.000254,0.008987,-0.004249,88.901414,0.008991,
1500,1510,-0.946917,-4.257476,0.999996,0.000254,-0.004855,0.009559,-0.001286,0.009673,-0.004969,-84.941324,0.009674,
1660,1130,-3.114320,-9.022695,0.999997,0.000248,-0.004645,0.010525,0.001145,0.010611,-0.004731,85.708677,0.010632,
610,950,4.041715,-10.760860,0.999997,0.000202,-0.004268,0.008832,0.000279,0.008838,-0.004274,88.780038,0.008839,
1090,1600,0.372248,-3.073951,0.999995,0.000267,-0.003073,0.007731,0.000844,0.007797,-0.003139,85.560153,0.007846,
1230,1810,0.002014,-1.436763,0.999998,0.000172,-0.001546,0.006833,-0.000007,0.006833,-0.001546,-89.950378,0.007166,
1690,1780,-1.181404,-2.224778,0.999997,0.000188,-0.004159,0.009635,0.000580,0.009660,-0.004184,87.598451,0.009688,
570,880,4.058847,-11.315764,0.999992,0.000329,-0.004251,0.008495,0.000060,0.008496,-0.004251,89.729313,0.008496,
880,760,1.976545,-13.196071,0.999995,0.000236,-0.006741,0.011964,0.000236,0.011967,-0.006744,89.278420,0.011999,
980,1790,0.473289,-1.758909,0.999997,0.000228,-0.002477,0.007953,-0.000243,0.007958,-0.002482,-88.667559,0.008144,
1810,1850,-1.395421,-1.850769,0.999995,0.000268,-0.004491,0.010260,0.001069,0.010337,-0.004568,85.877497,0.010361,
1870,790,-3.690602,-12.194823,0.999996,0.000259,-0.004700,0.009499,-0.000328,0.009507,-0.004708,-88.678777,0.009507,
1860,230,-1.764268,-17.845631,0.999997,0.000203,-0.004872,0.009943,-0.000272,0.009948,-0.004877,-88.949135,0.009949,
1540,1350,-1.488827,-6.124560,0.999994,0.000275,-0.006766,0.011563,-0.000799,0.011597,-0.006801,-87.509216,0.011655,
1520,800,-1.704852,-12.974674,0.999994,0.000285,-0.007414,0.012731,0.000147,0.012732,-0.007415,89.581695,0.012790,
820,1360,2.120828,-6.407247,0.999995,0.000306,-0.006141,0.011244,-0.000172,0.011246,-0.006142,-89.432716,0.011262,
1290,570,-0.146911,-16.425267,0.999997,0.000206,-0.002789,0.006641,0.000974,0.006740,-0.002888,84.164895,0.006763,
560,540,3.031092,-14.603959,0.999995,0.000000,-0.004909,0.010081,-0.000097,0.010081,-0.004909,-89.628800,0.010082,
700,1220,3.323831,-8.195295,0.999995,0.000258,-0.005039,0.010087,-0.000972,0.010149,-0.005101,-86.339450,0.010149,
1180,740,0.110411,-15.486687,0.999997,0.000212,-0.002665,0.004267,-0.002447,0.005043,-0.003441,-72.390450,0.005154,
740,1060,3.521758,-9.759369,0.999996,0.000221,-0.004283,0.009771,-0.000334,0.009779,-0.004291,-88.638258,0.009803,
1050,1460,0.583940,-4.350584,0.999994,0.000268,-0.004451,0.008679,0.002049,0.008991,-0.004764,81.333910,0.008996,
1880,660,-3.295139,-13.450541,0.999995,0.000264,-0.005035,0.010106,-0.000130,0.010107,-0.005037,-89.509161,0.010107,
750,1340,2.608730,-6.826437,0.999997,0.000243,-0.005691,0.010797,-0.000578,0.010817,-0.005711,-87.994409,0.010822,
950,1050,2.719671,-9.809192,0.999995,0.000276,-0.003751,0.012416,-0.000487,0.012430,-0.003765,-88.276178,0.012748,
1570,590,-1.392142,-15.171360,0.999994,0.000290,-0.005698,0.010456,0.000906,0.010506,-0.005749,86.800178,0.010522,
1650,1180,-2.884803,-8.470941,0.999994,0.000311,-0.005307,0.011042,0.001329,0.011149,-0.005414,85.383809,0.011151,
1900,1310,-3.681978,-7.614569,0.999995,0.000000,-0.004850,0.009759,0.000157,0.009760,-0.004852,89.384065,0.009761,
1800,110,-0.748042,-19.314946,0.999997,0.000236,-0.002981,0.010061,-0.002955,0.010700,-0.003619,-77.811232,0.010885,
1650,1430,-1.942290,-5.656856,0.999996,0.000219,-0.005808,0.010805,-0.000185,0.010807,-0.005811,-89.363385,0.010817,
1100,360,0.293346,-17.824329,0.999997,0.000222,-0.002407,0.007486,-0.000293,0.007494,-0.002415,-88.303704,0.007650,
680,390,1.985248,-16.511701,0.999998,0.000173,-0.004927,0.010106,-0.000092,0.010106,-0.004928,-89.647650,0.010107,
1460,250,-0.399263,-18.543485,0.999997,0.000190,-0.002061,0.007738,-0.000341,0.007750,-0.002073,-88.009324,0.008025,
700,1850,1.188446,-1.720284,0.999997,0.000224,-0.004525,0.009995,-0.001051,0.010070,-0.004601,-85.881328,0.010083,
1350,1200,-0.770635,-6.044605,0.999983,0.000532,-0.004653,0.007133,-0.004112,0.008426,-0.005946,-72.548402,0.008660,
1480,1350,-1.084715,-5.803948,0.999995,0.000259,-0.006686,0.011155,-0.001891,0.011353,-0.006885,-84.016033,0.011439,
910,120,0.270166,-19.458732,0.999997,0.000200,-0.001133,0.007479,0.001232,0.007652,-0.001306,82.013910,0.008186,
1690,650,-2.251863,-14.104815,0.999994,0.000278,-0.005768,0.010737,-0.000145,0.010738,-0.005769,-89.497631,0.010748,
610,930,3.999669,-10.942412,0.999997,0.000187,-0.004333,0.008989,0.000495,0.009008,-0.004351,87.874306,0.009009,
1550,1060,-2.838743,-9.713923,0.999997,0.000232,-0.003786,0.011481,0.000699,0.011513,-0.003818,87.382703,0.011728,
1480,320,-0.559233,-17.960145,0.999996,0.000222,-0.002873,0.008276,0.000037,0.008276,-0.002873,89.812051,0.008404,
1450,700,-0.879815,-14.601707,0.999997,0.000273,-0.006347,0.010573,0.002405,0.010908,-0.006682,82.064929,0.011000,
1290,1920,-0.043642,-0.714380,0.999999,0.000135,-0.000631,0.006384,0.000160,0.006388,-0.000635,88.693141,0.007039,
1030,1550,0.610823,-3.646087,0.999996,0.000230,-0.004040,0.008557,0.001294,0.008688,-0.004172,84.196395,0.008690,
780,560,1.944449,-15.088189,0.999995,0.000257,-0.005419,0.010454,-0.000240,0.010458,-0.005422,-89.133799,0.010460,
1700,1130,-3.297307,-9.048646,0.999994,0.000291,-0.004660,0.010108,0.000930,0.010166,-0.004718,86.412271,0.010175,
1460,1850,-0.319916,-1.273647,0.999997,0.000200,-0.001651,0.007474,0.000559,0.007508,-0.001685,86.504643,0.007879,
880,740,1.897694,-13.438723,0.999996,0.000239,-0.006707,0.011808,0.000017,0.011808,-0.006707,89.946228,0.011844,
1480,1750,-0.536712,-2.077338,0.999997,0.000200,-0.002737,0.008097,0.000061,0.008098,-0.002737,89.679844,0.008238,
1230,1790,0.001340,-1.573450,0.999998,0.000166,-0.001709,0.006887,0.000006,0.006887,-0.001709,89.959124,0.007173,
1630,1480,-1.693250,-5.049102,0.999995,0.000254,-0.005584,0.010508,-0.000458,0.010521,-0.005597,-88.370852,0.010528,
1770,1700,-1.812235,-3.249804,0.999996,0.000205,-0.004828,0.010052,0.000019,0.010052,-0.004828,89.926854,0.010054,
1000,950,2.260250,-11.252009,0.999993,0.000294,-0.005705,0.014848,0.000102,0.014849,-0.005706,89.714726,0.014981,
1280,710,-0.104364,-15.635617,0.999997,0.000198,-0.002524,0.004738,0.001976,0.005241,-0.003027,75.723383,0.005262,
750,1020,3.500355,-10.153896,0.999996,0.000230,-0.004243,0.009886,0.000179,0.009888,-0.004245,89.272822,0.009921,
1860,180,-1.495969,-18.351059,0.999996,0.000244,-0.004886,0.010200,-0.000664,0.010229,-0.004916,-87.484244,0.010232,
1070,820,0.820111,-13.799073,0.999995,0.000265,-0.007240,0.011145,-0.003686,0.011856,-0.007951,-79.074744,0.012084,
940,310,0.677657,-17.962045,0.999997,0.000220,-0.003135,0.008463,0.000066,0.008463,-0.003136,89.675517,0.008557,
560,530,2.999805,-14.706956,0.999994,0.000000,-0.005036,0.010159,-0.000102,0.010160,-0.005037,-89.613772,0.010160,
1810,1830,-1.502740,-2.057779,0.999996,0.000269,-0.004601,0.010177,0.000856,0.010226,-0.004650,86.694929,0.010240,
1290,550,-0.149008,-16.560626,0.999997,0.000187,-0.002754,0.006735,0.000837,0.006808,-0.002827,84.998753,0.006840,
1180,720,0.110488,-15.576055,0.999998,0.000189,-0.002612,0.004633,-0.002187,0.005242,-0.003221,-74.440362,0.005288,
700,1200,3.386579,-8.394164,0.999996,0.000242,-0.004928,0.009988,-0.000988,0.010053,-0.004993,-86.225209,0.010053,
820,1380,2.054746,-6.182948,0.999995,0.000294,-0.006067,0.011073,-0.000029,0.011073,-0.006067,-89.904065,0.011090,
1030,1460,0.672608,-4.440266,0.999996,0.000237,-0.004662,0.009020,0.001896,0.009278,-0.004920,82.253052,0.009283,
730,1340,2.721684,-6.876605,0.999997,0.000224,-0.005600,0.010631,-0.000611,0.010654,-0.005623,-87.846784,0.010659,
1520,780,-1.614797,-13.224696,0.999993,0.000300,-0.007419,0.012508,0.000458,0.012519,-0.007430,88.685033,0.012591,
950,1030,2.745629,-10.047363,0.999997,0.000234,-0.003658,0.012049,-0.000062,0.012049,-0.003658,-89.773931,0.012355,
580,140,1.349164,-18.650545,0.999994,0.000335,-0.004938,0.010641,0.001273,0.010744,-0.005042,85.357864,0.010751,
810,1620,1.476797,-3.693050,0.999996,0.000261,-0.004748,0.009895,0.000286,0.009900,-0.004754,88.881321,0.009903,
1650,670,-2.079422,-14.008841,0.999996,0.000255,-0.006000,0.010999,-0.000030,0.010999,-0.006000,-89.897294,0.011014,
740,1020,3.543039,-10.153404,0.999996,0.000238,-0.004280,0.009846,0.000176,0.009848,-0.004282,89.285057,0.009876,
680,510,2.331503,-15.287596,0.999997,0.000231,-0.005154,0.010265,-0.000130,0.010266,-0.005155,-89.515773,0.010266,
1580,1450,-1.483468,-5.185602,0.999995,0.000251,-0.005808,0.010581,-0.000774,0.010617,-0.005844,-87.303332,0.010635,
1480,300,-0.527788,-18.123895,0.999997,0.000225,-0.002712,0.008085,-0.000089,0.008086,-0.002712,-89.529786,0.008231,
780,540,1.893523,-15.298817,0.999995,0.000260,-0.005327,0.010415,-0.000298,0.010421,-0.005333,-88.915220,0.010422,
1560,760,-1.820571,-13.284404,0.999995,0.000273,-0.006954,0.012110,0.000036,0.012110,-0.006954,89.890503,0.012154,
1630,1180,-2.776488,-8.441629,0.999994,0.000270,-0.005438,0.011293,0.001384,0.011407,-0.005551,85.302866,0.011408,
1460,1370,-0.916581,-5.460109,0.999996,0.000242,-0.006218,0.010552,-0.002217,0.010840,-0.006506,-82.595535,0.010912,
610,910,3.954906,-11.123589,0.999997,0.000210,-0.004352,0.008948,0.000430,0.008962,-0.004366,88.149940,0.008963,
890,120,0.295222,-19.448446,0.999997,0.000204,-0.001521,0.007580,0.001277,0.007756,-0.001696,82.161735,0.008155,
1720,1050,-3.516413,-9.857425,0.999994,0.000275,-0.004246,0.009806,0.000344,0.009814,-0.004255,88.600022,0.009843,
1480,1570,-0.785962,-3.628071,0.999997,0.000228,-0.004058,0.008951,-0.000992,0.009026,-0.004133,-85.663131,0.009037,
1870,670,-3.279710,-13.380696,0.999996,0.000251,-0.005014,0.010084,-0.000158,0.010086,-0.005016,-89.399600,0.010086,
1870,1800,-1.926672,-2.599618,0.999996,0.000231,-0.004894,0.009881,0.000119,0.009882,-0.004895,89.536959,0.009882,
1460,1750,-0.487313,-2.049997,0.999997,0.000217,-0.002515,0.007942,0.000039,0.007942,-0.002515,89.786503,0.008118,
770,680,2.368023,-13.769967,0.999994,0.000305,-0.005778,0.010856,0.000306,0.010861,-0.005784,88.946112,0.010869,
1230,1770,0.002259,-1.712382,0.999998,0.000172,-0.001787,0.006939,-0.000004,0.006939,-0.001787,-89.972464,0.007206,
1480,1510,-0.849437,-4.178347,0.999996,0.000236,-0.004790,0.009351,-0.001412,0.009490,-0.004929,-84.353740,0.009492,
1500,1890,-0.308112,-1.004300,0.999997,0.000200,-0.001795,0.007384,0.000728,0.007441,-0.001852,85.491079,0.007748,
1680,1130,-3.204593,-9.036233,0.999996,0.000217,-0.004648,0.010297,0.001021,0.010366,-0.004718,86.108891,0.010380,
1000,930,2.121563,-11.549670,0.999995,0.000272,-0.006201,0.014394,0.000117,0.014395,-0.006202,89.674931,0.014440,
900,1730,0.835743,-2.402895,0.999996,0.000234,-0.003549,0.008969,-0.000037,0.008969,-0.003550,-89.831418,0.009034,
750,500,1.942447,-15.617391,0.999997,0.000209,-0.005177,0.010269,-0.000254,0.010273,-0.005181,-89.059759,0.010273,
1100,340,0.283998,-17.971587,0.999997,0.000217,-0.002286,0.007425,-0.000207,0.007429,-0.002291,-88.781397,0.007609,
1900,1300,-3.714115,-7.712648,0.999995,0.000000,-0.004809,0.009782,0.000167,0.009784,-0.004811,89.345404,0.009785,
1440,250,-0.357658,-18.562999,0.999997,0.000221,-0.002133,0.007613,-0.000220,0.007618,-0.002138,-88.705404,0.007859,
1120,450,0.286314,-17.175487,0.999998,0.000197,-0.002747,0.007458,-0.000660,0.007501,-0.002790,-86.316459,0.007582,
1340,810,-0.431802,-14.596033,0.999993,0.000343,-0.005326,0.007085,0.004417,0.008496,-0.006737,72.278896,0.008969,
1060,1270,0.751968,-6.086943,0.999993,0.000327,-0.007098,0.010789,0.003557,0.011471,-0.007779,79.154901,0.011711,
1030,1570,0.593914,-3.476253,0.999996,0.000223,-0.003773,0.008465,0.001116,0.008566,-0.003874,84.831807,0.008579,
1810,1810,-1.590888,-2.262648,0.999996,0.000264,-0.004682,0.010187,0.000638,0.010215,-0.004709,87.548033,0.010225,
560,520,2.969884,-14.808560,0.999995,0.000000,-0.005171,0.010058,-0.000149,0.010059,-0.005173,-89.440056,0.010061,
1690,630,-2.188142,-14.320649,0.999995,0.000250,-0.005704,0.010794,-0.000036,0.010794,-0.005704,-89.876124,0.010800,
1290,530,-0.148852,-16.695425,0.999997,0.000182,-0.002710,0.006851,0.000703,0.006902,-0.002761,85.818633,0.006948,
700,1400,2.676490,-6.318736,0.999995,0.000265,-0.005434,0.010457,-0.000339,0.010464,-0.005441,-88.779409,0.010467,
820,1820,0.856917,-1.745031,0.999997,0.000205,-0.003180,0.009113,-0.000973,0.009189,-0.003256,-85.500479,0.009318,
880,720,1.826430,-13.672285,0.999996,0.000232,-0.006677,0.011706,-0.000141,0.011707,-0.006678,-89.559174,0.011746,
1520,760,-1.533758,-13.475091,0.999994,0.000279,-0.007302,0.012288,0.000698,0.012313,-0.007327,87.962301,0.012387,
570,140,1.401592,-18.601638,0.999863,0.001449,-0.004979,0.010796,0.001388,0.010917,-0.005100,85.010957,0.010925,
950,1010,2.724658,-10.287391,0.999996,0.000227,-0.003772,0.012379,0.000360,0.012387,-0.003780,88.725436,0.012697,
1800,970,-3.834636,-10.616251,0.999997,0.000216,-0.004344,0.009228,-0.000264,0.009233,-0.004349,-88.884112,0.009239,
740,480,1.939830,-15.790345,0.999997,0.000212,-0.005125,0.010206,-0.000256,0.010210,-0.005130,-89.043896,0.010210,
860,1530,1.432025,-4.433663,0.999993,0.000288,-0.005219,0.010192,0.000632,0.010218,-0.005244,87.654810,0.010219,
810,1600,1.524142,-3.890915,0.999997,0.000253,-0.004896,0.009956,0.000333,0.009964,-0.004904,88.715325,0.009964,
1860,200,-1.609353,-18.152271,0.999995,0.000248,-0.004890,0.010002,-0.000465,0.010016,-0.004904,-88.214678,0.010017,
1650,1410,-2.000860,-5.874533,0.999995,0.000245,-0.005905,0.010931,-0.000094,0.010931,-0.005905,-89.678570,0.010943,
1180,700,0.114898,-15.674439,0.999998,0.000190,-0.002606,0.004958,-0.001961,0.005436,-0.003084,-76.300471,0.005453,
950,120,0.226189,-19.476069,0.999997,0.000207,-0.001252,0.007203,0.000931,0.007304,-0.001354,83.788179,0.007771,
1740,1050,-3.601679,-9.861221,0.999996,0.000220,-0.004305,0.009704,0.000329,0.009712,-0.004313,88.656081,0.009732,
1870,1790,-1.970384,-2.701663,0.999997,0.000205,-0.004877,0.009873,0.000101,0.009874,-0.004877,89.607357,0.009874,
1190,320,0.080339,-18.189698,0.999998,0.000165,-0.001906,0.007093,-0.000065,0.007093,-0.001906,-89.586990,0.007342,
1190,1320,0.085312,-4.605595,0.999997,0.000184,-0.002367,0.004019,0.001963,0.004574,-0.002922,74.213146,0.004633,
1030,1440,0.685524,-4.621228,0.999993,0.000318,-0.004952,0.009151,0.002090,0.009454,-0.005255,81.747472,0.009474,
1100,320,0.266189,-18.123230,0.999997,0.000217,-0.002176,0.007450,-0.000106,0.007451,-0.002177,-89.369343,0.007662,
980,950,2.370669,-11.145108,0.999991,0.000324,-0.005313,0.013921,0.000836,0.013958,-0.005349,87.517395,0.014084,
1230,1750,0.003347,-1.851292,0.999998,0.000189,-0.001928,0.006990,0.000001,0.006990,-0.001928,89.993247,0.007220,
1750,1760,-1.513888,-2.581190,0.999997,0.000233,-0.004756,0.010041,0.000295,0.010047,-0.004762,88.856878,0.010051,
590,820,3.799001,-11.907150,0.999995,0.000258,-0.004571,0.009227,0.000306,0.009234,-0.004578,88.730390,0.009234,
1540,430,-0.956397,-16.855385,0.999997,0.000192,-0.004236,0.009239,0.000603,0.009266,-0.004263,87.441692,0.009276,
740,1210,3.153375,-8.241394,0.999995,0.000293,-0.005147,0.010458,-0.001130,0.010540,-0.005228,-85.881078,0.010540,
1560,1780,-0.707254,-1.956832,0.999997,0.000208,-0.002933,0.008594,0.000453,0.008612,-0.002950,87.750805,0.008753,
610,890,3.912167,-11.302504,0.999996,0.000237,-0.004377,0.008999,0.000378,0.009010,-0.004388,88.380733,0.009011,
1710,280,-1.282404,-17.837490,0.999997,0.000196,-0.004126,0.009783,-0.000652,0.009813,-0.004156,-87.323934,0.009852,
1630,1500,-1.644652,-4.840902,0.999996,0.000231,-0.005433,0.010396,-0.000498,0.010412,-0.005448,-88.201102,0.010415,
1420,1450,-0.620293,-4.470320,0.999996,0.000223,-0.004603,0.008828,-0.002006,0.009121,-0.004897,-81.684322,0.009129,
690,1160,3.561074,-8.807776,0.999995,0.000254,-0.004717,0.009784,-0.000842,0.009833,-0.004766,-86.687164,0.009835,
560,510,2.944638,-14.911511,0.999994,0.000000,-0.005264,0.009947,-0.000225,0.009950,-0.005267,-89.152358,0.009956,
580,440,2.632300,-15.679230,0.999995,0.000264,-0.005744,0.009936,-0.000284,0.009941,-0.005749,-88.961081,0.009981,
1900,1290,-3.748238,-7.814866,0.999995,0.000000,-0.004749,0.009687,0.000188,0.009689,-0.004751,89.253694,0.009690,
1480,280,-0.492284,-18.286629,0.999996,0.000226,-0.002521,0.008058,-0.000203,0.008062,-0.002525,-88.900105,0.008248,
780,520,1.837531,-15.508021,0.999996,0.000229,-0.005250,0.010319,-0.000301,0.010325,-0.005256,-88.892163,0.010325,
1250,1240,-0.074488,-4.739690,0.999996,0.000245,-0.004153,0.002252,-0.000846,0.002362,-0.004263,-82.597209,0.004271,
1040,60,0.048621,-19.907156,0.999998,0.000165,-0.000431,0.006342,0.000562,0.006388,-0.000477,85.286730,0.007117,
770,660,2.301436,-13.988172,0.999996,0.000246,-0.005752,0.010788,0.000186,0.010790,-0.005754,89.356698,0.010798,
820,1800,0.927023,-1.931014,0.999996,0.000218,-0.003406,0.009187,-0.000787,0.009236,-0.003455,-86.437589,0.009334,
690,1590,2.151641,-4.379077,0.999995,0.000263,-0.005086,0.010189,0.000167,0.010190,-0.005088,89.373732,0.010190,
1520,740,-1.459178,-13.718633,0.999995,0.000251,-0.007128,0.011965,0.000899,0.012008,-0.007170,87.310134,0.012083,
880,700,1.759162,-13.908647,0.999995,0.000247,-0.006569,0.011464,-0.000295,0.011469,-0.006574,-89.063159,0.011510,
1290,510,-0.147400,-16.833566,0.999998,0.000182,-0.002671,0.006936,0.000570,0.006969,-0.002705,86.617855,0.007027,
1810,1790,-1.684291,-2.468019,0.999997,0.000252,-0.004716,0.010163,0.000508,0.010181,-0.004733,88.046478,0.010189,
1770,1680,-1.877576,-3.451822,0.999997,0.000178,-0.004873,0.010102,-0.000033,0.010102,-0.004873,-89.875430,0.010104,
990,120,0.177504,-19.495289,0.999998,0.000201,-0.000892,0.006975,0.000792,0.007054,-0.000971,84.307093,0.007646,
1780,990,-3.763819,-10.436543,0.999997,0.000207,-0.004336,0.009443,-0.000269,0.009448,-0.004341,-88.880325,0.009458,
1480,1910,-0.232567,-0.846112,0.999997,0.000192,-0.001234,0.007127,0.000769,0.007198,-0.001304,84.788872,0.007670,
1100,450,0.340788,-17.141928,0.999997,0.000205,-0.002880,0.007620,-0.000696,0.007666,-0.002926,-86.224492,0.007737,
1650,1370,-2.130481,-6.315884,0.999996,0.000245,-0.006091,0.011119,0.000159,0.011120,-0.006093,89.470889,0.011137,
1670,1980,-0.256532,-0.415531,0.999996,0.000220,-0.001385,0.007698,0.002040,0.008135,-0.001823,77.906274,0.008538,
860,890,2.696011,-11.588054,0.999996,0.000230,-0.005386,0.011523,0.001453,0.011647,-0.005510,85.124280,0.011653,
950,990,2.686458,-10.544417,0.999996,0.000232,-0.003980,0.012525,0.000711,0.012555,-0.004010,87.536179,0.012825,
1870,1780,-2.011504,-2.801735,0.999998,0.000200,-0.004857,0.009799,0.000070,0.009799,-0.004857,89.725714,0.009800,
740,460,1.886860,-15.994703,0.999996,0.000241,-0.005036,0.010106,-0.000239,0.010110,-0.005040,-89.096442,0.010110,
1380,1310,-0.517109,-5.459775,0.999995,0.000284,-0.005878,0.009055,-0.003790,0.009962,-0.006785,-76.542541,0.010178,
1860,220,-1.715519,-17.946848,0.999996,0.000224,-0.004872,0.010029,-0.000348,0.010037,-0.004880,-88.662543,0.010038,
1040,1270,0.902461,-6.285498,0.999994,0.000349,-0.007432,0.011544,0.002948,0.011992,-0.007880,81.369780,0.012188,
1890,1010,-4.244855,-10.227020,0.999997,0.000196,-0.004044,0.008343,-0.000245,0.008348,-0.004049,-88.867878,0.008349,
1230,1730,0.004023,-1.991779,0.999998,0.000166,-0.002024,0.006995,0.000029,0.006995,-0.002024,89.814571,0.007199,
1560,1740,-0.805015,-2.308782,0.999997,0.000215,-0.003331,0.008844,0.000129,0.008845,-0.003332,89.393338,0.008935,
1180,680,0.115452,-15.774727,0.999998,0.000189,-0.002611,0.005252,-0.001746,0.005622,-0.002982,-78.024537,0.005625,
1520,1750,-0.658693,-2.149272,0.999997,0.000214,-0.003135,0.008361,0.000064,0.008361,-0.003136,89.679450,0.008448,
1730,920,-3.423598,-11.140419,0.999996,0.000255,-0.004636,0.009939,-0.000862,0.009989,-0.004687,-86.628320,0.009996,
610,870,3.863916,-11.482233,0.999996,0.000228,-0.004501,0.009233,0.000506,0.009252,-0.004519,87.892474,0.009253,
560,500,2.920103,-15.006599,0.999989,0.000000,-0.005465,0.009855,-0.000341,0.009862,-0.005473,-88.725817,0.009882,
1860,270,-1.944059,-17.449176,0.999995,0.000246,-0.004845,0.009904,-0.000114,0.009905,-0.004846,-89.556593,0.009905,
1350,1540,-0.322012,-3.480159,0.999996,0.000226,-0.003112,0.007486,-0.001104,0.007599,-0.003226,-84.114115,0.007628,
720,1210,3.255029,-8.267621,0.999997,0.000226,-0.005067,0.010230,-0.001054,0.010302,-0.005140,-86.077691,0.010302,
670,1160,3.654043,-8.827593,0.999996,0.000225,-0.004647,0.009570,-0.000733,0.009608,-0.004685,-87.054743,0.009609,
580,450,2.662336,-15.578389,0.999996,0.000251,-0.005659,0.010043,-0.000257,0.010047,-0.005663,-89.064078,0.010074,
1230,1240,0.006157,-4.712722,0.999996,0.000240,-0.004311,0.002125,0.000042,0.002125,-0.004311,89.630389,0.004311,
1690,610,-2.125873,-14.537848,0.999996,0.000222,-0.005622,0.010663,0.000081,0.010663,-0.005622,89.714725,0.010668,
880,680,1.694578,-14.132302,0.999995,0.000247,-0.006471,0.011299,-0.000463,0.011311,-0.006484,-88.509792,0.011351,
700,660,2.694084,-13.789693,0.999996,0.000258,-0.005421,0.010473,0.000342,0.010481,-0.005428,88.769011,0.010483,
1500,1570,-0.864781,-3.689177,0.999996,0.000255,-0.004302,0.009182,-0.000977,0.009252,-0.004373,-85.875704,0.009257,
1840,430,-2.389182,-15.919502,0.999996,0.000227,-0.005007,0.010039,0.000133,0.010040,-0.005008,89.493482,0.010040,
1680,370,-1.435641,-17.030439,0.999995,0.000249,-0.004576,0.009741,0.000033,0.009741,-0.004576,89.869907,0.009747,
1030,1990,0.059909,-0.286831,0.999998,0.000172,-0.000423,0.006428,-0.000638,0.006487,-0.000481,-84.725561,0.007229,
1520,720,-1.398821,-13.954401,0.999995,0.000255,-0.006941,0.011667,0.001076,0.011729,-0.007003,86.700956,0.011802,
820,1780,0.991120,-2.114385,0.999997,0.000179,-0.003552,0.009284,-0.000616,0.009313,-0.003581,-87.258530,0.009396,
1290,490,-0.145942,-16.971561,0.999998,0.000179,-0.002607,0.006991,0.000469,0.007014,-0.002630,87.209138,0.007086,
890,400,1.039703,-17.040270,0.999997,0.000209,-0.004249,0.009319,-0.000353,0.009328,-0.004258,-88.508822,0.009340,
1100,300,0.252530,-18.268544,0.999998,0.000189,-0.002029,0.007344,-0.000057,0.007344,-0.002029,-89.649542,0.007586,
1550,920,-2.555674,-11.330433,0.999994,0.000303,-0.005300,0.012090,-0.001445,0.012209,-0.005419,-85.283264,0.012235,
740,440,1.833704,-16.196288,0.999997,0.000219,-0.004957,0.010106,-0.000203,0.010109,-0.004960,-89.226798,0.010110,
1810,1940,-0.818998,-0.913806,0.999996,0.000247,-0.003369,0.010340,0.002666,0.010840,-0.003869,79.371652,0.010987,
1650,1350,-2.198855,-6.542751,0.999995,0.000295,-0.006142,0.011237,0.000302,0.011242,-0.006147,89.006136,0.011258,
750,1920,0.642041,-0.947923,0.999996,0.000248,-0.002248,0.008855,-0.002242,0.009291,-0.002683,-79.003099,0.009563,
1880,1010,-4.204446,-10.228530,0.999998,0.000170,-0.004072,0.008476,-0.000233,0.008480,-0.004077,-88.937637,0.008483,
560,490,2.892097,-15.106528,0.999984,0.000000,-0.005715,0.009795,-0.000421,0.009806,-0.005726,-88.445722,0.009852,
1860,240,-1.809529,-17.749710,0.999997,0.000205,-0.004865,0.009876,-0.000201,0.009879,-0.004867,-89.219267,0.009879,
1780,1430,-2.665742,-6.053564,0.999995,0.000262,-0.005312,0.010319,0.000186,0.010321,-0.005314,89.317194,0.010323,
820,1760,1.054817,-2.302593,0.999997,0.000188,-0.003754,0.009401,-0.000477,0.009418,-0.003771,-87.927626,0.009480,
1810,1990,-0.388342,-0.398400,0.999993,0.000291,-0.001789,0.009666,0.003746,0.010782,-0.002905,73.407385,0.011158,
720,1750,1.515590,-2.659754,0.999995,0.000294,-0.004689,0.009984,-0.000285,0.009990,-0.004695,-88.886689,0.009996,
1170,1320,0.136169,-4.698834,0.999997,0.000204,-0.002887,0.004765,0.002713,0.005629,-0.003751,72.328004,0.005732,
1900,1280,-3.782349,-7.910711,0.999994,0.000000,-0.004702,0.009482,0.000178,0.009484,-0.004704,89.282209,0.009484,
1080,1850,0.193067,-1.215223,0.999998,0.000181,-0.001315,0.007051,-0.000307,0.007062,-0.001326,-87.897911,0.007507,
1180,660,0.120671,-15.885855,0.999997,0.000214,-0.002639,0.005555,-0.001548,0.005838,-0.002922,-79.653287,0.005838,
1080,740,0.527840,-14.718766,0.999994,0.000298,-0.005847,0.009097,-0.003732,0.009977,-0.006727,-76.730864,0.010177,
1350,1520,-0.324048,-3.630063,0.999996,0.000234,-0.003253,0.007496,-0.001295,0.007649,-0.003406,-83.226097,0.007665,
930,1020,2.808505,-10.165553,0.999996,0.000221,-0.003561,0.011507,0.000215,0.011510,-0.003564,89.182478,0.011785,
580,820,3.843981,-11.882593,0.999996,0.000239,-0.004605,0.009203,0.000203,0.009206,-0.004608,89.157389,0.009206,
1230,830,0.005610,-15.417990,0.999978,0.000547,-0.006243,0.002759,-0.000032,0.002759,-0.006243,-89.794993,0.006257,
1130,380,0.231895,-17.711610,0.999997,0.000207,-0.002562,0.007421,-0.000461,0.007443,-0.002584,-87.359059,0.007558,
1230,1710,0.003424,-2.130827,0.999998,0.000158,-0.002134,0.007007,0.000031,0.007007,-0.002135,89.805345,0.007183,
1620,1130,-2.925110,-8.988065,0.999997,0.000227,-0.004759,0.010991,0.001346,0.011106,-0.004874,85.150005,0.011133,
1520,700,-1.338424,-14.190064,0.999996,0.000240,-0.006730,0.011444,0.001192,0.011522,-0.006808,86.264958,0.011585,
1140,1230,0.421512,-5.426100,0.999993,0.000334,-0.004758,0.005593,0.003945,0.006926,-0.006090,71.341519,0.007561,
650,1510,2.590125,-5.327921,0.999995,0.000268,-0.005122,0.010210,0.000052,0.010210,-0.005123,89.805930,0.010210,
1770,1010,-3.735719,-10.247007,0.999997,0.000208,-0.004317,0.009511,-0.000284,0.009517,-0.004323,-88.822092,0.009530,
780,500,1.787638,-15.715354,0.999996,0.000214,-0.005154,0.010253,-0.000317,0.010259,-0.005161,-88.820301,0.010259,
1050,120,0.122720,-19.514988,0.999997,0.000240,-0.000945,0.006701,0.000512,0.006736,-0.000979,86.185358,0.007279,
1690,590,-2.068587,-14.748336,0.999996,0.000231,-0.005554,0.010550,0.000162,0.010552,-0.005556,89.423203,0.010557,
1480,260,-0.455582,-18.445825,0.999997,0.000212,-0.002363,0.007911,-0.000292,0.007920,-0.002371,-88.372250,0.008129,
1170,1660,0.140548,-2.515418,0.999998,0.000176,-0.002285,0.007180,0.000182,0.007184,-0.002288,88.900998,0.007340,
1560,1200,-2.267405,-8.048742,0.999995,0.000270,-0.006450,0.012368,0.001153,0.012439,-0.006520,86.507770,0.012443,
880,660,1.637910,-14.361891,0.999995,0.000268,-0.006293,0.011181,-0.000582,0.011200,-0.006312,-88.092963,0.011230,
1120,250,0.174095,-18.649327,0.999998,0.000194,-0.001728,0.007098,0.000015,0.007098,-0.001728,89.900442,0.007403,
1290,470,-0.144429,-17.111338,0.999998,0.000167,-0.002558,0.007071,0.000376,0.007086,-0.002572,87.764290,0.007174,
990,790,1.300675,-13.394703,0.999994,0.000295,-0.007720,0.012546,-0.001421,0.012645,-0.007819,-86.009638,0.012763,
950,970,2.616542,-10.791770,0.999995,0.000260,-0.004406,0.012524,0.001030,0.012587,-0.004469,86.530779,0.012762,
870,230,0.687680,-18.536927,0.999997,0.000238,-0.003118,0.008648,0.000743,0.008695,-0.003165,86.401813,0.008801,
1440,100,-0.113404,-19.643196,0.999998,0.000192,-0.000691,0.006679,-0.000624,0.006731,-0.000743,-85.190899,0.007381,
1820,1370,-3.076327,-6.786742,0.999997,0.000215,-0.005111,0.010153,0.000392,0.010163,-0.005121,88.530535,0.010163,
1610,130,-0.397017,-19.343856,0.999997,0.000216,-0.001708,0.007879,-0.001473,0.008100,-0.001929,-81.461581,0.008463,
1670,840,-2.852013,-12.049879,0.999995,0.000289,-0.005540,0.010947,-0.001245,0.011040,-0.005634,-85.706404,0.011041,
730,100,0.475240,-19.513146,0.999995,0.000270,-0.002283,0.008546,0.002377,0.009045,-0.002782,78.148261,0.009265,
700,620,2.559093,-14.207503,0.999995,0.000272,-0.005383,0.010406,0.000143,0.010407,-0.005385,89.479745,0.010409,
680,750,3.118510,-12.798379,0.999995,0.000243,-0.005187,0.010237,0.000710,0.010270,-0.005220,87.369554,0.010270,
610,850,3.800839,-11.671932,0.999996,0.000222,-0.004609,0.009401,0.000570,0.009424,-0.004632,87.672464,0.009424,
1330,1280,-0.297357,-5.209061,0.999995,0.000263,-0.004593,0.006406,-0.004198,0.007825,-0.006012,-71.322427,0.008192,
920,1730,0.771184,-2.364500,0.999998,0.000193,-0.003182,0.008809,-0.000088,0.008810,-0.003182,-89.579129,0.008922,
820,950,3.104020,-10.886157,0.999996,0.000275,-0.004386,0.010499,0.000996,0.010565,-0.004452,86.186865,0.010608,
920,1910,0.325392,-0.882631,0.999998,0.000172,-0.001368,0.007544,-0.001078,0.007673,-0.001497,-83.198204,0.008134,
1820,1300,-3.323669,-7.493290,0.999996,0.000208,-0.005011,0.009917,0.000615,0.009942,-0.005036,87.646237,0.009942,
1590,400,-1.110964,-16.993322,0.999996,0.000260,-0.004254,0.009378,0.000282,0.009383,-0.004260,88.813638,0.009397,
580,610,3.145183,-13.949438,0.999995,0.000282,-0.004721,0.010369,-0.000037,0.010369,-0.004721,-89.859668,0.010383,
1080,720,0.504744,-14.900077,0.999994,0.000285,-0.005485,0.008794,-0.003479,0.009597,-0.006287,-77.011260,0.009749,
1900,1380,-3.443770,-6.925755,0.999995,0.000000,-0.004991,0.010114,0.000088,0.010115,-0.004992,89.666997,0.010115,
830,1340,2.131139,-6.603720,0.999996,0.000294,-0.006277,0.011375,-0.000258,0.011379,-0.006281,-89.161602,0.011399,
720,1730,1.584649,-2.860783,0.999996,0.000217,-0.004761,0.009978,-0.000122,0.009979,-0.004762,-89.524525,0.009982,
1720,1530,-2.047259,-4.825219,0.999995,0.000242,-0.005226,0.010305,-0.000212,0.010308,-0.005229,-89.217244,0.010308,
1790,1940,-0.755821,-0.883033,0.999995,0.000274,-0.003222,0.010009,0.002754,0.010560,-0.003772,78.698802,0.010702,
1100,280,0.232384,-18.418858,0.999997,0.000196,-0.001892,0.007307,0.000035,0.007307,-0.001892,89.782238,0.007585,
1020,1850,0.292329,-1.260125,0.999998,0.000210,-0.001709,0.007363,-0.000449,0.007385,-0.001731,-87.175731,0.007725,
1180,640,0.121828,-16.001993,0.999997,0.000217,-0.002665,0.005847,-0.001354,0.006057,-0.002875,-81.176250,0.006059,
1340,380,-0.251211,-17.699893,0.999998,0.000175,-0.002547,0.007465,0.000438,0.007485,-0.002566,87.500025,0.007607,
1220,810,0.044015,-15.445958,0.999997,0.000218,-0.003861,0.002145,-0.000578,0.002201,-0.003916,-84.554499,0.003926,
950,1600,0.882583,-3.453685,0.999997,0.000235,-0.004127,0.009140,0.000758,0.009183,-0.004170,86.740885,0.009196,
1520,680,-1.288644,-14.416255,0.999996,0.000240,-0.006520,0.011186,0.001266,0.011276,-0.006610,85.932227,0.011332,
1760,290,-1.542555,-17.597341,0.999995,0.000262,-0.004803,0.010041,-0.000286,0.010047,-0.004809,-88.895635,0.010050,
1860,950,-4.070445,-10.753385,0.999996,0.000238,-0.004258,0.008707,-0.000253,0.008712,-0.004263,-88.883090,0.008712,
1770,990,-3.719445,-10.437389,0.999997,0.000218,-0.004354,0.009511,-0.000287,0.009517,-0.004360,-88.816293,0.009528,
650,1490,2.650836,-5.531449,0.999995,0.000243,-0.005104,0.010252,0.000033,0.010252,-0.005104,89.876477,0.010252,
1230,1690,0.003114,-2.272678,0.999998,0.000173,-0.002193,0.007074,0.000021,0.007074,-0.002193,89.872898,0.007243,
1290,780,-0.151925,-15.284894,0.999995,0.000277,-0.003237,0.003951,0.003138,0.005128,-0.004414,69.437871,0.005555,
1610,2010,-0.095095,-0.178116,0.999998,0.000175,-0.000393,0.006913,0.001507,0.007211,-0.000692,78.787569,0.007958,
1390,1520,-0.465952,-3.760773,0.999997,0.000215,-0.003624,0.007998,-0.001422,0.008169,-0.003795,-83.126894,0.008176,
1360,130,-0.094561,-19.462392,0.999998,0.000155,-0.000746,0.006528,-0.000327,0.006543,-0.000760,-87.434424,0.007157,
670,440,2.181054,-15.970298,0.999997,0.000198,-0.005055,0.010112,-0.000165,0.010114,-0.005057,-89.376416,0.010114,
1150,1660,0.188055,-2.529064,0.999998,0.000169,-0.002469,0.007258,0.000385,0.007273,-0.002484,87.737343,0.007394,
1180,710,0.111163,-15.623307,0.999998,0.000176,-0.002621,0.004816,-0.002073,0.005355,-0.003160,-75.428762,0.005383,
820,1740,1.115857,-2.493546,0.999997,0.000211,-0.003941,0.009437,-0.000264,0.009442,-0.003946,-88.869102,0.009484,
1480,240,-0.418667,-18.603074,0.999997,0.000220,-0.002148,0.007816,-0.000410,0.007833,-0.002165,-87.647829,0.008090,
560,480,2.871907,-15.204693,0.999971,0.000000,-0.005826,0.009954,-0.000353,0.009961,-0.005834,-88.720123,0.010010,
1730,570,-2.228552,-14.832917,0.999995,0.000269,-0.005404,0.010416,0.000085,0.010417,-0.005405,89.693055,0.010419,
870,210,0.629087,-18.704423,0.999997,0.000232,-0.002865,0.008428,0.000875,0.008496,-0.002933,85.597481,0.008630,
1140,1210,0.557095,-5.534707,0.999983,0.000532,-0.004347,0.004948,0.002973,0.005817,-0.005216,73.698278,0.006399,
740,420,1.778214,-16.400041,0.999998,0.000210,-0.004927,0.010141,-0.000172,0.010143,-0.004929,-89.347259,0.010144,
1600,1130,-2.826413,-8.964841,0.999996,0.000258,-0.004825,0.011224,0.001432,0.011351,-0.004952,84.941863,0.011382,
1830,1180,-3.771114,-8.685061,0.999995,0.000257,-0.004597,0.009399,0.000641,0.009428,-0.004627,87.384820,0.009428,
1870,1010,-4.163821,-10.230861,0.999997,0.000208,-0.004108,0.008614,-0.000239,0.008619,-0.004112,-88.924772,0.008622,
880,640,1.584793,-14.582679,0.999995,0.000271,-0.006090,0.011019,-0.000677,0.011046,-0.006117,-87.737648,0.011067,
950,950,2.519123,-11.049034,0.999994,0.000272,-0.004881,0.012688,0.001247,0.012776,-0.004969,85.959024,0.012880,
570,820,3.889770,-11.854834,0.999990,0.000356,-0.004641,0.009194,0.000136,0.009195,-0.004642,89.434918,0.009195,
780,920,3.209702,-11.172706,0.999996,0.000254,-0.004709,0.010358,0.001078,0.010435,-0.004785,85.927471,0.010447,
1390,610,-0.486704,-15.792380,0.999995,0.000250,-0.004280,0.008283,0.002259,0.008677,-0.004674,80.110168,0.008685,
880,310,0.875533,-17.846519,0.999998,0.000162,-0.003763,0.008968,0.000126,0.008970,-0.003765,89.431313,0.009008,
1690,790,-2.765684,-12.567368,0.999995,0.000280,-0.005668,0.011003,-0.001020,0.011065,-0.005730,-86.512737,0.011068,
690,880,3.516978,-11.502390,0.999995,0.000279,-0.004823,0.009953,0.000985,0.010019,-0.004889,86.203197,0.010020,
1650,1330,-2.270534,-6.767751,0.999994,0.000281,-0.006173,0.011253,0.000470,0.011265,-0.006186,88.455129,0.011284,
1560,1180,-2.374766,-8.304118,0.999994,0.000283,-0.006137,0.012273,0.001316,0.012367,-0.006231,85.931152,0.012367,
1030,1420,0.704068,-4.807222,0.999996,0.000253,-0.005236,0.009269,0.002269,0.009616,-0.005583,81.312308,0.009657,
1440,80,-0.089868,-19.772980,0.999998,0.000167,-0.000521,0.006553,-0.000653,0.006613,-0.000581,-84.770043,0.007323,
1610,110,-0.319174,-19.505686,0.999997,0.000207,-0.001445,0.007759,-0.001549,0.008012,-0.001699,-80.701366,0.008444,
1800,1370,-2.973959,-6.733572,0.999997,0.000199,-0.005212,0.010233,0.000439,0.010245,-0.005224,88.373809,0.010246,
1780,390,-1.971494,-16.522174,0.999997,0.000221,-0.004905,0.010121,0.000097,0.010122,-0.004906,89.630069,0.010123,
990,770,1.222058,-13.640257,0.999993,0.000316,-0.007538,0.012233,-0.001598,0.012361,-0.007666,-85.409664,0.012480,
700,1750,1.613182,-2.724561,0.999996,0.000251,-0.004860,0.010045,-0.000212,0.010048,-0.004863,-89.186993,0.010050,
1800,1140,-3.731312,-9.023846,0.999996,0.000257,-0.004531,0.009406,0.000647,0.009436,-0.004561,87.348842,0.009437,
920,1890,0.382593,-1.037955,0.999997,0.000218,-0.001627,0.007704,-0.001010,0.007812,-0.001735,-83.894473,0.008204,
580,600,3.114270,-14.050844,0.999996,0.000244,-0.004816,0.010104,0.000085,0.010104,-0.004817,89.673479,0.010108,
1030,1970,0.092151,-0.419470,0.999998,0.000175,-0.000596,0.006532,-0.000601,0.006582,-0.000646,-85.215875,0.007257,
1620,1750,-1.002808,-2.349886,0.999997,0.000205,-0.003673,0.009157,0.000308,0.009165,-0.003681,88.626309,0.009224,
1320,1850,-0.106417,-1.182424,0.999998,0.000149,-0.001314,0.006778,0.000123,0.006780,-0.001316,89.128479,0.007190,
1100,260,0.217992,-18.562956,0.999998,0.000185,-0.001754,0.007220,0.000069,0.007220,-0.001755,89.560446,0.007532,
1010,920,1.982979,-11.767035,0.999992,0.000302,-0.006515,0.014472,-0.000347,0.014478,-0.006521,-89.051749,0.014502,
810,1340,2.254358,-6.664714,0.999997,0.000279,-0.006112,0.011238,-0.000395,0.011247,-0.006121,-88.695801,0.011262,
1860,680,-3.262080,-13.310137,0.999996,0.000229,-0.005014,0.010070,-0.000224,0.010074,-0.005017,-89.147896,0.010074,
1220,850,0.115117,-15.341139,0.999986,0.000000,-0.009746,0.003218,0.000178,0.003220,-0.009749,89.212429,0.009934,
1180,620,0.124341,-16.123809,0.999997,0.000210,-0.002707,0.006069,-0.001187,0.006226,-0.002865,-82.434214,0.006233,
700,80,0.449335,-19.630378,0.999995,0.000259,-0.002447,0.008816,0.002902,0.009520,-0.003151,76.368443,0.009699,
690,260,1.486315,-17.858314,0.999997,0.000241,-0.004717,0.010020,0.000554,0.010041,-0.004737,87.849499,0.010047,
1290,450,-0.143249,-17.253560,0.999998,0.000171,-0.002464,0.007122,0.000290,0.007131,-0.002473,88.270175,0.007242,
560,470,2.846624,-15.303127,0.999958,0.000000,-0.005843,0.010163,-0.000200,0.010165,-0.005846,-89.284140,0.010203,
1520,660,-1.242739,-14.641153,0.999995,0.000269,-0.006276,0.010907,0.001315,0.011007,-0.006376,85.649724,0.011053,
1370,1520,-0.394343,-3.696016,0.999996,0.000250,-0.003560,0.007786,-0.001530,0.007989,-0.003763,-82.454791,0.007994,
1230,1670,0.004506,-2.413625,0.999998,0.000165,-0.002270,0.007083,0.000011,0.007083,-0.002270,89.934961,0.007233,
1590,140,-0.389882,-19.283606,0.999995,0.000250,-0.002014,0.007845,-0.001262,0.008004,-0.002173,-82.819952,0.008278,
1510,1360,-1.259509,-5.861256,0.999994,0.000266,-0.006660,0.011308,-0.001367,0.011411,-0.006763,-85.673828,0.011476,
940,70,0.114701,-19.824553,0.999998,0.000166,-0.000600,0.006812,0.001072,0.006964,-0.000752,81.931170,0.007645,
1080,700,0.486979,-15.075945,0.999993,0.000313,-0.005123,0.008603,-0.003196,0.009311,-0.005831,-77.515491,0.009409,
1480,220,-0.381324,-18.759203,0.999997,0.000221,-0.001997,0.007663,-0.000502,0.007689,-0.002023,-87.035021,0.007971,
610,830,3.738826,-11.863185,0.999997,0.000214,-0.004645,0.009341,0.000500,0.009359,-0.004663,87.953781,0.009359,
1860,930,-4.029546,-10.933069,0.999998,0.000188,-0.004305,0.008930,-0.000468,0.008947,-0.004321,-87.978909,0.008949,
870,190,0.563205,-18.876356,0.999996,0.000244,-0.002671,0.008331,0.001001,0.008421,-0.002762,84.841584,0.008585,
1770,970,-3.705949,-10.629799,0.999997,0.000217,-0.004435,0.009480,-0.000400,0.009492,-0.004447,-88.353835,0.009498,
650,1470,2.710822,-5.742122,0.999996,0.000232,-0.005148,0.010267,-0.000044,0.010267,-0.005148,-89.836157,0.010267,
1390,1600,-0.428483,-3.117957,0.999997,0.000226,-0.003356,0.007929,-0.000978,0.008013,-0.003440,-85.082468,0.008040,
1470,340,-0.564140,-17.809200,0.999997,0.000201,-0.002852,0.008198,0.000142,0.008200,-0.002853,89.265639,0.008325,
880,620,1.534624,-14.802345,0.999995,0.000257,-0.005890,0.010723,-0.000734,0.010755,-0.005923,-87.474476,0.010774,
830,480,1.483678,-16.079166,0.999996,0.000221,-0.004993,0.009984,-0.000455,0.009998,-0.005006,-88.261939,0.009998,
700,750,3.013469,-12.846286,0.999994,0.000288,-0.005323,0.010416,0.000741,0.010451,-0.005357,87.311992,0.010452,
1560,1160,-2.478985,-8.546200,0.999994,0.000293,-0.005733,0.012176,0.001471,0.012296,-0.005853,85.336792,0.012300,
780,940,3.254893,-10.967995,0.999996,0.000242,-0.004510,0.010189,0.000924,0.010247,-0.004568,86.418463,0.010267,
910,540,1.202935,-15.752280,0.999995,0.000264,-0.005211,0.010009,-0.000975,0.010071,-0.005273,-86.350771,0.010075,
1730,800,-3.024083,-12.384480,0.999996,0.000237,-0.005352,0.010519,-0.001022,0.010584,-0.005418,-86.331178,0.010585,
1770,1920,-0.822668,-1.042734,0.999998,0.000190,-0.003740,0.009592,0.002116,0.009919,-0.004068,81.193800,0.009973,
770,1460,2.100074,-5.472350,0.999995,0.000253,-0.005590,0.010639,0.000110,0.010640,-0.005591,89.613333,0.010644,
1670,1890,-0.669115,-1.163216,0.999997,0.000203,-0.003038,0.008758,0.001518,0.008951,-0.003230,82.783602,0.009065,
580,590,3.083433,-14.152293,0.999996,0.000229,-0.004812,0.010042,0.000074,0.010043,-0.004812,89.713506,0.010045,
1440,280,-0.399014,-18.333966,0.999996,0.000235,-0.002366,0.007802,-0.000093,0.007803,-0.002367,-89.476508,0.008001,
1170,780,0.163057,-15.261827,0.999996,0.000290,-0.003319,0.004125,-0.003273,0.005360,-0.004553,-69.338052,0.005780,
1710,1880,-0.839839,-1.310856,0.999996,0.000218,-0.002991,0.009263,0.001757,0.009510,-0.003238,81.998467,0.009670,
1020,870,1.524353,-12.583941,0.999992,0.000364,-0.007596,0.013837,-0.001230,0.013907,-0.007666,-86.725483,0.013932,
1800,1100,-3.818564,-9.403980,0.999996,0.000244,-0.004455,0.009369,0.000500,0.009387,-0.004473,87.931042,0.009391,
1880,30,-0.188582,-19.990908,0.999991,0.000000,0.000868,0.013993,-0.007901,0.017701,-0.002841,-64.855515,0.019013,
1630,1300,-2.263047,-7.054005,0.999993,0.000310,-0.006358,0.011494,0.000580,0.011513,-0.006377,88.140185,0.011535,
1610,90,-0.254181,-19.655336,0.999997,0.000214,-0.001111,0.007399,-0.001562,0.007676,-0.001389,-79.920357,0.008181,
1180,1420,0.121456,-4.127296,0.999997,0.000199,-0.002671,0.005907,0.001318,0.006105,-0.002869,81.459421,0.006109,
1270,1280,-0.091024,-4.732883,0.999998,0.000177,-0.002648,0.003167,-0.002152,0.003877,-0.003358,-71.748491,0.004209,
740,1830,1.114067,-1.811042,0.999996,0.000225,-0.003760,0.009713,-0.001177,0.009815,-0.003862,-85.046089,0.009889,
950,930,2.413171,-11.299350,0.999996,0.000259,-0.005430,0.012859,0.001297,0.012951,-0.005522,85.962996,0.012998,
1340,360,-0.238480,-17.853083,0.999997,0.000202,-0.002458,0.007412,0.000367,0.007426,-0.002471,87.874268,0.007563,
1520,640,-1.201768,-14.858170,0.999997,0.000246,-0.006004,0.010589,0.001308,0.010692,-0.006107,85.520997,0.010728,
1100,240,0.198767,-18.708642,0.999998,0.000181,-0.001642,0.007145,0.000147,0.007147,-0.001644,89.042721,0.007486,
700,60,0.288908,-19.825426,0.999995,0.000289,-0.001676,0.008766,0.003276,0.009709,-0.002619,73.947194,0.010046,
1600,210,-0.650232,-18.693878,0.999996,0.000235,-0.002855,0.008499,-0.000929,0.008574,-0.002930,-85.354785,0.008716,
1480,200,-0.339544,-18.911404,0.999997,0.000209,-0.001802,0.007544,-0.000576,0.007580,-0.001837,-86.489272,0.007908,
870,170,0.500794,-19.037592,0.999997,0.000236,-0.002419,0.008075,0.001103,0.008189,-0.002534,84.064045,0.008385,
880,600,1.490067,-15.013597,0.999994,0.000284,-0.005741,0.010515,-0.000765,0.010551,-0.005777,-87.310516,0.010567,
650,1450,2.773865,-5.945072,0.999995,0.000252,-0.005192,0.010197,-0.000133,0.010198,-0.005193,-89.504788,0.010199,
1770,950,-3.671446,-10.820252,0.999997,0.000207,-0.004506,0.009649,-0.000715,0.009685,-0.004542,-87.117117,0.009691,
900,1270,1.946545,-7.191548,0.999993,0.000304,-0.006943,0.012218,-0.000301,0.012223,-0.006947,-89.101371,0.012261,
920,1210,2.101711,-7.870499,0.999994,0.000314,-0.006829,0.012623,-0.000818,0.012657,-0.006863,-87.596624,0.012672,
1080,680,0.480200,-15.246315,0.999994,0.000280,-0.004836,0.008473,-0.002956,0.009100,-0.005463,-78.023676,0.009161,
1160,710,0.165432,-15.533827,0.999995,0.000260,-0.003030,0.005519,-0.002637,0.006267,-0.003778,-74.163192,0.006311,
890,540,1.307774,-15.678014,0.999997,0.000233,-0.005218,0.010106,-0.000836,0.010151,-0.005263,-86.887197,0.010153,
1030,320,0.435302,-18.030668,0.999996,0.000235,-0.002710,0.007887,-0.000134,0.007889,-0.002712,-89.276799,0.008016,
1840,950,-3.984792,-10.773001,0.999997,0.000232,-0.004340,0.008972,-0.000349,0.008981,-0.004349,-88.497938,0.008982,
1390,1580,-0.439862,-3.279174,0.999997,0.000219,-0.003424,0.008010,-0.001097,0.008114,-0.003528,-84.568859,0.008137,
780,960,3.303737,-10.762938,0.999996,0.000241,-0.004383,0.010232,0.000875,0.010285,-0.004435,86.587142,0.010317,
1010,1460,0.769705,-4.531721,0.999995,0.000246,-0.005016,0.009373,0.001863,0.009610,-0.005253,82.742657,0.009624,
990,750,1.152899,-13.884407,0.999994,0.000296,-0.007285,0.011855,-0.001788,0.012021,-0.007451,-84.710174,0.012135,
710,880,3.418980,-11.524956,0.999997,0.000227,-0.004882,0.010096,0.001059,0.010171,-0.004956,85.976990,0.010172,
1560,1140,-2.585788,-8.793658,0.999995,0.000266,-0.005295,0.011944,0.001453,0.012066,-0.005416,85.214059,0.012087,
790,760,2.545675,-12.936172,0.999995,0.000263,-0.005931,0.011121,0.000811,0.011159,-0.005970,87.282780,0.011168,
710,140,0.786412,-19.109865,0.999997,0.000196,-0.003844,0.009412,0.001904,0.009680,-0.004112,81.984484,0.009717,
610,1250,3.660113,-8.065192,0.999996,0.000242,-0.004727,0.009410,-0.000465,0.009425,-0.004742,-88.116736,0.009425,
1750,1920,-0.744689,-0.996780,0.999996,0.000250,-0.003705,0.009329,0.002008,0.009632,-0.004007,81.435714,0.009677,
1870,30,-0.196704,-19.985032,0.999985,0.000000,0.000745,0.012858,-0.007066,0.016108,-0.002505,-65.298868,0.017336,
1360,1730,-0.264432,-2.071247,0.999998,0.000188,-0.002200,0.007451,-0.000151,0.007453,-0.002202,-89.103569,0.007658,
1880,370,-2.402387,-16.383448,0.999996,0.000259,-0.004975,0.009842,0.000071,0.009842,-0.004975,89.723964,0.009842,
1670,1870,-0.753581,-1.335760,0.999997,0.000219,-0.003368,0.008987,0.001327,0.009128,-0.003509,83.937311,0.009209,
1400,440,-0.452159,-17.134706,0.999996,0.000235,-0.003315,0.008004,0.000877,0.008071,-0.003383,85.596180,0.008106,
1780,1590,-2.188958,-4.401811,0.999996,0.000234,-0.005093,0.010186,-0.000187,0.010188,-0.005095,-89.298832,0.010188,
1710,1860,-0.930210,-1.495941,0.999997,0.000203,-0.003272,0.009521,0.001546,0.009705,-0.003456,83.205203,0.009839,
1020,890,1.672242,-12.295939,0.999991,0.000373,-0.007154,0.014128,-0.001046,0.014179,-0.007206,-87.192498,0.014180,
920,1290,1.719053,-6.860372,0.999993,0.000316,-0.007148,0.012230,0.000221,0.012233,-0.007150,89.346183,0.012291,
1390,1500,-0.470882,-3.921239,0.999997,0.000213,-0.003735,0.008019,-0.001576,0.008227,-0.003943,-82.492921,0.008229,
1180,1440,0.125193,-4.007352,0.999997,0.000206,-0.002696,0.006086,0.001138,0.006231,-0.002841,82.737749,0.006239,
1790,470,-2.253704,-15.675817,0.999996,0.000267,-0.005099,0.010193,0.000174,0.010195,-0.005101,89.346977,0.010195,
740,1370,2.557395,-6.528176,0.999993,0.000280,-0.005654,0.010728,-0.000432,0.010739,-0.005665,-88.490069,0.010745,
1610,70,-0.176736,-19.804691,0.999997,0.000202,-0.000816,0.007333,-0.001678,0.007665,-0.001148,-78.807009,0.008268,
1230,1650,0.003450,-2.556730,0.999998,0.000184,-0.002319,0.007061,0.000022,0.007061,-0.002319,89.866904,0.007198,
1270,1300,-0.082773,-4.667308,0.999998,0.000184,-0.002428,0.003522,-0.002017,0.004141,-0.003047,-72.931676,0.004292,
1150,780,0.230815,-15.090700,0.999993,0.000302,-0.004020,0.005352,-0.003936,0.006786,-0.005454,-69.985850,0.007191,
740,1810,1.197171,-2.006859,0.999997,0.000221,-0.003945,0.009833,-0.000985,0.009903,-0.004015,-85.933309,0.009962,
880,580,1.443289,-15.224599,0.999994,0.000282,-0.005614,0.010477,-0.000771,0.010514,-0.005651,-87.262066,0.010524,
1610,180,-0.572670,-18.938879,0.999997,0.000208,-0.002403,0.008280,-0.001178,0.008408,-0.002531,-83.779862,0.008627,
690,1990,0.340268,-0.385376,0.999996,0.000271,-0.001667,0.009143,-0.003537,0.010198,-0.002721,-73.399417,0.010561,
1480,180,-0.303710,-19.060546,0.999998,0.000189,-0.001636,0.007375,-0.000642,0.007420,-0.001681,-85.945229,0.007781,
950,420,0.832877,-17.019797,0.999997,0.000227,-0.003801,0.008880,-0.000558,0.008904,-0.003826,-87.486199,0.008933,
1520,620,-1.165235,-15.066869,0.999995,0.000268,-0.005752,0.010386,0.001292,0.010489,-0.005855,85.449869,0.010512,
1050,260,0.310392,-18.521511,0.999997,0.000204,-0.002193,0.007438,0.000049,0.007438,-0.002194,89.705753,0.007644,
780,980,3.339603,-10.558454,0.999995,0.000273,-0.004262,0.010089,0.000512,0.010108,-0.004281,87.957666,0.010147,
1770,930,-3.626693,-11.018067,0.999996,0.000218,-0.004571,0.009663,-0.000754,0.009703,-0.004610,-86.974429,0.009707,
1560,1120,-2.673690,-9.026685,0.999995,0.000264,-0.004803,0.011715,0.001451,0.011842,-0.004929,85.017252,0.011897,
1100,220,0.181611,-18.849789,0.999998,0.000186,-0.001456,0.006968,0.000160,0.006971,-0.001459,88.915548,0.007354,
950,1150,2.261217,-8.534228,0.999994,0.000306,-0.006111,0.013087,-0.001183,0.013160,-0.006184,-86.488208,0.013168,
650,1430,2.840079,-6.150319,0.999996,0.000242,-0.005179,0.010231,-0.000185,0.010233,-0.005181,-89.313985,0.010233,
880,1270,2.081951,-7.263098,0.999993,0.000294,-0.006691,0.012012,-0.000524,0.012026,-0.006705,-88.395527,0.012053,
1600,690,-1.838609,-13.955605,0.999995,0.000297,-0.006370,0.011352,0.000191,0.011354,-0.006373,89.381950,0.011382,
1080,660,0.472798,-15.408388,0.999995,0.000243,-0.004636,0.008313,-0.002742,0.008869,-0.005193,-78.524214,0.008912,
870,150,0.429595,-19.201940,0.999997,0.000224,-0.002185,0.008004,0.001267,0.008159,-0.002340,83.016522,0.008403,
830,460,1.440536,-16.281709,0.999997,0.000204,-0.004862,0.009961,-0.000419,0.009973,-0.004874,-88.380642,0.009974,
650,1460,2.742492,-5.843054,0.999995,0.000249,-0.005175,0.010222,-0.000088,0.010223,-0.005176,-89.672491,0.010223,
940,1210,1.962201,-7.784905,0.999996,0.000225,-0.007082,0.012955,-0.000591,0.012973,-0.007100,-88.313098,0.012992,
1770,1900,-0.945734,-1.237444,0.999997,0.000197,-0.004031,0.009903,0.001794,0.010130,-0.004258,82.779861,0.010173,
990,730,1.097557,-14.118867,0.999994,0.000304,-0.006978,0.011454,-0.001907,0.011649,-0.007173,-84.153558,0.011753,
1690,1880,-0.776510,-1.280846,0.999996,0.000217,-0.003142,0.009012,0.001587,0.009216,-0.003346,82.683715,0.009331,
830,1020,3.173534,-10.156715,0.999997,0.000220,-0.003902,0.010342,0.000191,0.010345,-0.003904,89.233762,0.010448,
1340,340,-0.228495,-18.000158,0.999997,0.000199,-0.002356,0.007287,0.000321,0.007298,-0.002367,88.094823,0.007446,
1370,30,-0.012153,-20.094388,0.999999,0.000000,0.000064,0.006015,-0.000384,0.006040,0.000040,-86.325316,0.006997,
1870,1570,-2.701133,-4.894980,0.999996,0.000269,-0.005025,0.010063,-0.000071,0.010063,-0.005026,-89.731335,0.010063,
1160,850,0.526174,-14.893330,0.999997,0.000222,-0.004749,0.003333,-0.001283,0.003532,-0.004948,-81.191860,0.005096,
1650,1300,-2.388916,-7.109575,0.999994,0.000303,-0.006170,0.011339,0.000682,0.011365,-0.006196,87.773133,0.011381,
1670,1850,-0.839044,-1.524320,0.999997,0.000224,-0.003560,0.009162,0.001138,0.009263,-0.003661,84.926818,0.009331,
1390,1480,-0.476130,-4.079826,0.999996,0.000271,-0.003914,0.008085,-0.001783,0.008344,-0.004173,-81.724877,0.008344,
600,40,0.349157,-19.849594,0.999965,0.000720,-0.001537,0.011023,0.005117,0.012844,-0.003358,70.412883,0.013322,
580,640,3.243093,-13.643485,0.999997,0.000202,-0.004711,0.009996,0.000003,0.009996,-0.004711,89.987589,0.010002,
1790,450,-2.196286,-15.880245,0.999996,0.000240,-0.005028,0.010130,0.000170,0.010132,-0.005030,89.356878,0.010132,
1640,110,-0.360344,-19.490437,0.999996,0.000219,-0.001432,0.007952,-0.001804,0.008286,-0.001767,-79.486875,0.008729,
1180,1460,0.127019,-3.881793,0.999997,0.000233,-0.002689,0.006317,0.000968,0.006420,-0.002792,83.932953,0.006438,
1330,1260,-0.337754,-5.336630,0.999995,0.000285,-0.004817,0.006458,-0.004425,0.007987,-0.006346,-70.934188,0.008437,
1230,1630,0.004026,-2.696934,0.999997,0.000194,-0.002397,0.007052,0.000012,0.007052,-0.002397,89.926360,0.007172,
1440,1850,-0.287608,-1.258751,0.999998,0.000170,-0.001665,0.007347,0.000413,0.007366,-0.001684,87.382884,0.007719,
1610,160,-0.504443,-19.101888,0.999995,0.000255,-0.002153,0.008225,-0.001360,0.008400,-0.002328,-82.656852,0.008674,
1600,1980,-0.191231,-0.390225,0.999997,0.000187,-0.000975,0.007261,0.001584,0.007556,-0.001270,79.481910,0.008092,
1480,160,-0.260668,-19.207229,0.999998,0.000177,-0.001398,0.007272,-0.000718,0.007331,-0.001457,-85.295988,0.007762,
880,560,1.398637,-15.436708,0.999995,0.000258,-0.005442,0.010339,-0.000774,0.010377,-0.005480,-87.197961,0.010383,
1420,1260,-0.913123,-6.371823,0.999994,0.000301,-0.007533,0.011657,-0.002983,0.012110,-0.007986,-81.364857,0.012313,
1270,1320,-0.077770,-4.591924,0.999997,0.000205,-0.002331,0.003901,-0.001848,0.004408,-0.002838,-74.663152,0.004469,
570,230,1.926885,-17.702292,0.999997,0.000222,-0.005025,0.009782,0.000194,0.009784,-0.005028,89.250483,0.009786,
1390,1310,-0.574579,-5.550194,0.999994,0.000296,-0.006117,0.009532,-0.003644,0.010339,-0.006924,-77.513667,0.010536,
1650,1310,-2.350344,-6.994206,0.999994,0.000296,-0.006187,0.011316,0.000609,0.011338,-0.006208,88.008686,0.011355,
1530,420,-0.898791,-16.977064,0.999996,0.000233,-0.003975,0.009053,0.000525,0.009074,-0.003996,87.697650,0.009096,
690,1970,0.508906,-0.584280,0.999996,0.000245,-0.002442,0.009091,-0.003034,0.009840,-0.003191,-76.122023,0.010041,
1560,1100,-2.763097,-9.265237,0.999995,0.000257,-0.004443,0.011505,0.001236,0.011600,-0.004538,85.592884,0.011692,
740,400,1.722806,-16.603417,0.999997,0.000242,-0.004895,0.010106,-0.000111,0.010107,-0.004896,-89.576700,0.010108,
1570,1760,-0.790084,-2.150698,0.999997,0.000199,-0.003386,0.008783,0.000278,0.008789,-0.003392,88.690577,0.008865,
780,1420,2.161457,-5.873245,0.999996,0.000213,-0.005760,0.010734,-0.000031,0.010734,-0.005761,-89.890704,0.010743,
1030,1950,0.117213,-0.549615,0.999998,0.000186,-0.000816,0.006703,-0.000606,0.006751,-0.000865,-85.425097,0.007348,
1770,910,-3.584227,-11.208133,0.999996,0.000231,-0.004625,0.009666,-0.000744,0.009705,-0.004664,-87.028715,0.009707,
1100,200,0.163348,-18.987262,0.999998,0.000172,-0.001289,0.006946,0.000252,0.006954,-0.001297,88.248409,0.007395,
990,710,1.048262,-14.342719,0.999996,0.000244,-0.006662,0.011152,-0.001978,0.011369,-0.006879,-83.739494,0.011452,
810,1920,0.489102,-0.883451,0.999997,0.000224,-0.002216,0.008255,-0.001681,0.008518,-0.002479,-81.102397,0.008763,
870,130,0.364244,-19.357752,0.999997,0.000208,-0.001848,0.007755,0.001314,0.007932,-0.002025,82.345382,0.008242,
950,910,2.289495,-11.560604,0.999995,0.000271,-0.005969,0.013057,0.001209,0.013133,-0.006045,86.377376,0.013147,
1440,1910,-0.187411,-0.825591,0.999997,0.000191,-0.001160,0.006970,0.000582,0.007011,-0.001202,85.924696,0.007499,
1510,1300,-1.442321,-6.566844,0.999993,0.000294,-0.007279,0.012157,-0.000948,0.012203,-0.007325,-87.214445,0.012285,
1660,1180,-2.939652,-8.483702,0.999995,0.000287,-0.005203,0.010910,0.001294,0.011014,-0.005306,85.438662,0.011016,
1180,450,0.124185,-17.256144,0.999998,0.000196,-0.002449,0.007063,-0.000274,0.007071,-0.002456,-88.352745,0.007180,
950,1460,1.082726,-4.806754,0.999996,0.000220,-0.005469,0.010133,0.001391,0.010256,-0.005592,84.944623,0.010270,
570,810,3.859433,-11.948637,0.999987,0.000412,-0.004825,0.009066,0.000015,0.009066,-0.004825,89.938051,0.009072,
1360,2020,-0.016065,-0.095527,0.999998,0.000000,-0.000078,0.006095,0.000282,0.006108,-0.000090,87.386998,0.007001,
1600,930,-2.847329,-11.136340,0.999995,0.000291,-0.004778,0.011199,-0.001381,0.011318,-0.004897,-85.096675,0.011352,
1790,430,-2.137070,-16.082180,0.999997,0.000205,-0.004972,0.010112,0.000167,0.010114,-0.004974,89.367100,0.010114,
1520,600,-1.130644,-15.271499,0.999996,0.000232,-0.005572,0.010237,0.001298,0.010343,-0.005677,85.335562,0.010359,
1180,1480,0.127360,-3.754817,0.999997,0.000219,-0.002665,0.006489,0.000836,0.006565,-0.002741,84.825945,0.006595,
1730,550,-2.170154,-15.042279,0.999995,0.000272,-0.005357,0.010357,0.000135,0.010358,-0.005358,89.506622,0.010360,
1230,1610,0.003329,-2.838942,0.999997,0.000206,-0.002471,0.006993,0.000005,0.006993,-0.002471,89.969436,0.007093,
650,1410,2.905544,-6.355984,0.999996,0.000238,-0.005143,0.010267,-0.000238,0.010271,-0.005146,-89.115781,0.010271,
580,680,3.375493,-13.238895,0.999995,0.000282,-0.005132,0.009966,0.000286,0.009971,-0.005138,88.914458,0.009973,
1420,1850,-0.254247,-1.241287,0.999998,0.000188,-0.001768,0.007226,0.000300,0.007236,-0.001778,88.090912,0.007542,
1420,1730,-0.408252,-2.147079,0.999997,0.000240,-0.002779,0.007814,-0.000224,0.007819,-0.002784,-88.787078,0.007926,
1780,370,-1.908681,-16.725299,0.999997,0.000234,-0.004837,0.010088,0.000009,0.010088,-0.004837,89.964864,0.010091,
880,540,1.358418,-15.643483,0.999996,0.000259,-0.005217,0.010151,-0.000763,0.010189,-0.005255,-87.163931,0.010191,
1480,140,-0.222849,-19.351368,0.999998,0.000189,-0.001221,0.007096,-0.000749,0.007163,-0.001288,-84.892402,0.007637,
1560,130,-0.306509,-19.379931,0.999996,0.000220,-0.001384,0.007567,-0.001174,0.007718,-0.001536,-82.647764,0.008171,
1690,820,-2.883863,-12.237800,0.999996,0.000257,-0.005483,0.010828,-0.001141,0.010907,-0.005562,-86.018277,0.010908,
870,110,0.296756,-19.514926,0.999997,0.000216,-0.001601,0.007649,0.001419,0.007862,-0.001814,81.471181,0.008233,
1420,1220,-1.106535,-6.863951,0.999993,0.000305,-0.007753,0.012430,-0.002587,0.012756,-0.008079,-82.810007,0.012907,
1790,410,-2.079436,-16.286756,0.999997,0.000198,-0.004937,0.010109,0.000156,0.010111,-0.004938,89.407834,0.010112,
790,1400,2.168652,-6.056980,0.999996,0.000223,-0.005837,0.010841,-0.000097,0.010842,-0.005837,-89.666938,0.010853,
1600,1960,-0.252518,-0.536316,0.999998,0.000181,-0.001274,0.007416,0.001443,0.007649,-0.001507,80.815752,0.008103,
970,1320,1.252921,-6.227127,0.999996,0.000234,-0.007082,0.011725,0.001460,0.011838,-0.007194,85.587894,0.011929,
610,1270,3.593095,-7.873622,0.999995,0.000253,-0.004817,0.009664,-0.000490,0.009680,-0.004834,-88.062983,0.009680,
1770,890,-3.533195,-11.404742,0.999995,0.000256,-0.004769,0.009880,-0.000936,0.009939,-0.004829,-86.357373,0.009941,
820,1720,1.167660,-2.683499,0.999997,0.000212,-0.004171,0.009525,-0.000132,0.009527,-0.004172,-89.449397,0.009551,
1420,1910,-0.164705,-0.817566,0.999997,0.000183,-0.001217,0.006888,0.000481,0.006917,-0.001245,86.613693,0.007374,
1760,1590,-2.086209,-4.336606,0.999998,0.000179,-0.005043,0.010190,-0.000212,0.010193,-0.005046,-89.203810,0.010194,
1560,1080,-2.825225,-9.491948,0.999995,0.000264,-0.004056,0.011362,0.001023,0.011430,-0.004123,86.220331,0.011577,
1250,780,-0.045518,-15.492694,0.999997,0.000197,-0.002438,0.002469,0.001150,0.002725,-0.002694,77.446003,0.003129,
1530,400,-0.865913,-17.155462,0.999996,0.000252,-0.003749,0.008943,0.000376,0.008954,-0.003761,88.304628,0.008992,
570,1850,1.797162,-2.210117,0.999960,0.000701,-0.005103,0.010075,-0.000452,0.010088,-0.005117,-88.294771,0.010089,
1360,1150,-1.345278,-6.591274,0.999990,0.000000,-0.002778,0.008447,-0.006101,0.011124,-0.005456,-66.306157,0.011125,
1390,1290,-0.612201,-5.744029,0.999994,0.000293,-0.006466,0.009837,-0.003784,0.010672,-0.007302,-77.548536,0.010911,
1400,1370,-0.569910,-5.067165,0.999993,0.000300,-0.005319,0.008997,-0.002930,0.009574,-0.005896,-78.870337,0.009659,
690,1460,2.535149,-5.720787,0.999996,0.000210,-0.005308,0.010388,-0.000072,0.010388,-0.005309,-89.735374,0.010389,
1480,120,-0.180308,-19.494678,0.999997,0.000189,-0.001003,0.007018,-0.000810,0.007099,-0.001084,-84.287353,0.007648,
780,1400,2.228552,-6.085606,0.999996,0.000237,-0.005803,0.010807,-0.000145,0.010808,-0.005804,-89.500584,0.010818,
1650,1290,-2.428972,-7.226135,0.999994,0.000292,-0.006146,0.011347,0.000756,0.011380,-0.006179,87.531586,0.011394,
1520,580,-1.097131,-15.477090,0.999997,0.000198,-0.005409,0.010073,0.001261,0.010175,-0.005511,85.372876,0.010186,
650,1390,2.971461,-6.563360,0.999996,0.000234,-0.005146,0.010244,-0.000337,0.010252,-0.005154,-88.746627,0.010252,
680,470,2.218018,-15.699528,0.999997,0.000210,-0.005085,0.010171,-0.000176,0.010173,-0.005088,-89.340221,0.010173,
1340,320,-0.217257,-18.145932,0.999998,0.000178,-0.002257,0.007309,0.000218,0.007314,-0.002262,88.694668,0.007489,
830,1920,0.454233,-0.869508,0.999997,0.000231,-0.001710,0.008069,-0.001634,0.008334,-0.001976,-80.761356,0.008710,
1180,1920,0.039629,-0.714404,0.999998,0.000167,-0.000641,0.006401,-0.000105,0.006403,-0.000643,-89.143136,0.007052,
1420,1710,-0.427452,-2.303066,0.999998,0.000215,-0.002930,0.007834,-0.000375,0.007847,-0.002943,-88.006133,0.007928,
1870,550,-2.894441,-14.603750,0.999996,0.000246,-0.005063,0.010225,0.000009,0.010225,-0.005063,89.967388,0.010225,
1520,710,-1.368191,-14.071489,0.999995,0.000243,-0.006840,0.011561,0.001142,0.011631,-0.006910,86.463342,0.011700,
1590,420,-1.153526,-16.804970,0.999997,0.000224,-0.004352,0.009494,0.000380,0.009504,-0.004363,88.428423,0.009515,
1600,1940,-0.325439,-0.691017,0.999997,0.000202,-0.001586,0.007745,0.001470,0.007971,-0.001812,81.257882,0.008357,
1460,1830,-0.354252,-1.423329,0.999997,0.000193,-0.001826,0.007556,0.000444,0.007577,-0.001847,87.294153,0.007901,
560,460,2.806731,-15.407697,0.999949,0.000000,-0.006019,0.010254,-0.000225,0.010257,-0.006022,-89.206621,0.010309,
1080,640,0.466300,-15.582625,0.999996,0.000240,-0.004468,0.008201,-0.002555,0.008697,-0.004963,-79.018513,0.008726,
700,230,1.307698,-18.192478,0.999997,0.000215,-0.004635,0.009975,0.000771,0.010015,-0.004675,86.985925,0.010022,
1660,1160,-3.007626,-8.698386,0.999996,0.000270,-0.004994,0.010755,0.001305,0.010862,-0.005102,85.294214,0.010869,
1530,1760,-0.671200,-2.085283,0.999998,0.000179,-0.003027,0.008445,0.000216,0.008450,-0.003031,88.923216,0.008561,
870,330,0.964312,-17.638053,0.999997,0.000175,-0.003858,0.009286,0.000071,0.009286,-0.003859,89.690376,0.009330,
1100,180,0.141984,-19.126947,0.999998,0.000165,-0.001107,0.006766,0.000251,0.006774,-0.001115,88.174344,0.007265,
1730,530,-2.113877,-15.250223,0.999996,0.000258,-0.005269,0.010329,0.000178,0.010331,-0.005271,89.346868,0.010332,
1070,320,0.330953,-18.093062,0.999997,0.000202,-0.002299,0.007586,-0.000109,0.007587,-0.002300,-89.367790,0.007781,
1290,430,-0.139708,-17.394725,0.999998,0.000164,-0.002364,0.007119,0.000248,0.007125,-0.002370,88.503047,0.007257,
640,590,2.776920,-14.338568,0.999997,0.000225,-0.005156,0.010230,0.000076,0.010230,-0.005157,89.717436,0.010230,
820,1210,2.721800,-8.121124,0.999993,0.000328,-0.005704,0.011225,-0.001279,0.011321,-0.005800,-85.705029,0.011323,
820,1700,1.222692,-2.874154,0.999996,0.000208,-0.004319,0.009546,-0.000067,0.009546,-0.004320,-89.723174,0.009561,
710,820,3.218362,-12.135872,0.999995,0.000275,-0.005155,0.010322,0.001037,0.010391,-0.005224,86.183430,0.010391,
1680,1050,-3.349037,-9.853619,0.999997,0.000179,-0.004120,0.010025,0.000351,0.010033,-0.004128,88.581051,0.010086,
1790,390,-2.020964,-16.490255,0.999997,0.000216,-0.004931,0.010115,0.000087,0.010116,-0.004931,89.667534,0.010117,
1860,660,-3.194494,-13.513242,0.999996,0.000223,-0.005049,0.010088,-0.000210,0.010091,-0.005052,-89.205201,0.010091,
990,690,1.005594,-14.567016,0.999996,0.000218,-0.006360,0.010836,-0.002003,0.011067,-0.006590,-83.441515,0.011134,
1890,1130,-4.146970,-9.224101,0.999997,0.000211,-0.004208,0.008708,0.000355,0.008718,-0.004218,88.427660,0.008720,
1750,1840,-1.176876,-1.779306,0.999996,0.000233,-0.004406,0.009898,0.000964,0.009963,-0.004471,86.161098,0.009981,
1770,1310,-3.031879,-7.276669,0.999996,0.000238,-0.005289,0.010400,0.000712,0.010432,-0.005321,87.406196,0.010433,
1760,1570,-2.141731,-4.541032,0.999997,0.000206,-0.005111,0.010243,-0.000197,0.010245,-0.005113,-89.266833,0.010245,
840,1270,2.342664,-7.385080,0.999993,0.000300,-0.006317,0.011673,-0.000808,0.011709,-0.006353,-87.433311,0.011723,
1350,580,-0.331728,-16.190987,0.999995,0.000256,-0.003509,0.007439,0.001746,0.007710,-0.003781,81.156774,0.007711,
1360,1140,-1.452747,-6.681554,0.999990,0.000000,-0.002370,0.009010,-0.006948,0.012300,-0.005661,-64.658627,0.012313,
1330,1540,-0.262174,-3.439775,0.999997,0.000200,-0.002925,0.007263,-0.000982,0.007357,-0.003019,-84.544213,0.007396,
1540,130,-0.284574,-19.390174,0.999997,0.000178,-0.001217,0.007420,-0.001093,0.007556,-0.001353,-82.899785,0.008058,
880,520,1.321109,-15.843824,0.999996,0.000270,-0.005068,0.010026,-0.000711,0.010059,-0.005102,-87.308828,0.010060,
640,370,2.121096,-16.583601,0.999998,0.000159,-0.004945,0.010099,-0.000060,0.010099,-0.004945,-89.772849,0.010100,
1560,1060,-2.876272,-9.718479,0.999997,0.000233,-0.003767,0.011273,0.000671,0.011303,-0.003797,87.450017,0.011504,
1210,380,0.047570,-17.772220,0.999998,0.000172,-0.002232,0.007081,-0.000207,0.007085,-0.002236,-88.728502,0.007244,
780,1380,2.292040,-6.306855,0.999995,0.000257,-0.005857,0.010961,-0.000237,0.010964,-0.005860,-89.191255,0.010973,
860,1450,1.614548,-5.272398,0.999994,0.000276,-0.005811,0.010628,0.000584,0.010649,-0.005832,87.967093,0.010665,
650,1370,3.041470,-6.768380,0.999996,0.000229,-0.005153,0.010149,-0.000423,0.010161,-0.005165,-88.416469,0.010161,
1890,800,-3.814562,-12.046894,0.999997,0.000234,-0.004594,0.009194,-0.000181,0.009196,-0.004596,-89.248219,0.009196,
1650,1270,-2.510405,-7.450832,0.999994,0.000295,-0.006078,0.011346,0.000912,0.011394,-0.006125,87.011995,0.011404,
1390,1270,-0.662773,-5.945066,0.999994,0.000293,-0.006806,0.010174,-0.003825,0.010996,-0.007628,-77.874231,0.011268,
690,1440,2.595647,-5.930511,0.999995,0.000245,-0.005327,0.010341,-0.000144,0.010342,-0.005328,-89.474615,0.010344,
840,1950,0.317351,-0.622070,0.999997,0.000205,-0.001261,0.007743,-0.001685,0.008048,-0.001566,-79.740445,0.008534,
780,570,1.971610,-14.984736,0.999995,0.000256,-0.005462,0.010475,-0.000199,0.010478,-0.005464,-89.284873,0.010481,
660,670,2.938154,-13.573604,0.999997,0.000221,-0.005196,0.010290,0.000347,0.010298,-0.005204,88.716171,0.010298,
1520,560,-1.064736,-15.680764,0.999996,0.000217,-0.005140,0.009909,0.001204,0.010005,-0.005235,85.454300,0.010008,
1480,100,-0.143349,-19.633182,0.999997,0.000203,-0.000802,0.006842,-0.000816,0.006928,-0.000888,-83.974170,0.007540,
1530,600,-1.186798,-15.229402,0.999997,0.000223,-0.005583,0.010283,0.001186,0.010371,-0.005672,85.749329,0.010387,
690,1950,0.628553,-0.755687,0.999995,0.000259,-0.003172,0.009328,-0.002553,0.009830,-0.003673,-78.890925,0.009934,
950,870,2.040661,-12.086881,0.999994,0.000292,-0.006874,0.013106,0.000767,0.013136,-0.006904,87.804689,0.013141,
810,1020,3.252723,-10.157179,0.999997,0.000194,-0.003991,0.010216,0.000182,0.010218,-0.003993,89.264640,0.010299,
1410,210,-0.239531,-18.892338,0.999998,0.000219,-0.001737,0.007147,-0.000267,0.007155,-0.001745,-88.283187,0.007461,
630,100,0.791730,-19.326246,0.999994,0.000280,-0.004409,0.010494,0.002166,0.010802,-0.004718,81.894120,0.010831,
1710,220,-1.045819,-18.421563,0.999997,0.000202,-0.003597,0.009581,-0.001249,0.009698,-0.003715,-84.631806,0.009786,
1860,1610,-2.532561,-4.457211,0.999995,0.000256,-0.004969,0.010065,-0.000095,0.010065,-0.004970,-89.638607,0.010066,
1660,1140,-3.081647,-8.916674,0.999997,0.000236,-0.004754,0.010647,0.001260,0.010750,-0.004857,85.355102,0.010766,
1080,620,0.459545,-15.746614,0.999996,0.000239,-0.004259,0.008075,-0.002300,0.008490,-0.004674,-79.772167,0.008505,
1610,230,-0.738295,-18.511416,0.999997,0.000225,-0.003021,0.008815,-0.000840,0.008874,-0.003080,-85.959927,0.009012,
820,1680,1.276815,-3.066628,0.999996,0.000222,-0.004454,0.009693,0.000063,0.009694,-0.004454,89.743449,0.009704,
1730,510,-2.057525,-15.457589,0.999996,0.000246,-0.005174,0.010296,0.000216,0.010299,-0.005177,89.201040,0.010299,
560,450,2.773765,-15.515231,0.999881,0.000000,-0.006477,0.010069,-0.000667,0.010096,-0.006504,-87.694067,0.010235,
1400,1730,-0.351936,-2.114546,0.999997,0.000207,-0.002494,0.007657,-0.000177,0.007660,-0.002497,-88.999553,0.007813,
640,570,2.716279,-14.544662,0.999995,0.000245,-0.005126,0.010235,-0.000004,0.010235,-0.005126,-89.986426,0.010235,
610,1290,3.521812,-7.676620,0.999995,0.000256,-0.004913,0.009818,-0.000452,0.009832,-0.004927,-88.244312,0.009832,
1790,370,-1.957171,-16.693147,0.999997,0.000231,-0.004892,0.010102,0.000012,0.010102,-0.004892,89.954490,0.010104,
1750,1820,-1.270795,-1.978619,0.999996,0.000231,-0.004501,0.009938,0.000766,0.009978,-0.004541,86.969620,0.009992,
870,90,0.229133,-19.662579,0.999997,0.000213,-0.001269,0.007281,0.001436,0.007516,-0.001503,80.712944,0.007954,
1290,410,-0.137161,-17.537327,0.999998,0.000162,-0.002291,0.007165,0.000213,0.007169,-0.002296,88.712979,0.007322,
1100,160,0.125866,-19.262256,0.999998,0.000169,-0.000972,0.006766,0.000332,0.006780,-0.000986,87.548402,0.007326,
780,1650,1.543472,-3.482726,0.999995,0.000260,-0.004735,0.009918,0.000142,0.009919,-0.004736,89.446593,0.009923,
1410,1300,-0.724570,-5.830365,0.999995,0.000254,-0.006720,0.010456,-0.003342,0.011083,-0.007348,-79.367395,0.011278,
990,670,0.974297,-14.777082,0.999996,0.000215,-0.006110,0.010524,-0.001984,0.010757,-0.006343,-83.289828,0.010815,
1360,920,-1.500314,-13.427827,0.999981,0.000000,-0.002394,0.009418,0.007635,0.013164,-0.006141,63.862173,0.013174,
1670,1520,-1.810562,-4.765363,0.999994,0.000276,-0.005337,0.010386,-0.000358,0.010394,-0.005346,-88.695081,0.010395,
1770,1330,-2.960793,-7.068020,0.999995,0.000249,-0.005322,0.010333,0.000654,0.010360,-0.005350,87.610745,0.010362,
1560,1040,-2.898942,-9.940716,0.999997,0.000233,-0.003569,0.011077,0.000316,0.011084,-0.003576,88.764268,0.011314,
1340,300,-0.202658,-18.290977,0.999998,0.000166,-0.002113,0.007226,0.000188,0.007229,-0.002116,88.845107,0.007433,
1390,1250,-0.731768,-6.152484,0.999994,0.000298,-0.007136,0.010699,-0.003837,0.011489,-0.007926,-78.359083,0.011762,
780,1360,2.362668,-6.528148,0.999995,0.000274,-0.005893,0.010967,-0.000382,0.010976,-0.005902,-88.701540,0.010986,
670,1460,2.637696,-5.781858,0.999996,0.000243,-0.005227,0.010318,-0.000058,0.010318,-0.005227,-89.787636,0.010318,
1860,640,-3.125532,-13.715099,0.999996,0.000254,-0.005039,0.010123,-0.000156,0.010125,-0.005040,-89.409342,0.010125,
1650,1250,-2.594124,-7.680642,0.999994,0.000303,-0.005967,0.011383,0.001052,0.011447,-0.006030,86.543472,0.011452,
860,1970,0.226898,-0.466946,0.999996,0.000239,-0.001074,0.007334,-0.001553,0.007611,-0.001352,-79.860017,0.008122,
1560,1430,-1.409349,-5.317212,0.999994,0.000267,-0.005986,0.010761,-0.000954,0.010815,-0.006040,-86.750625,0.010839,
1180,1900,0.045208,-0.842600,0.999998,0.000159,-0.000816,0.006505,-0.000123,0.006507,-0.000818,-89.038673,0.007089,
1520,540,-1.035809,-15.877758,0.999996,0.000235,-0.004875,0.009696,0.001119,0.009781,-0.004960,85.634666,0.009781,
1460,190,-0.291998,-19.000301,0.999998,0.000218,-0.001480,0.007340,-0.000573,0.007377,-0.001517,-86.301573,0.007791,
560,440,2.760753,-15.614050,0.999836,0.000000,-0.006676,0.009771,-0.000779,0.009808,-0.006712,-87.294222,0.010028,
780,550,1.918522,-15.193050,0.999994,0.000276,-0.005376,0.010440,-0.000283,0.010445,-0.005381,-88.977013,0.010447,
650,1350,3.112184,-6.969728,0.999996,0.000247,-0.005146,0.010138,-0.000475,0.010153,-0.005161,-88.222449,0.010153,
820,1660,1.330826,-3.265073,0.999996,0.000239,-0.004567,0.009804,0.000182,0.009806,-0.004569,89.276339,0.009814,
1290,680,-0.134213,-15.748794,0.999998,0.000186,-0.002713,0.005431,0.001935,0.005867,-0.003149,77.290652,0.005872,
1530,580,-1.152877,-15.435286,0.999996,0.000217,-0.005437,0.010153,0.001170,0.010240,-0.005524,85.732857,0.010251,
1790,350,-1.890150,-16.896917,0.999997,0.000214,-0.004873,0.010054,-0.000032,0.010054,-0.004873,-89.878842,0.010056,
1790,1180,-3.582563,-8.627826,0.999996,0.000227,-0.004788,0.009807,0.000921,0.009865,-0.004846,86.404585,0.009866,
1660,1050,-3.267582,-9.850038,0.999996,0.000235,-0.004034,0.010139,0.000344,0.010148,-0.004042,88.611362,0.010217,
790,780,2.627251,-12.711758,0.999995,0.000258,-0.005879,0.011130,0.000946,0.011182,-0.005932,86.825152,0.011189,
1630,1240,-2.514780,-7.750313,0.999995,0.000267,-0.006066,0.011597,0.001096,0.011664,-0.006134,86.461429,0.011670,
1480,80,-0.104476,-19.768242,0.999998,0.000163,-0.000591,0.006701,-0.000823,0.006792,-0.000683,-83.638984,0.007480,
860,1730,0.989048,-2.496659,0.999997,0.000208,-0.003804,0.009334,-0.000141,0.009335,-0.003805,-89.385804,0.009388,
1530,60,-0.094080,-19.890898,0.999998,0.000173,-0.000417,0.006698,-0.001081,0.006859,-0.000577,-81.551558,0.007609,
1100,140,0.103429,-19.398500,0.999998,0.000139,-0.000815,0.006615,0.000331,0.006629,-0.000830,87.456383,0.007223,
1290,390,-0.133216,-17.683056,0.999998,0.000170,-0.002228,0.007176,0.000158,0.007179,-0.002230,89.039584,0.007348,
1880,1130,-4.105600,-9.210884,0.999998,0.000187,-0.004243,0.008793,0.000357,0.008803,-0.004253,88.431948,0.008804,
860,1980,0.191815,-0.393172,0.999997,0.000206,-0.000928,0.007318,-0.001607,0.007620,-0.001230,-79.349853,0.008182,
1600,1920,-0.392352,-0.845603,0.999997,0.000215,-0.001864,0.007794,0.001346,0.007978,-0.002047,82.214821,0.008287,
1730,490,-2.003434,-15.663148,0.999996,0.000225,-0.005107,0.010278,0.000248,0.010282,-0.005111,89.078439,0.010282,
1880,1860,-1.680266,-2.055120,0.999996,0.000239,-0.004864,0.009864,0.000452,0.009878,-0.004878,88.245711,0.009879,
1660,1120,-3.141178,-9.127048,0.999996,0.000254,-0.004546,0.010401,0.001023,0.010470,-0.004616,86.102180,0.010495,
1500,690,-1.183063,-14.410845,0.999997,0.000241,-0.006575,0.011184,0.001550,0.011318,-0.006709,85.049492,0.011383,
1820,50,-0.281628,-19.883798,0.999988,0.000427,-0.002549,0.009089,-0.003374,0.009997,-0.003457,-74.945923,0.010154,
1080,600,0.453867,-15.907208,0.999996,0.000248,-0.004036,0.008054,-0.002063,0.008397,-0.004378,-80.578342,0.008399,
1360,910,-1.403908,-13.530385,0.999981,0.000000,-0.002761,0.008863,0.006729,0.011942,-0.005840,65.409255,0.011943,
880,500,1.279646,-16.044270,0.999996,0.000251,-0.004978,0.009927,-0.000695,0.009960,-0.005010,-87.337785,0.009960,
760,1650,1.637089,-3.544635,0.999996,0.000249,-0.004832,0.010044,0.000154,0.010045,-0.004834,89.405340,0.010048,
990,650,0.938526,-14.990730,0.999996,0.000239,-0.005850,0.010176,-0.001925,0.010404,-0.006078,-83.246903,0.010453,
1410,1780,-0.322251,-1.746857,0.999996,0.000246,-0.002303,0.007538,0.000007,0.007538,-0.002303,89.961214,0.007726,
1010,440,0.630774,-17.009887,0.999996,0.000233,-0.003627,0.008465,-0.000825,0.008521,-0.003683,-86.113798,0.008547,
1770,1350,-2.886104,-6.863190,0.999996,0.000243,-0.005320,0.010337,0.000568,0.010358,-0.005341,87.926777,0.010359,
730,1860,1.008918,-1.535910,0.999996,0.000214,-0.003701,0.009753,-0.001406,0.009898,-0.003846,-84.098399,0.009980,
1340,280,-0.190821,-18.436139,0.999998,0.000175,-0.001989,0.007241,0.000094,0.007242,-0.001990,89.417518,0.007483,
1010,1440,0.790326,-4.725375,0.999996,0.000233,-0.005218,0.009521,0.001967,0.009779,-0.005476,82.527441,0.009802,
1560,1020,-2.905054,-10.162000,0.999996,0.000246,-0.003553,0.011049,-0.000202,0.011052,-0.003556,-89.205942,0.011284,
640,350,2.056939,-16.785969,0.999997,0.000200,-0.004932,0.010048,0.000006,0.010048,-0.004932,89.977890,0.010048,
890,1480,1.375648,-4.843029,0.999996,0.000253,-0.005553,0.010417,0.000839,0.010461,-0.005597,86.999593,0.010469,
1390,1230,-0.822197,-6.382240,0.999994,0.000293,-0.007169,0.011057,-0.003718,0.011786,-0.007899,-78.901265,0.012012,
850,760,2.172960,-13.097147,0.999995,0.000295,-0.006474,0.011668,0.000521,0.011683,-0.006489,88.356096,0.011707,
780,1340,2.434083,-6.746817,0.999995,0.000274,-0.005911,0.011007,-0.000521,0.011023,-0.005927,-88.236280,0.011033,
1650,1230,-2.678450,-7.909939,0.999995,0.000285,-0.005804,0.011255,0.001176,0.011335,-0.005885,86.076376,0.011338,
1520,520,-1.007469,-16.068295,0.999996,0.000209,-0.004714,0.009528,0.001055,0.009606,-0.004791,85.787596,0.009606,
1860,620,-3.060178,-13.919522,0.999996,0.000263,-0.005032,0.010154,-0.000078,0.010154,-0.005033,-89.705266,0.010154,
950,850,1.922123,-12.350131,0.999994,0.000290,-0.007181,0.013135,0.000474,0.013146,-0.007192,88.664500,0.013165,
650,1330,3.182667,-7.175011,0.999996,0.000232,-0.005101,0.010158,-0.000531,0.010177,-0.005119,-88.007601,0.010177,
560,650,3.368675,-13.482854,0.999929,0.000000,-0.004116,0.009447,-0.000110,0.009447,-0.004117,-89.535718,0.009473,
1810,120,-0.856691,-19.192963,0.999997,0.000222,-0.003537,0.010356,-0.002568,0.010816,-0.003996,-79.857674,0.010938,
860,1950,0.290801,-0.612138,0.999997,0.000223,-0.001429,0.007598,-0.001499,0.007841,-0.001672,-80.816552,0.008259,
1790,330,-1.827100,-17.094701,0.999996,0.000229,-0.004853,0.010006,-0.000030,0.010006,-0.004853,-89.885817,0.010007,
590,1540,2.804909,-5.209509,0.999997,0.000210,-0.005067,0.010111,0.000050,0.010111,-0.005067,89.809958,0.010111,
1180,1880,0.054878,-0.974024,0.999998,0.000156,-0.000953,0.006553,-0.000098,0.006554,-0.000954,-89.253695,0.007082,
740,380,1.662621,-16.807920,0.999996,0.000260,-0.004842,0.010031,-0.000016,0.010031,-0.004842,-89.939138,0.010033,
1260,190,-0.032558,-19.088645,0.999998,0.000159,-0.001121,0.006615,-0.000021,0.006615,-0.001121,-89.843130,0.007081,
1100,560,0.375299,-16.294021,0.999997,0.000229,-0.003575,0.007607,-0.001683,0.007855,-0.003823,-81.621811,0.007856,
840,1730,1.063665,-2.541356,0.999997,0.000205,-0.003796,0.009385,-0.000163,0.009387,-0.003798,-89.291308,0.009443,
860,1960,0.257558,-0.539003,0.999997,0.000225,-0.001247,0.007415,-0.001497,0.007667,-0.001499,-80.465281,0.008127,
820,1640,1.381603,-3.465275,0.999996,0.000242,-0.004677,0.009859,0.000261,0.009864,-0.004682,88.972786,0.009868,
1610,1240,-2.393418,-7.704288,0.999995,0.000267,-0.006294,0.011794,0.001034,0.011853,-0.006353,86.737956,0.011864,
1870,1860,-1.631456,-2.008610,0.999995,0.000292,-0.004881,0.009920,0.000476,0.009935,-0.004896,88.159567,0.009936,
1080,1170,1.228450,-6.917098,0.999987,0.000380,-0.005330,0.010093,0.004703,0.011414,-0.006651,74.312443,0.011466,
1570,1120,-2.722469,-9.040466,0.999996,0.000247,-0.004769,0.011543,0.001457,0.011672,-0.004898,84.936297,0.011722,
1310,640,-0.198611,-15.914833,0.999997,0.000216,-0.002950,0.006337,0.001794,0.006671,-0.003285,79.439111,0.006671,
1130,800,0.363870,-14.757600,0.999994,0.000302,-0.004972,0.006654,-0.004453,0.008163,-0.006481,-71.273376,0.008621,
750,1080,3.460177,-9.559467,0.999996,0.000224,-0.004335,0.009918,-0.000532,0.009937,-0.004355,-87.867025,0.009963,
1890,860,-3.998360,-11.494154,0.999997,0.000179,-0.004383,0.008937,-0.000219,0.008940,-0.004386,-89.059651,0.008941,
1510,60,-0.083900,-19.895514,0.999998,0.000170,-0.000578,0.006634,-0.000954,0.006758,-0.000702,-82.589595,0.007432,
690,1930,0.772092,-0.957380,0.999997,0.000229,-0.003565,0.009664,-0.002371,0.010076,-0.003977,-80.138633,0.010151,
1670,820,-2.772009,-12.269042,0.999993,0.000301,-0.005663,0.011050,-0.001151,0.011129,-0.005742,-86.080154,0.011131,
1410,190,-0.213207,-19.034312,0.999998,0.000212,-0.001574,0.007078,-0.000349,0.007092,-0.001588,-87.696997,0.007444,
1290,590,-0.147762,-16.293416,0.999997,0.000219,-0.002804,0.006478,0.001106,0.006608,-0.002934,83.296988,0.006621,
1730,910,-3.400900,-11.238818,0.999996,0.000243,-0.004717,0.010063,-0.000952,0.010124,-0.004778,-86.328043,0.010130,
880,130,0.344603,-19.365254,0.999997,0.000207,-0.001820,0.007681,0.001253,0.007844,-0.001982,82.614856,0.008157,
1790,1540,-2.381433,-4.945892,0.999996,0.000275,-0.005155,0.010205,-0.000138,0.010206,-0.005156,-89.484794,0.010207,
1880,800,-3.769320,-12.074670,0.999996,0.000281,-0.004624,0.009265,-0.000241,0.009269,-0.004628,-89.007781,0.009269,
1360,900,-1.292271,-13.605652,0.999991,0.000000,-0.002812,0.008080,0.005930,0.010685,-0.005417,66.282133,0.010686,
1030,1930,0.153372,-0.687809,0.999998,0.000172,-0.000993,0.006783,-0.000569,0.006825,-0.001034,-85.834536,0.007357,
1690,180,-0.797321,-18.835660,0.999997,0.000192,-0.003196,0.009088,-0.001500,0.009269,-0.003377,-83.137206,0.009382,
760,730,2.606765,-13.195263,0.999995,0.000287,-0.005733,0.010853,0.000647,0.010878,-0.005759,87.770360,0.010885,
880,480,1.239503,-16.243636,0.999996,0.000252,-0.004857,0.009819,-0.000674,0.009849,-0.004888,-87.376805,0.009850,
1820,330,-1.974274,-16.999313,0.999995,0.000276,-0.004896,0.009987,0.000002,0.009987,-0.004896,89.994175,0.009987,
810,1400,2.051510,-5.993591,0.999997,0.000214,-0.005940,0.010942,0.000003,0.010942,-0.005940,89.989748,0.010955,
1530,320,-0.718246,-17.864312,0.999998,0.000217,-0.003150,0.008667,-0.000050,0.008667,-0.003150,-89.755493,0.008774,
750,1600,1.823170,-4.083491,0.999996,0.000225,-0.005022,0.010117,0.000234,0.010121,-0.005025,89.114811,0.010121,
1600,1880,-0.530640,-1.169147,0.999997,0.000237,-0.002455,0.008186,0.001136,0.008306,-0.002575,83.973096,0.008503,
1080,580,0.450735,-16.067234,0.999995,0.000269,-0.003839,0.007981,-0.001816,0.008254,-0.004112,-81.460112,0.008254,
1480,60,-0.069787,-19.901002,0.999998,0.000151,-0.000398,0.006498,-0.000809,0.006591,-0.000491,-83.400812,0.007344,
1390,1210,-0.949747,-6.609157,0.999994,0.000286,-0.007168,0.011115,-0.003541,0.011776,-0.007830,-79.413972,0.011988,
1660,1100,-3.188989,-9.334322,0.999995,0.000268,-0.004373,0.010391,0.000984,0.010456,-0.004438,86.204520,0.010496,
710,2000,0.239085,-0.289688,0.999996,0.000249,-0.001561,0.008385,-0.003032,0.009237,-0.002413,-74.315303,0.009581,
560,660,3.394159,-13.374349,0.999912,0.000000,-0.004452,0.010440,0.000050,0.010440,-0.004452,89.806575,0.010478,
1770,1370,-2.816287,-6.653633,0.999996,0.000239,-0.005327,0.010428,0.000454,0.010441,-0.005340,88.350408,0.010442,
1650,1210,-2.761344,-8.133077,0.999995,0.000278,-0.005648,0.011158,0.001266,0.011253,-0.005743,85.715516,0.011254,
1010,1420,0.810661,-4.916998,0.999993,0.000304,-0.005420,0.009618,0.002068,0.009897,-0.005699,82.309563,0.009935,
1880,1750,-2.178182,-3.131614,0.999996,0.000256,-0.004835,0.009814,-0.000028,0.009814,-0.004835,-89.889599,0.009815,
580,1540,2.855414,-5.239908,0.999997,0.000203,-0.005071,0.010107,0.000028,0.010107,-0.005071,89.894267,0.010107,
610,1310,3.451726,-7.476621,0.999996,0.000235,-0.004933,0.009841,-0.000406,0.009852,-0.004945,-88.427530,0.009852,
1230,1590,0.003964,-2.977555,0.999998,0.000180,-0.002520,0.006866,0.000028,0.006866,-0.002520,89.826052,0.006947,
1390,1300,-0.591732,-5.645928,0.999993,0.000319,-0.006285,0.009686,-0.003709,0.010505,-0.007104,-77.544563,0.010720,
1770,1880,-1.061495,-1.437920,0.999997,0.000186,-0.004254,0.009898,0.001475,0.010050,-0.004406,84.112199,0.010075,
820,1860,0.707914,-1.386078,0.999997,0.000222,-0.002721,0.008789,-0.001284,0.008931,-0.002862,-83.709756,0.009120,
780,1320,2.510844,-6.968996,0.999995,0.000273,-0.005902,0.011024,-0.000654,0.011050,-0.005927,-87.791808,0.011059,
1820,40,-0.193995,-19.971881,0.999987,0.000438,-0.002344,0.008764,-0.003448,0.009748,-0.003328,-74.082412,0.009910,
740,360,1.599875,-17.009007,0.999995,0.000261,-0.004755,0.009979,0.000086,0.009980,-0.004756,89.666494,0.009983,
1060,1910,0.142945,-0.808156,0.999998,0.000196,-0.001073,0.006799,-0.000417,0.006821,-0.001096,-86.973937,0.007326,
1790,1700,-1.908535,-3.315841,0.999997,0.000206,-0.004868,0.010052,0.000007,0.010052,-0.004868,89.973277,0.010054,
990,630,0.909607,-15.192465,0.999996,0.000235,-0.005569,0.009898,-0.001857,0.010118,-0.005789,-83.248696,0.010153,
860,1940,0.330039,-0.691506,0.999997,0.000214,-0.001576,0.007737,-0.001504,0.007974,-0.001813,-81.051049,0.008360,
1100,580,0.377187,-16.142800,0.999995,0.000255,-0.003616,0.007648,-0.001806,0.007930,-0.003899,-81.110618,0.007930,
1790,310,-1.761387,-17.296974,0.999996,0.000237,-0.004815,0.010052,-0.000165,0.010054,-0.004817,-89.365635,0.010056,
1560,1000,-2.883395,-10.385222,0.999996,0.000259,-0.003669,0.011218,-0.000621,0.011244,-0.003694,-87.615381,0.011462,
1010,1780,0.422118,-1.801313,0.999997,0.000210,-0.002248,0.007817,-0.000184,0.007820,-0.002252,-88.951009,0.008051,
690,1910,0.894637,-1.140874,0.999997,0.000220,-0.003916,0.009779,-0.001982,0.010060,-0.004197,-81.927321,0.010106,
780,1990,0.221391,-0.341239,0.999997,0.000189,-0.001184,0.007624,-0.002167,0.008128,-0.001688,-76.902844,0.008579,
1730,930,-3.447304,-11.042313,0.999997,0.000223,-0.004570,0.009875,-0.000831,0.009923,-0.004618,-86.717880,0.009931,
1880,860,-3.955054,-11.518916,0.999997,0.000175,-0.004410,0.009071,-0.000288,0.009077,-0.004416,-88.777653,0.009078,
1520,500,-0.980414,-16.259155,0.999997,0.000197,-0.004620,0.009466,0.001004,0.009538,-0.004692,85.941912,0.009538,
1340,260,-0.176322,-18.580983,0.999998,0.000179,-0.001830,0.007094,0.000050,0.007094,-0.001830,89.680015,0.007366,
860,150,0.451301,-19.192931,0.999997,0.000227,-0.002108,0.008096,0.001352,0.008272,-0.002284,82.581770,0.008544,
1410,170,-0.184676,-19.174470,0.999998,0.000210,-0.001387,0.006934,-0.000361,0.006949,-0.001403,-87.519799,0.007350,
1770,1540,-2.280941,-4.883472,0.999996,0.000226,-0.005202,0.010261,-0.000132,0.010262,-0.005204,-89.509323,0.010262,
650,1310,3.254620,-7.377211,0.999997,0.000220,-0.005044,0.010024,-0.000578,0.010046,-0.005066,-87.805477,0.010046,
1360,30,-0.012191,-20.093091,0.999998,0.000000,0.000014,0.005983,-0.000336,0.006002,-0.000005,-86.788440,0.006927,
950,830,1.806052,-12.617627,0.999996,0.000255,-0.007398,0.013030,0.000182,0.013032,-0.007399,89.489269,0.013072,
1300,280,-0.114960,-18.463727,0.999998,0.000167,-0.001648,0.007066,-0.000058,0.007067,-0.001648,-89.617435,0.007394,
1860,600,-2.998788,-14.123686,0.999996,0.000258,-0.005046,0.010138,-0.000062,0.010138,-0.005047,-89.765453,0.010138,
1290,60,-0.013272,-19.916366,0.999998,0.000172,-0.000162,0.006080,-0.000162,0.006085,-0.000167,-88.513458,0.006932,
1870,800,-3.724252,-12.101536,0.999997,0.000271,-0.004659,0.009341,-0.000322,0.009348,-0.004666,-88.681262,0.009348,
560,670,3.415272,-13.272612,0.999866,0.000000,-0.005137,0.010286,0.000652,0.010313,-0.005165,87.584884,0.010313,
1600,1860,-0.600552,-1.335300,0.999997,0.000232,-0.002740,0.008504,0.001035,0.008599,-0.002835,84.783039,0.008763,
1800,330,-1.875779,-17.063881,0.999996,0.000216,-0.004889,0.010006,-0.000038,0.010006,-0.004889,-89.854045,0.010007,
1790,120,-0.793077,-19.223254,0.999995,0.000265,-0.003339,0.010051,-0.002705,0.010577,-0.003865,-78.999425,0.010704,
1010,420,0.608338,-17.178968,0.999996,0.000259,-0.003388,0.008381,-0.000641,0.008415,-0.003423,-86.893833,0.008464,
1600,1490,-1.506026,-4.837692,0.999994,0.000262,-0.005516,0.010394,-0.000659,0.010421,-0.005543,-87.632092,0.010428,
1390,1190,-1.086301,-6.831664,0.999988,0.000396,-0.006842,0.011119,-0.003743,0.011868,-0.007591,-78.686252,0.012021,
1470,1180,-1.767009,-7.883574,0.999991,0.000373,-0.007451,0.013864,-0.000211,0.013866,-0.007453,-89.432162,0.013879,
1780,670,-2.818702,-13.635956,0.999997,0.000205,-0.005301,0.010403,-0.000379,0.010412,-0.005310,-88.618593,0.010413,
1520,1050,-2.744075,-9.812538,0.999996,0.000233,-0.003760,0.012201,0.000463,0.012215,-0.003773,88.340598,0.012508,
590,1460,3.048992,-6.026049,0.999995,0.000283,-0.004993,0.010157,-0.000015,0.010157,-0.004993,-89.944285,0.010157,
1650,1190,-2.846238,-8.359740,0.999995,0.000284,-0.005437,0.011151,0.001334,0.011258,-0.005544,85.432888,0.011258,
1660,1080,-3.236629,-9.545727,0.999996,0.000255,-0.004247,0.010315,0.000711,0.010350,-0.004281,87.212336,0.010401,
1530,380,-0.833846,-17.332960,0.999995,0.000262,-0.003557,0.008796,0.000273,0.008803,-0.003563,88.734755,0.008856,
1080,560,0.447765,-16.221674,0.999996,0.000233,-0.003701,0.007911,-0.001647,0.008140,-0.003930,-82.081004,0.008142,
820,1620,1.429579,-3.663247,0.999996,0.000246,-0.004738,0.009884,0.000326,0.009891,-0.004745,88.723821,0.009894,
1770,1860,-1.168207,-1.637310,0.999996,0.000236,-0.004451,0.010009,0.001201,0.010108,-0.004550,85.284252,0.010125,
800,1330,2.352840,-6.805485,0.999993,0.000337,-0.006069,0.011164,-0.000519,0.011180,-0.006084,-88.277200,0.011195,
1790,290,-1.687003,-17.501562,0.999996,0.000234,-0.004769,0.010122,-0.000329,0.010130,-0.004776,-88.734783,0.010135,
1770,1810,-1.406464,-2.140758,0.999995,0.000269,-0.004642,0.010039,0.000668,0.010069,-0.004672,87.401440,0.010078,
1420,1470,-0.609921,-4.295779,0.999996,0.000249,-0.004478,0.008707,-0.001874,0.008968,-0.004739,-82.065853,0.008973,
780,1300,2.586334,-7.191589,0.999996,0.000250,-0.005881,0.011024,-0.000796,0.011061,-0.005919,-87.311651,0.011070,
1470,1990,-0.074061,-0.292002,0.999998,0.000197,-0.000339,0.006545,0.000802,0.006637,-0.000432,83.439668,0.007427,
1560,980,-2.840061,-10.612017,0.999996,0.000246,-0.003884,0.011381,-0.000962,0.011441,-0.003945,-86.408849,0.011624,
1800,310,-1.809751,-17.263666,0.999996,0.000251,-0.004799,0.010060,-0.000186,0.010063,-0.004801,-89.282869,0.010066,
1810,580,-2.680428,-14.480495,0.999996,0.000214,-0.005165,0.010267,0.000009,0.010267,-0.005165,89.966268,0.010267,
860,1920,0.400723,-0.847519,0.999997,0.000215,-0.001842,0.007848,-0.001391,0.008044,-0.002038,-81.992539,0.008363,
1870,1130,-4.062856,-9.195804,0.999998,0.000186,-0.004290,0.008899,0.000405,0.008912,-0.004303,88.244511,0.008913,
690,1890,1.019390,-1.349784,0.999996,0.000252,-0.004178,0.009996,-0.001664,0.010189,-0.004371,-83.391769,0.010223,
1100,600,0.381312,-15.986842,0.999996,0.000252,-0.003672,0.007643,-0.001965,0.007975,-0.004004,-80.422314,0.007975,
1290,1720,-0.119010,-2.084931,0.999998,0.000162,-0.001971,0.007117,-0.000020,0.007117,-0.001971,-89.874816,0.007350,
1690,160,-0.705956,-19.014463,0.999997,0.000211,-0.002916,0.009019,-0.001758,0.009273,-0.003169,-81.791827,0.009427,
1870,860,-3.910821,-11.542121,0.999997,0.000197,-0.004466,0.009181,-0.000393,0.009192,-0.004478,-88.353443,0.009193,
1650,1240,-2.636968,-7.795328,0.999994,0.000303,-0.005882,0.011342,0.001122,0.011415,-0.005955,86.287602,0.011419,
1180,1860,0.058690,-1.106452,0.999998,0.000177,-0.001103,0.006682,-0.000135,0.006684,-0.001105,-89.005540,0.007166,
1280,190,-0.052835,-19.086069,0.999998,0.000176,-0.001029,0.006620,-0.000102,0.006621,-0.001030,-89.234708,0.007126,
1660,1930,-0.461552,-0.807588,0.999997,0.000218,-0.002226,0.008231,0.001744,0.008514,-0.002509,80.779277,0.008750,
1730,950,-3.489292,-10.844981,0.999997,0.000215,-0.004496,0.009939,-0.000831,0.009987,-0.004544,-86.715775,0.010001,
1060,1650,0.436653,-2.749731,0.999995,0.000264,-0.003159,0.007949,0.000704,0.007993,-0.003204,86.387211,0.008045,
1040,1910,0.168311,-0.818403,0.999997,0.000204,-0.001269,0.006878,-0.000495,0.006908,-0.001299,-86.536472,0.007343,
1350,2020,-0.015004,-0.094136,0.999998,0.000000,-0.000142,0.006090,0.000236,0.006099,-0.000150,87.832186,0.006958,
1190,60,0.010319,-19.916604,0.999998,0.000182,-0.000220,0.006063,0.000119,0.006066,-0.000222,88.914958,0.006879,
1270,1310,-0.078191,-4.625866,0.999997,0.000186,-0.002373,0.003698,-0.001945,0.004268,-0.002943,-73.673218,0.004369,
1520,480,-0.948563,-16.449140,0.999996,0.000238,-0.004514,0.009377,0.000931,0.009439,-0.004576,86.184551,0.009441,
650,1290,3.324619,-7.577788,0.999996,0.000235,-0.004999,0.009948,-0.000654,0.009977,-0.005028,-87.500896,0.009977,
1390,1170,-1.263149,-7.061651,0.999985,0.000469,-0.005914,0.011011,-0.004380,0.012077,-0.006980,-76.318360,0.012126,
1520,1370,-1.300700,-5.800441,0.999994,0.000284,-0.006528,0.011224,-0.001239,0.011310,-0.006614,-86.027699,0.011364,
580,1460,3.098643,-6.057455,0.999994,0.000271,-0.004774,0.010187,0.000040,0.010187,-0.004774,89.848009,0.010194,
560,680,3.481430,-13.155877,0.999393,0.000000,-0.005451,0.009718,0.000792,0.009760,-0.005492,87.018613,0.009785,
1650,1390,-2.064462,-6.095238,0.999996,0.000234,-0.006004,0.010990,0.000035,0.010990,-0.006004,89.883683,0.011006,
1150,540,0.215035,-16.578190,0.999997,0.000218,-0.002935,0.007028,-0.001095,0.007147,-0.003054,-83.802079,0.007172,
880,900,2.635676,-11.502265,0.999995,0.000276,-0.005377,0.011722,0.001446,0.011844,-0.005498,85.199358,0.011854,
840,890,2.802026,-11.558406,0.999996,0.000248,-0.005260,0.011197,0.001385,0.011313,-0.005375,85.221341,0.011317,
1440,1790,-0.376889,-1.708652,0.999998,0.000180,-0.002230,0.007611,0.000132,0.007612,-0.002232,89.233316,0.007827,
580,230,1.876958,-17.745793,0.999997,0.000222,-0.004973,0.009834,0.000218,0.009837,-0.004976,89.156405,0.009838,
1470,1740,-0.526797,-2.143128,0.999997,0.000211,-0.002661,0.008117,0.000019,0.008117,-0.002661,89.897890,0.008276,
1340,240,-0.163215,-18.721868,0.999997,0.000199,-0.001693,0.007034,-0.000026,0.007034,-0.001693,-89.828209,0.007343,
1050,320,0.381548,-18.062949,0.999998,0.000189,-0.002674,0.007717,-0.000198,0.007720,-0.002678,-88.907075,0.007840,
1660,1060,-3.259210,-9.748076,0.999997,0.000214,-0.004088,0.010132,0.000387,0.010143,-0.004099,88.440971,0.010205,
1880,250,-1.953245,-17.565461,0.999997,0.000205,-0.004864,0.009742,-0.000128,0.009743,-0.004865,-89.498187,0.009743,
820,1580,1.520683,-4.058638,0.999995,0.000266,-0.005008,0.010011,0.000396,0.010022,-0.005018,88.488959,0.010022,
830,1400,1.933764,-5.929099,0.999996,0.000288,-0.006061,0.011010,0.000152,0.011011,-0.006062,89.490801,0.011030,
950,810,1.701063,-12.880622,0.999994,0.000304,-0.007497,0.012816,-0.000163,0.012817,-0.007499,-89.541280,0.012879,
1860,580,-2.934179,-14.327075,0.999996,0.000225,-0.005073,0.010171,-0.000040,0.010172,-0.005073,-89.849124,0.010172,
1100,620,0.381467,-15.836073,0.999996,0.000245,-0.003796,0.007644,-0.002157,0.008037,-0.004189,-79.670969,0.008039,
1820,1570,-2.448554,-4.735416,0.999996,0.000247,-0.005069,0.010166,-0.000118,0.010167,-0.005070,-89.555101,0.010167,
1700,930,-3.308362,-11.059986,0.999998,0.000210,-0.004595,0.010120,-0.000912,0.010176,-0.004651,-86.466666,0.010188,
860,130,0.383504,-19.349778,0.999997,0.000211,-0.001773,0.007826,0.001400,0.008026,-0.001973,81.868952,0.008365,
1600,1840,-0.663388,-1.509321,0.999997,0.000240,-0.002931,0.008534,0.000871,0.008600,-0.002997,85.678064,0.008730,
1410,150,-0.159153,-19.313282,0.999998,0.000219,-0.001204,0.006865,-0.000420,0.006887,-0.001226,-87.028799,0.007348,
1700,1550,-1.890084,-4.554124,0.999997,0.000211,-0.005200,0.010303,-0.000264,0.010308,-0.005205,-89.024214,0.010308,
1230,380,0.003848,-17.780793,0.999998,0.000173,-0.002235,0.007070,-0.000032,0.007070,-0.002235,-89.800416,0.007228,
1530,520,-1.054269,-16.034330,0.999997,0.000189,-0.004786,0.009610,0.000997,0.009679,-0.004855,86.055962,0.009679,
780,1280,2.664983,-7.412369,0.999995,0.000249,-0.005828,0.011057,-0.000944,0.011110,-0.005880,-86.809903,0.011116,
1270,1270,-0.101059,-4.759398,0.999997,0.000234,-0.002835,0.002982,-0.002181,0.003708,-0.003561,-71.567393,0.004200,
890,760,1.909848,-13.234364,0.999994,0.000258,-0.006828,0.012048,0.000133,0.012048,-0.006829,89.596010,0.012084,
1450,1240,-1.237576,-6.904735,0.999994,0.000309,-0.007821,0.012640,-0.001816,0.012800,-0.007981,-84.967498,0.012930,
1730,1940,-0.557003,-0.778754,0.999995,0.000258,-0.002324,0.008922,0.002465,0.009438,-0.002841,78.164572,0.009684,
560,900,4.145656,-11.123077,0.999991,0.000000,-0.004078,0.008529,0.000094,0.008529,-0.004078,89.572232,0.008532,
650,1270,3.396685,-7.777902,0.999996,0.000256,-0.004998,0.009978,-0.000733,0.010014,-0.005034,-87.206203,0.010014,
1180,1840,0.067661,-1.242461,0.999998,0.000167,-0.001219,0.006787,-0.000085,0.006788,-0.001220,-89.391847,0.007237,
1590,1480,-1.472205,-4.907479,0.999994,0.000293,-0.005613,0.010428,-0.000726,0.010461,-0.005646,-87.412590,0.010472,
1180,190,0.057011,-19.085758,0.999998,0.000166,-0.001035,0.006652,0.000090,0.006653,-0.001036,89.328230,0.007159,
1470,1970,-0.112021,-0.425435,0.999998,0.000193,-0.000558,0.006674,0.000802,0.006762,-0.000646,83.745666,0.007463,
1150,520,0.213696,-16.720037,0.999997,0.000203,-0.002921,0.007130,-0.000992,0.007227,-0.003018,-84.416435,0.007260,
880,920,2.722372,-11.272692,0.999996,0.000250,-0.005029,0.011477,0.001444,0.011603,-0.005154,85.037290,0.011627,
1640,1560,-1.555055,-4.250872,0.999995,0.000229,-0.005120,0.010137,-0.000442,0.010149,-0.005133,-88.341574,0.010150,
820,890,2.904622,-11.534147,0.999996,0.000270,-0.005165,0.010947,0.001316,0.011054,-0.005272,85.362443,0.011058,
1030,1910,0.178250,-0.822271,0.999998,0.000198,-0.001196,0.006919,-0.000559,0.006958,-0.001235,-86.078665,0.007425,
1890,1300,-3.666126,-7.683303,0.999995,0.000241,-0.004817,0.009770,0.000193,0.009772,-0.004819,89.243141,0.009772,
1230,1570,0.003116,-3.113591,0.999998,0.000177,-0.002548,0.006859,0.000038,0.006859,-0.002548,89.766518,0.006934,
1400,1910,-0.141609,-0.808897,0.999997,0.000161,-0.001042,0.006779,0.000437,0.006803,-0.001067,86.812294,0.007318,
1390,890,-1.308134,-13.041766,0.999985,0.000414,-0.005645,0.011074,0.004647,0.012279,-0.006850,75.464088,0.012306,
1350,1160,-1.227888,-6.279163,0.999995,0.000000,-0.002404,0.006682,-0.005328,0.009141,-0.004863,-65.225630,0.009147,
990,610,0.888459,-15.389613,0.999996,0.000236,-0.005280,0.009789,-0.001737,0.009986,-0.005478,-83.508313,0.010002,
1340,220,-0.144618,-18.862964,0.999997,0.000203,-0.001527,0.006880,-0.000051,0.006881,-0.001527,-89.649675,0.007227,
1740,1750,-1.500625,-2.651086,0.999996,0.000246,-0.004640,0.009983,0.000290,0.009988,-0.004646,88.865930,0.009996,
580,220,1.827101,-17.845708,0.999997,0.000222,-0.005033,0.009864,0.000313,0.009871,-0.005040,88.795440,0.009872,
820,1490,1.739720,-4.989997,0.999996,0.000229,-0.005510,0.010487,0.000427,0.010498,-0.005521,88.473763,0.010503,
1560,960,-2.776984,-10.840432,0.999996,0.000238,-0.004275,0.011445,-0.001157,0.011530,-0.004360,-85.814816,0.011643,
730,1900,0.797810,-1.148903,0.999996,0.000253,-0.003187,0.009386,-0.001925,0.009674,-0.003475,-81.488776,0.009801,
950,520,0.975440,-16.091471,0.999997,0.000212,-0.004725,0.009494,-0.001084,0.009576,-0.004807,-85.664952,0.009576,
1790,270,-1.608167,-17.703203,0.999996,0.000226,-0.004717,0.010082,-0.000504,0.010099,-0.004735,-88.051153,0.010106,
610,1750,2.045457,-3.030495,0.999997,0.000207,-0.004834,0.009940,0.000010,0.009940,-0.004834,89.959473,0.009941,
570,1460,3.144743,-6.087349,0.999980,0.000484,-0.004653,0.010234,0.000088,0.010234,-0.004654,89.659598,0.010248,
1840,1370,-3.179074,-6.841972,0.999997,0.000218,-0.005083,0.010087,0.000347,0.010095,-0.005091,88.689836,0.010095,
1540,990,-2.789293,-10.512192,0.999998,0.000193,-0.003810,0.011776,-0.000788,0.011816,-0.003850,-87.112468,0.012052,
590,530,2.849367,-14.799582,0.999996,0.000227,-0.005059,0.010147,-0.000041,0.010147,-0.005059,-89.846761,0.010147,
1440,1810,-0.350606,-1.558925,0.999997,0.000192,-0.002050,0.007611,0.000242,0.007617,-0.002056,88.568919,0.007881,
1770,1790,-1.493204,-2.341997,0.999997,0.000234,-0.004723,0.010051,0.000505,0.010068,-0.004740,88.043920,0.010074,
1860,560,-2.874107,-14.531129,0.999996,0.000238,-0.005068,0.010229,0.000007,0.010229,-0.005068,89.973635,0.010229,
1080,540,0.442021,-16.381848,0.999997,0.000213,-0.003611,0.007956,-0.001501,0.008148,-0.003803,-82.725610,0.008154,
1600,1820,-0.728222,-1.680590,0.999996,0.000247,-0.003177,0.008723,0.000742,0.008769,-0.003223,86.447294,0.008871,
1730,970,-3.531925,-10.641080,0.999996,0.000215,-0.004390,0.009820,-0.000533,0.009840,-0.004410,-87.853831,0.009857,
820,1560,1.570926,-4.263793,0.999994,0.000269,-0.005144,0.010166,0.000432,0.010178,-0.005156,88.383743,0.010178,
1760,1050,-3.688912,-9.863101,0.999995,0.000234,-0.004347,0.009588,0.000343,0.009596,-0.004355,88.589352,0.009610,
950,790,1.608192,-13.137728,0.999993,0.000313,-0.007492,0.012690,-0.000464,0.012701,-0.007503,-88.684309,0.012770,
1640,930,-3.034464,-11.097445,0.999996,0.000243,-0.004607,0.010711,-0.001183,0.010802,-0.004698,-85.608885,0.010832,
1690,480,-1.772095,-15.895776,0.999997,0.000192,-0.005077,0.010157,0.000308,0.010164,-0.005083,88.840843,0.010164,
1660,1040,-3.277460,-9.951817,0.999996,0.000231,-0.004020,0.010169,0.000245,0.010173,-0.004024,89.009860,0.010247,
560,890,4.123016,-11.209128,0.999991,0.000000,-0.004135,0.008465,0.000032,0.008465,-0.004135,89.856450,0.008466,
640,330,1.988355,-16.987992,0.999996,0.000227,-0.004885,0.009983,-0.000003,0.009983,-0.004885,-89.986613,0.009984,
1450,1180,-1.613787,-7.714364,0.999993,0.000328,-0.007600,0.013992,-0.000850,0.014026,-0.007634,-87.750435,0.014044,
1840,1130,-3.931979,-9.158521,0.999997,0.000222,-0.004414,0.009145,0.000564,0.009168,-0.004437,87.622275,0.009170,
1530,500,-1.026564,-16.223269,0.999997,0.000192,-0.004651,0.009496,0.000944,0.009559,-0.004714,86.197458,0.009559,
780,1260,2.745010,-7.638355,0.999995,0.000261,-0.005725,0.011043,-0.001038,0.011107,-0.005789,-86.471721,0.011111,
1760,1310,-2.977967,-7.254509,0.999996,0.000232,-0.005344,0.010468,0.000729,0.010501,-0.005377,87.364426,0.010502,
1390,870,-1.128901,-13.272966,0.999987,0.000389,-0.006692,0.011167,0.003828,0.011953,-0.007478,78.396525,0.012078,
1870,730,-3.483830,-12.782618,0.999996,0.000247,-0.004877,0.009767,-0.000269,0.009772,-0.004882,-88.949803,0.009772,
1250,1790,-0.029746,-1.577901,0.999998,0.000148,-0.001639,0.006887,-0.000078,0.006887,-0.001640,-89.474950,0.007195,
1430,1240,-1.083927,-6.715681,0.999994,0.000292,-0.007813,0.012249,-0.002468,0.012548,-0.008112,-83.089441,0.012726,
1330,380,-0.225003,-17.716249,0.999998,0.000167,-0.002537,0.007389,0.000451,0.007409,-0.002558,87.401760,0.007526,
890,740,1.830993,-13.475236,0.999995,0.000262,-0.006803,0.011871,-0.000104,0.011871,-0.006804,-89.680113,0.011913,
650,1250,3.467570,-7.977425,0.999996,0.000253,-0.004918,0.009846,-0.000769,0.009885,-0.004958,-87.028221,0.009885,
1180,1820,0.072294,-1.379496,0.999998,0.000144,-0.001348,0.006854,-0.000082,0.006854,-0.001348,-89.429643,0.007263,
1470,1950,-0.146307,-0.558918,0.999998,0.000200,-0.000713,0.006834,0.000783,0.006914,-0.000794,84.139796,0.007568,
680,1610,2.147343,-4.205724,0.999996,0.000261,-0.005040,0.010142,0.000160,0.010144,-0.005041,89.396195,0.010144,
1710,1940,-0.520869,-0.765196,0.999997,0.000216,-0.001807,0.008767,0.002471,0.009316,-0.002356,77.476652,0.009688,
920,190,0.448949,-18.929849,0.999997,0.000218,-0.001897,0.007923,0.000902,0.008005,-0.001979,84.797530,0.008339,
580,530,2.899475,-14.768650,0.999997,0.000205,-0.005047,0.010147,-0.000052,0.010148,-0.005047,-89.805185,0.010148,
1350,1150,-1.332412,-6.359730,0.999988,0.000000,-0.002361,0.007039,-0.006127,0.010061,-0.005383,-63.746939,0.010069,
1740,1730,-1.570194,-2.850955,0.999995,0.000265,-0.004722,0.009964,0.000135,0.009965,-0.004723,89.473912,0.009970,
890,1440,1.464167,-5.265517,0.999994,0.000291,-0.005884,0.010608,0.000844,0.010651,-0.005927,87.077229,0.010674,
950,500,0.948135,-16.283343,0.999998,0.000211,-0.004632,0.009450,-0.001032,0.009526,-0.004707,-85.830536,0.009526,
1210,640,0.049293,-16.048982,0.999999,0.000139,-0.002319,0.005461,-0.000577,0.005503,-0.002362,-85.783051,0.005522,
1650,650,-2.018059,-14.232244,0.999996,0.000244,-0.005905,0.010950,0.000075,0.010951,-0.005905,89.745909,0.010962,
860,1900,0.470650,-1.009143,0.999996,0.000235,-0.002167,0.008149,-0.001346,0.008321,-0.002339,-82.689089,0.008583,
1870,1370,-3.328100,-6.929679,0.999995,0.000286,-0.004959,0.010042,0.000179,0.010044,-0.004961,89.315355,0.010044,
1520,460,-0.919442,-16.638217,0.999997,0.000209,-0.004313,0.009248,0.000786,0.009294,-0.004359,86.694299,0.009299,
880,940,2.808940,-11.042269,0.999996,0.000260,-0.004617,0.011328,0.001368,0.011444,-0.004734,85.132047,0.011501,
820,1540,1.619278,-4.468364,0.999996,0.000227,-0.005239,0.010257,0.000460,0.010271,-0.005252,88.299420,0.010272,
1710,380,-1.600575,-16.845434,0.999995,0.000240,-0.004713,0.009928,-0.000014,0.009928,-0.004713,-89.944671,0.009932,
1340,200,-0.134283,-18.998760,0.999998,0.000176,-0.001379,0.006849,-0.000128,0.006851,-0.001381,-89.107211,0.007246,
1860,540,-2.813238,-14.738247,0.999996,0.000222,-0.005048,0.010170,0.000021,0.010170,-0.005048,89.920112,0.010170,
950,770,1.519837,-13.393573,0.999992,0.000311,-0.007389,0.012443,-0.000731,0.012470,-0.007416,-87.891303,0.012544,
1620,930,-2.943254,-11.116299,0.999996,0.000269,-0.004664,0.010961,-0.001293,0.011068,-0.004770,-85.302908,0.011103,
650,1720,1.956752,-3.188619,0.999995,0.000284,-0.004947,0.010070,-0.000011,0.010070,-0.004947,-89.959829,0.010071,
1410,130,-0.132414,-19.448835,0.999998,0.000177,-0.001025,0.006735,-0.000441,0.006760,-0.001050,-86.760531,0.007276,
730,1880,0.906814,-1.341007,0.999995,0.000246,-0.003496,0.009580,-0.001654,0.009786,-0.003702,-82.901150,0.009883,
560,880,4.097608,-11.295871,0.999992,0.000000,-0.004228,0.008347,-0.000017,0.008347,-0.004228,-89.923913,0.008347,
1590,1780,-0.810975,-2.015300,0.999998,0.000185,-0.003586,0.008868,0.000393,0.008881,-0.003598,88.196461,0.008934,
1660,1020,-3.281443,-10.157300,0.999996,0.000216,-0.004038,0.010162,-0.000188,0.010164,-0.004041,-89.241093,0.010235,
810,880,2.919575,-11.631149,0.999996,0.000283,-0.005202,0.010930,0.001302,0.011034,-0.005307,85.415665,0.011037,
890,520,1.270240,-15.878367,0.999996,0.000264,-0.005110,0.009982,-0.000787,0.010023,-0.005151,-87.023333,0.010025,
780,1240,2.824504,-7.856686,0.999996,0.000259,-0.005613,0.010901,-0.001097,0.010973,-0.005685,-86.217494,0.010976,
650,1340,3.147983,-7.072253,0.999995,0.000262,-0.005125,0.010160,-0.000501,0.010176,-0.005142,-88.124878,0.010177,
1390,1350,-0.527829,-5.177831,0.999993,0.000291,-0.005420,0.008917,-0.003237,0.009614,-0.006116,-77.850115,0.009732,
1520,1450,-1.140039,-4.938351,0.999997,0.000232,-0.005618,0.010256,-0.001292,0.010361,-0.005722,-85.377787,0.010380,
1570,1240,-2.132346,-7.588630,0.999995,0.000303,-0.006717,0.012304,0.000728,0.012332,-0.006745,87.810572,0.012350,
650,1780,1.737068,-2.580699,0.999996,0.000222,-0.004775,0.010123,-0.000383,0.010133,-0.004785,-88.529204,0.010139,
870,760,2.042173,-13.161187,0.999995,0.000257,-0.006657,0.011875,0.000324,0.011880,-0.006663,88.998073,0.011910,
1030,1890,0.217837,-0.964694,0.999998,0.000209,-0.001404,0.007033,-0.000509,0.007064,-0.001434,-86.559704,0.007467,
1250,1770,-0.035165,-1.717846,0.999998,0.000156,-0.001766,0.006957,-0.000077,0.006957,-0.001767,-89.493197,0.007233,
1470,600,-0.862262,-15.498793,0.999997,0.000192,-0.005160,0.009673,0.001736,0.009873,-0.005360,83.414508,0.009885,
1310,380,-0.174093,-17.740583,0.999998,0.000155,-0.002369,0.007244,0.000272,0.007251,-0.002376,88.379629,0.007393,
1180,1800,0.081997,-1.515303,0.999998,0.000152,-0.001485,0.006881,-0.000035,0.006881,-0.001485,-89.760001,0.007242,
1350,900,-1.277994,-13.848178,0.999982,0.000000,-0.002173,0.006883,0.005768,0.009688,-0.004978,64.065827,0.009690,
900,190,0.487756,-18.911474,0.999997,0.000211,-0.002133,0.008064,0.000931,0.008148,-0.002217,84.826608,0.008426,
650,1230,3.534969,-8.175305,0.999995,0.000259,-0.004831,0.009680,-0.000737,0.009717,-0.004868,-87.100863,0.009717,
1230,1550,0.002391,-3.251092,0.999998,0.000181,-0.002548,0.006780,0.000030,0.006780,-0.002549,89.814748,0.006849,
1470,1930,-0.184081,-0.698822,0.999997,0.000192,-0.000907,0.007026,0.000766,0.007099,-0.000980,84.537800,0.007694,
1520,990,-2.711815,-10.536202,0.999996,0.000261,-0.003927,0.012386,-0.000752,0.012420,-0.003962,-87.365735,0.012689,
1480,1430,-0.944880,-4.952659,0.999994,0.000285,-0.005592,0.009974,-0.001778,0.010174,-0.005792,-83.567011,0.010207,
820,1520,1.666615,-4.677540,0.999995,0.000236,-0.005294,0.010358,0.000461,0.010372,-0.005308,88.312738,0.010373,
890,1460,1.420352,-5.053717,0.999995,0.000271,-0.005721,0.010474,0.000862,0.010520,-0.005767,86.960894,0.010536,
1600,1800,-0.789142,-1.859439,0.999997,0.000221,-0.003324,0.008794,0.000576,0.008822,-0.003351,87.285320,0.008906,
740,340,1.537304,-17.211681,0.999995,0.000251,-0.004642,0.009969,0.000157,0.009970,-0.004644,89.383471,0.009978,
690,1870,1.127954,-1.545078,0.999996,0.000241,-0.004367,0.009971,-0.001341,0.010095,-0.004491,-84.700479,0.010116,
950,750,1.445655,-13.636530,0.999993,0.000292,-0.007214,0.012077,-0.000948,0.012124,-0.007261,-87.194631,0.012202,
570,530,2.949923,-14.737734,0.999994,0.000268,-0.005051,0.010146,-0.000070,0.010147,-0.005052,-89.737462,0.010147,
1650,610,-1.898894,-14.666170,0.999996,0.000233,-0.005732,0.010750,0.000239,0.010753,-0.005735,89.168808,0.010761,
1160,860,0.642012,-14.861738,0.999997,0.000208,-0.004832,0.002960,-0.001008,0.003088,-0.004961,-82.747754,0.005010,
880,960,2.873701,-10.818769,0.999995,0.000268,-0.004260,0.011079,0.001103,0.011158,-0.004339,85.906530,0.011250,
1270,640,-0.088562,-16.027873,0.999998,0.000170,-0.002501,0.005656,0.000957,0.005766,-0.002612,83.399081,0.005775,
1710,360,-1.539090,-17.043589,0.999997,0.000190,-0.004567,0.009899,-0.000148,0.009900,-0.004568,-89.414814,0.009910,
1340,180,-0.114598,-19.137573,0.999998,0.000173,-0.001237,0.006701,-0.000168,0.006704,-0.001240,-88.789145,0.007134,
560,870,4.079658,-11.376435,0.999995,0.000000,-0.004271,0.008437,-0.000003,0.008437,-0.004271,-89.985772,0.008438,
1640,1350,-2.138337,-6.512326,0.999995,0.000289,-0.006186,0.011285,0.000231,0.011289,-0.006189,89.242763,0.011306,
1100,1360,0.391608,-4.906037,0.999996,0.000239,-0.004596,0.007828,0.003229,0.008617,-0.005385,76.265937,0.008706,
1120,1810,0.172040,-1.475789,0.999998,0.000159,-0.001715,0.007065,-0.000029,0.007065,-0.001715,-89.812715,0.007370,
1860,520,-2.753793,-14.938660,0.999996,0.000242,-0.005039,0.010123,0.000046,0.010123,-0.005039,89.825019,0.010123,
900,1570,1.153130,-3.898884,0.999995,0.000288,-0.004731,0.009647,0.000704,0.009681,-0.004765,87.201647,0.009682,
760,1950,0.450270,-0.671619,0.999995,0.000237,-0.001726,0.008471,-0.002360,0.008991,-0.002246,-77.579786,0.009358,
1420,130,-0.143400,-19.445431,0.999998,0.000155,-0.001068,0.006779,-0.000475,0.006808,-0.001096,-86.544980,0.007311,
780,1460,2.043899,-5.439274,0.999996,0.000211,-0.005609,0.010649,0.000142,0.010650,-0.005610,89.499085,0.010655,
1890,1620,-2.651389,-4.452218,0.999995,0.000285,-0.004934,0.009991,-0.000027,0.009991,-0.004934,-89.896339,0.009991,
1590,580,-1.483463,-15.199535,0.999995,0.000282,-0.005615,0.010494,0.000731,0.010527,-0.005648,87.408344,0.010537,
790,880,3.020076,-11.608213,0.999996,0.000246,-0.005103,0.010695,0.001244,0.010793,-0.005201,85.523691,0.010795,
1350,30,-0.012693,-20.092663,0.999999,0.000000,-0.000080,0.005938,-0.000301,0.005953,-0.000095,-87.143676,0.006820,
1290,380,-0.129922,-17.755972,0.999998,0.000156,-0.002192,0.007155,0.000136,0.007157,-0.002194,89.168486,0.007334,
670,1340,3.042985,-7.021554,0.999996,0.000229,-0.005213,0.010221,-0.000577,0.010242,-0.005234,-87.862192,0.010243,
1390,850,-0.986113,-13.496888,0.999993,0.000290,-0.007173,0.011129,0.003552,0.011794,-0.007838,79.393876,0.012005,
890,500,1.230063,-16.079077,0.999996,0.000245,-0.004962,0.009871,-0.000757,0.009910,-0.005001,-87.086228,0.009910,
1660,1000,-3.262698,-10.362351,0.999997,0.000204,-0.004048,0.010132,-0.000370,0.010142,-0.004058,-88.505752,0.010209,
1470,580,-0.841379,-15.691035,0.999997,0.000227,-0.005010,0.009487,0.001647,0.009672,-0.005195,83.598636,0.009681,
880,1470,1.455036,-4.986369,0.999995,0.000250,-0.005661,0.010492,0.000764,0.010528,-0.005697,87.297010,0.010540,
1020,190,0.265775,-19.011633,0.999996,0.000219,-0.001528,0.007232,0.000482,0.007258,-0.001554,86.860669,0.007643,
1250,1750,-0.034939,-1.856238,0.999998,0.000162,-0.001909,0.006983,-0.000123,0.006985,-0.001911,-89.207900,0.007219,
620,1270,3.544439,-7.847255,0.999996,0.000225,-0.004860,0.009761,-0.000549,0.009782,-0.004881,-87.852218,0.009782,
1180,1780,0.085493,-1.656129,0.999998,0.000164,-0.001609,0.007028,-0.000023,0.007028,-0.001609,-89.847639,0.007365,
860,1880,0.540009,-1.172299,0.999996,0.000237,-0.002415,0.008184,-0.001156,0.008308,-0.002539,-83.847442,0.008515,
820,1500,1.714807,-4.884645,0.999996,0.000222,-0.005439,0.010429,0.000445,0.010441,-0.005451,88.396605,0.010445,
650,1760,1.815367,-2.784221,0.999995,0.000276,-0.004798,0.010101,-0.000247,0.010105,-0.004802,-89.051263,0.010110,
740,320,1.474913,-17.409846,0.999996,0.000232,-0.004474,0.009886,0.000251,0.009891,-0.004478,89.000795,0.009905,
1150,860,0.685590,-14.724243,0.999996,0.000247,-0.004308,0.003461,-0.001602,0.003778,-0.004626,-78.793245,0.004926,
690,1850,1.234930,-1.749197,0.999996,0.000227,-0.004495,0.010053,-0.001102,0.010136,-0.004578,-85.694472,0.010151,
650,1650,2.179194,-3.898094,0.999996,0.000252,-0.004962,0.010094,0.000122,0.010095,-0.004963,89.534028,0.010096,
1520,440,-0.887049,-16.823374,0.999997,0.000218,-0.004070,0.009091,0.000642,0.009122,-0.004102,87.212448,0.009137,
1650,70,-0.203996,-19.797496,0.999997,0.000215,-0.000945,0.007521,-0.001940,0.007944,-0.001368,-77.691981,0.008494,
1340,160,-0.101889,-19.267893,0.999998,0.000148,-0.001086,0.006651,-0.000228,0.006658,-0.001093,-88.310496,0.007141,
1480,400,-0.680604,-17.281051,0.999996,0.000226,-0.003655,0.008610,0.000601,0.008640,-0.003685,87.202262,0.008671,
1270,620,-0.091020,-16.143540,0.999998,0.000173,-0.002524,0.005891,0.000815,0.005970,-0.002602,84.518841,0.005986,
880,1400,1.626382,-5.743779,0.999995,0.000251,-0.006238,0.011093,0.000585,0.011112,-0.006258,88.067400,0.011142,
1640,1330,-2.209893,-6.738964,0.999994,0.000303,-0.006238,0.011333,0.000407,0.011343,-0.006247,88.674994,0.011362,
1540,1570,-1.048478,-3.825935,0.999997,0.000220,-0.004553,0.009482,-0.000811,0.009529,-0.004600,-86.703309,0.009531,
1100,1340,0.401208,-5.063157,0.999995,0.000254,-0.004838,0.007949,0.003499,0.008844,-0.005733,75.653475,0.008973,
560,860,4.057052,-11.458838,0.999996,0.000000,-0.004327,0.008658,0.000062,0.008658,-0.004328,89.726399,0.008658,
1860,500,-2.695175,-15.142284,0.999995,0.000249,-0.005048,0.010130,0.000060,0.010130,-0.005049,89.774021,0.010130,
1100,1810,0.204978,-1.489792,0.999998,0.000173,-0.001634,0.007160,-0.000137,0.007162,-0.001636,-89.107096,0.007506,
760,1930,0.568000,-0.851069,0.999996,0.000237,-0.002140,0.008739,-0.002281,0.009198,-0.002599,-78.625269,0.009484,
1460,130,-0.185819,-19.428198,0.999998,0.000159,-0.000931,0.006955,-0.000725,0.007021,-0.000997,-84.792799,0.007597,
580,390,2.480064,-16.177798,0.999994,0.000274,-0.007257,0.009666,0.000060,0.009666,-0.007258,89.798453,0.010064,
730,880,3.319008,-11.547187,0.999996,0.000271,-0.004925,0.010242,0.001120,0.010324,-0.005007,85.799578,0.010326,
1590,560,-1.438619,-15.410773,0.999995,0.000270,-0.005475,0.010365,0.000735,0.010399,-0.005509,87.350643,0.010405,
780,1220,2.902806,-8.074424,0.999996,0.000232,-0.005459,0.010850,-0.001215,0.010940,-0.005549,-85.763644,0.010941,
950,730,1.377411,-13.875662,0.999993,0.000309,-0.007048,0.011797,-0.001119,0.011863,-0.007115,-86.614231,0.011941,
1880,1620,-2.601709,-4.420830,0.999995,0.000272,-0.004944,0.009999,-0.000054,0.009999,-0.004944,-89.792310,0.009999,
1800,370,-2.007277,-16.659834,0.999996,0.000233,-0.004964,0.010117,0.000023,0.010117,-0.004964,89.914091,0.010117,
1340,2020,-0.012999,-0.093749,0.999998,0.000000,-0.000222,0.006101,0.000210,0.006108,-0.000229,88.101287,0.006924,
1190,380,0.092333,-17.761945,0.999997,0.000222,-0.002200,0.007105,-0.000151,0.007108,-0.002203,-89.073089,0.007277,
910,260,0.654596,-18.337844,0.999997,0.000223,-0.002683,0.008438,0.000531,0.008463,-0.002708,87.271502,0.008644,
1390,810,-0.750342,-13.954870,0.999994,0.000319,-0.007141,0.010790,0.003868,0.011589,-0.007939,78.332091,0.011851,
910,1340,1.609170,-6.303090,0.999995,0.000321,-0.006818,0.011733,0.000597,0.011752,-0.006837,88.158849,0.011805,
1180,1760,0.094509,-1.799470,0.999998,0.000151,-0.001742,0.007032,-0.000010,0.007032,-0.001742,-89.932809,0.007324,
760,1270,2.818593,-7.564692,0.999995,0.000265,-0.005614,0.010894,-0.000992,0.010953,-0.005673,-86.574449,0.010955,
1250,1730,-0.038109,-1.999154,0.999998,0.000153,-0.002001,0.007018,-0.000129,0.007020,-0.002002,-89.177918,0.007233,
1660,980,-3.244240,-10.564081,0.999997,0.000202,-0.004168,0.010259,-0.000593,0.010283,-0.004192,-87.652059,0.010341,
1000,190,0.295950,-18.997591,0.999998,0.000181,-0.001476,0.007343,0.000579,0.007381,-0.001514,86.256480,0.007797,
820,1480,1.766477,-5.095350,0.999995,0.000254,-0.005581,0.010548,0.000399,0.010558,-0.005591,88.584793,0.010564,
1350,320,-0.237535,-18.135096,0.999997,0.000196,-0.002234,0.007363,0.000172,0.007366,-0.002237,88.975883,0.007552,
860,1430,1.665787,-5.486552,0.999994,0.000297,-0.005966,0.010847,0.000545,0.010865,-0.005983,88.144799,0.010884,
630,1780,1.833942,-2.653349,0.999996,0.000252,-0.004834,0.010073,-0.000171,0.010075,-0.004836,-89.341626,0.010078,
860,1860,0.607182,-1.340067,0.999995,0.000260,-0.002692,0.008494,-0.001082,0.008597,-0.002795,-84.524851,0.008771,
740,300,1.408890,-17.606570,0.999997,0.000229,-0.004345,0.009911,0.000445,0.009925,-0.004359,88.214715,0.009949,
1150,850,0.566257,-14.754768,0.999996,0.000249,-0.004365,0.003950,-0.001943,0.004382,-0.004797,-77.478073,0.005316,
1480,420,-0.708860,-17.106667,0.999997,0.000207,-0.003813,0.008707,0.000718,0.008748,-0.003854,86.728230,0.008769,
690,1830,1.331418,-1.946478,0.999996,0.000237,-0.004612,0.009949,-0.000862,0.010000,-0.004663,-86.623727,0.010008,
1270,600,-0.093801,-16.261509,0.999997,0.000204,-0.002544,0.006113,0.000683,0.006166,-0.002597,85.519208,0.006192,
1440,130,-0.166516,-19.436012,0.999997,0.000204,-0.000989,0.006842,-0.000586,0.006885,-0.001032,-85.743995,0.007426,
1520,420,-0.859856,-17.002484,0.999996,0.000236,-0.003854,0.008952,0.000518,0.008973,-0.003875,87.688306,0.009000,
880,1380,1.681377,-5.966125,0.999995,0.000245,-0.006377,0.011261,0.000485,0.011274,-0.006390,88.425753,0.011308,
1100,1320,0.409462,-5.221321,0.999995,0.000299,-0.005127,0.008099,0.003771,0.009099,-0.006127,75.152228,0.009279,
1580,1370,-1.691108,-6.069226,0.999995,0.000262,-0.006468,0.011343,-0.000464,0.011355,-0.006481,-88.508482,0.011393,
1340,580,-0.296224,-16.227569,0.999996,0.000233,-0.003301,0.007264,0.001591,0.007498,-0.003535,81.617699,0.007502,
800,1810,0.965780,-1.877326,0.999997,0.000198,-0.003809,0.009327,-0.000778,0.009373,-0.003855,-86.623413,0.009422,
1640,1980,-0.216591,-0.399633,0.999997,0.000212,-0.000833,0.007528,0.001948,0.007959,-0.001265,77.508865,0.008554,
1860,720,-3.400660,-12.908589,0.999997,0.000225,-0.004930,0.009846,-0.000311,0.009852,-0.004936,-88.796378,0.009852,
650,1670,2.116125,-3.696670,0.999997,0.000236,-0.004940,0.010090,0.000108,0.010090,-0.004941,89.588135,0.010091,
560,850,4.026332,-11.551095,0.999996,0.000000,-0.004442,0.008937,0.000138,0.008939,-0.004444,89.410092,0.008939,
1800,350,-1.940355,-16.862816,0.999997,0.000198,-0.004954,0.010060,-0.000032,0.010060,-0.004954,-89.876662,0.010060,
1790,600,-2.638127,-14.336512,0.999996,0.000228,-0.005226,0.010338,-0.000083,0.010338,-0.005227,-89.695200,0.010338,
1340,1170,-1.085106,-6.008965,0.999995,0.000000,-0.002329,0.005408,-0.004117,0.007189,-0.004110,-66.608829,0.007214,
1720,1970,-0.372149,-0.519122,0.999997,0.000206,-0.001387,0.008102,0.002437,0.008691,-0.001976,76.405404,0.009111,
780,1180,3.054871,-8.510864,0.999996,0.000243,-0.005078,0.010636,-0.001197,0.010727,-0.005169,-85.667962,0.010729,
950,710,1.320432,-14.110222,0.999993,0.000304,-0.006857,0.011539,-0.001259,0.011625,-0.006943,-86.101718,0.011698,
630,880,3.799068,-11.423182,0.999996,0.000235,-0.004551,0.009327,0.000607,0.009354,-0.004577,87.498743,0.009354,
890,260,0.709000,-18.308673,0.999997,0.000191,-0.003197,0.008608,0.000479,0.008627,-0.003217,87.678731,0.008720,
1870,1620,-2.553103,-4.390503,0.999995,0.000262,-0.004944,0.010012,-0.000081,0.010012,-0.004944,-89.688338,0.010013,
960,1330,1.292049,-6.166881,0.999996,0.000233,-0.006972,0.011615,0.001356,0.011714,-0.007070,85.850595,0.011797,
1390,790,-0.677067,-14.163687,0.999992,0.000333,-0.006926,0.010292,0.003888,0.011129,-0.007763,77.847464,0.011415,
1310,400,-0.180926,-17.596791,0.999998,0.000166,-0.002467,0.007269,0.000367,0.007283,-0.002481,87.843908,0.007405,
580,240,1.923656,-17.649134,0.999997,0.000192,-0.004904,0.009780,0.000126,0.009781,-0.004905,89.509829,0.009781,
1330,320,-0.194267,-18.157673,0.999998,0.000153,-0.002218,0.007259,0.000217,0.007264,-0.002223,88.688747,0.007444,
1190,1600,0.101469,-2.932084,0.999998,0.000152,-0.002423,0.007034,0.000278,0.007043,-0.002431,88.315571,0.007154,
820,1460,1.818591,-5.309773,0.999995,0.000261,-0.005695,0.010675,0.000359,0.010683,-0.005703,88.746072,0.010691,
1180,1740,0.098525,-1.938154,0.999998,0.000167,-0.001863,0.007074,0.000047,0.007074,-0.001864,89.700036,0.007333,
740,1270,2.929010,-7.606176,0.999996,0.000266,-0.005483,0.010656,-0.000958,0.010713,-0.005539,-86.613508,0.010715,
660,950,3.820285,-10.801263,0.999997,0.000236,-0.004463,0.009383,0.000572,0.009406,-0.004487,87.636533,0.009410,
1410,110,-0.106493,-19.585774,0.999998,0.000171,-0.000833,0.006635,-0.000497,0.006668,-0.000866,-86.208411,0.007251,
980,190,0.326996,-18.983033,0.999996,0.000220,-0.001786,0.007472,0.000632,0.007515,-0.001829,86.110388,0.007838,
1620,1690,-1.157200,-2.915352,0.999997,0.000251,-0.004001,0.009397,0.000058,0.009397,-0.004002,89.752188,0.009432,
580,1920,1.310497,-1.455669,0.999996,0.000259,-0.005053,0.010356,-0.001667,0.010534,-0.005231,-83.896944,0.010534,
1250,1710,-0.038758,-2.137051,0.999998,0.000157,-0.002099,0.007025,-0.000163,0.007028,-0.002102,-88.979844,0.007215,
740,280,1.335225,-17.807043,0.999996,0.000250,-0.004206,0.009871,0.000671,0.009903,-0.004238,87.278262,0.009937,
1660,960,-3.202576,-10.773173,0.999995,0.000234,-0.004330,0.010363,-0.000944,0.010423,-0.004391,-86.338886,0.010466,
1100,1300,0.430629,-5.385211,0.999994,0.000302,-0.005467,0.008340,0.004036,0.009434,-0.006560,74.843261,0.009671,
1520,400,-0.829867,-17.179011,0.999996,0.000237,-0.003716,0.008854,0.000411,0.008868,-0.003729,88.130890,0.008905,
860,1840,0.674798,-1.512820,0.999996,0.000244,-0.002877,0.008557,-0.000906,0.008628,-0.002949,-85.497355,0.008771,
1560,1370,-1.563438,-5.987999,0.999996,0.000248,-0.006523,0.011320,-0.000669,0.011345,-0.006548,-87.855395,0.011390,
880,1360,1.742155,-6.196090,0.999996,0.000242,-0.006487,0.011451,0.000363,0.011459,-0.006495,88.841253,0.011493,
980,130,0.206600,-19.420260,0.999998,0.000191,-0.001157,0.007051,0.000774,0.007123,-0.001230,84.662034,0.007615,
690,1810,1.421561,-2.150594,0.999996,0.000247,-0.004676,0.010053,-0.000668,0.010083,-0.004706,-87.410142,0.010091,
780,1810,1.044462,-1.925486,0.999997,0.000208,-0.003932,0.009492,-0.000816,0.009542,-0.003981,-86.533792,0.009585,
1270,580,-0.094347,-16.386414,0.999998,0.000202,-0.002544,0.006365,0.000590,0.006404,-0.002583,86.227664,0.006443,
640,1010,3.965030,-10.241748,0.999998,0.000199,-0.004314,0.009128,0.000257,0.009133,-0.004319,88.904679,0.009137,
1760,1410,-2.624808,-6.205068,0.999994,0.000298,-0.005423,0.010441,0.000273,0.010446,-0.005428,89.013648,0.010448,
1450,1620,-0.614097,-3.098973,0.999996,0.000276,-0.003539,0.008426,-0.000757,0.008474,-0.003587,-86.395370,0.008507,
1640,1960,-0.305120,-0.551248,0.999997,0.000203,-0.001203,0.007709,0.001840,0.008074,-0.001568,78.778848,0.008563,
890,1740,0.849761,-2.334775,0.999997,0.000235,-0.003654,0.008975,-0.000090,0.008976,-0.003655,-89.592164,0.009027,
1770,600,-2.534617,-14.396095,0.999996,0.000241,-0.005295,0.010407,-0.000060,0.010407,-0.005295,-89.781156,0.010407,
890,480,1.191071,-16.278112,0.999996,0.000236,-0.004764,0.009734,-0.000697,0.009767,-0.004797,-87.253195,0.009768,
610,880,3.889057,-11.391447,0.999996,0.000240,-0.004436,0.009101,0.000435,0.009115,-0.004450,88.159787,0.009115,
1860,480,-2.635944,-15.346727,0.999996,0.000234,-0.005029,0.010111,0.000074,0.010112,-0.005029,89.719564,0.010112,
1290,400,-0.135329,-17.609254,0.999998,0.000179,-0.002266,0.007190,0.000191,0.007193,-0.002270,88.841768,0.007355,
1310,320,-0.150861,-18.174625,0.999998,0.000174,-0.001980,0.007199,0.000076,0.007200,-0.001980,89.526457,0.007439,
1480,440,-0.734209,-16.931070,0.999997,0.000197,-0.003905,0.008784,0.000807,0.008836,-0.003956,86.376526,0.008852,
1380,1590,-0.399669,-3.171336,0.999997,0.000224,-0.003286,0.007860,-0.001000,0.007949,-0.003375,-84.915568,0.007979,
780,1160,3.124553,-8.721829,0.999996,0.000262,-0.004936,0.010575,-0.001251,0.010675,-0.005036,-85.416631,0.010681,
1700,1970,-0.349885,-0.508311,0.999996,0.000227,-0.001345,0.007973,0.002300,0.008510,-0.001881,76.863899,0.008940,
1880,240,-1.908974,-17.662069,0.999996,0.000217,-0.004874,0.009720,-0.000163,0.009722,-0.004876,-89.358334,0.009722,
1600,1780,-0.844807,-2.033497,0.999997,0.000193,-0.003540,0.008948,0.000456,0.008965,-0.003556,87.911369,0.009028,
830,1480,1.709862,-5.060978,0.999995,0.000263,-0.005587,0.010537,0.000456,0.010550,-0.005600,88.382213,0.010557,
950,690,1.265490,-14.339393,0.999994,0.000276,-0.006611,0.011261,-0.001351,0.011363,-0.006712,-85.702505,0.011425,
1230,1530,0.004323,-3.383931,0.999997,0.000189,-0.002525,0.006652,0.000040,0.006652,-0.002525,89.748648,0.006716,
1340,1160,-1.204170,-6.067183,0.999995,0.000000,-0.001740,0.005401,-0.004816,0.007826,-0.004165,-63.274378,0.007831,
1760,890,-3.484343,-11.415916,0.999996,0.000257,-0.004799,0.009982,-0.000984,0.010047,-0.004864,-86.207146,0.010048,
1410,90,-0.081611,-19.715107,0.999998,0.000162,-0.000665,0.006461,-0.000496,0.006495,-0.000699,-86.037570,0.007131,
1030,1870,0.240949,-1.104002,0.999998,0.000213,-0.001601,0.007172,-0.000406,0.007191,-0.001620,-87.353229,0.007544,
820,1440,1.871512,-5.524880,0.999996,0.000244,-0.005793,0.010739,0.000266,0.010743,-0.005797,89.079784,0.010754,
1100,1280,0.467067,-5.562306,0.999994,0.000294,-0.005788,0.008505,0.004269,0.009683,-0.006966,74.573708,0.009989,
1620,1670,-1.206149,-3.103264,0.999998,0.000237,-0.004243,0.009497,-0.000121,0.009498,-0.004244,-89.494327,0.009516,
690,1790,1.509026,-2.350616,0.999995,0.000257,-0.004728,0.010047,-0.000502,0.010064,-0.004745,-88.056554,0.010070,
860,1820,0.735920,-1.684308,0.999997,0.000233,-0.003119,0.008786,-0.000769,0.008835,-0.003169,-86.319388,0.008952,
1180,1960,0.025946,-0.460343,0.999998,0.000179,-0.000363,0.006234,-0.000129,0.006237,-0.000365,-88.878392,0.007000,
660,1950,0.724243,-0.799734,0.999996,0.000256,-0.002838,0.009975,-0.003052,0.010665,-0.003528,-77.262258,0.010867,
1340,600,-0.294901,-16.083470,0.999997,0.000224,-0.003414,0.007200,0.001840,0.007510,-0.003724,80.438824,0.007510,
1660,940,-3.152336,-10.981681,0.999996,0.000245,-0.004541,0.010344,-0.000997,0.010410,-0.004608,-86.185206,0.010433,
1390,770,-0.623271,-14.366318,0.999993,0.000320,-0.006568,0.009920,0.003863,0.010780,-0.007429,77.445753,0.011034,
790,1080,3.290603,-9.548580,0.999996,0.000235,-0.004258,0.010182,-0.000650,0.010212,-0.004287,-87.426722,0.010255,
960,190,0.368734,-18.965063,0.999996,0.000248,-0.002115,0.007632,0.000665,0.007677,-0.002160,86.117902,0.007918,
690,1400,2.730011,-6.347011,0.999995,0.000258,-0.005376,0.010432,-0.000339,0.010439,-0.005383,-88.772132,0.010441,
1250,1690,-0.041819,-2.279895,0.999998,0.000181,-0.002187,0.007080,-0.000183,0.007084,-0.002190,-88.869896,0.007254,
1520,820,-1.805901,-12.714082,0.999993,0.000302,-0.007340,0.012905,-0.000164,0.012906,-0.007341,-89.537052,0.012947,
1380,1910,-0.122717,-0.800628,0.999998,0.000160,-0.000837,0.006707,0.000390,0.006727,-0.000857,87.049043,0.007324,
1730,600,-2.318418,-14.517882,0.999996,0.000232,-0.005482,0.010502,-0.000047,0.010503,-0.005482,-89.830142,0.010506,
1220,1810,0.019041,-1.438731,0.999997,0.000192,-0.001549,0.006842,0.000031,0.006842,-0.001549,89.787425,0.007175,
960,1310,1.355332,-6.403933,0.999996,0.000239,-0.007198,0.011985,0.001164,0.012055,-0.007268,86.539886,0.012140,
640,310,1.920277,-17.190002,0.999997,0.000209,-0.004850,0.010074,0.000116,0.010075,-0.004851,89.555749,0.010078,
880,1340,1.809820,-6.428577,0.999996,0.000243,-0.006593,0.011663,0.000187,0.011665,-0.006595,89.413594,0.011698,
1760,670,-2.710721,-13.692836,0.999995,0.000250,-0.005430,0.010490,-0.000386,0.010499,-0.005440,-88.612716,0.010501,
650,1690,2.056626,-3.494215,0.999997,0.000212,-0.004970,0.010083,0.000035,0.010083,-0.004970,89.866723,0.010083,
1600,1760,-0.904459,-2.219350,0.999998,0.000174,-0.003673,0.008985,0.000290,0.008991,-0.003680,88.688021,0.009041,
1680,930,-3.218056,-11.070969,0.999997,0.000234,-0.004617,0.010279,-0.000987,0.010344,-0.004682,-86.227288,0.010360,
1380,1570,-0.411532,-3.330096,0.999996,0.000242,-0.003412,0.007917,-0.001169,0.008037,-0.003531,-84.169343,0.008056,
1730,780,-2.948831,-12.595214,0.999997,0.000245,-0.005432,0.010632,-0.000951,0.010689,-0.005489,-86.623507,0.010690,
690,440,2.081898,-16.036314,0.999995,0.000263,-0.004976,0.010114,-0.000178,0.010116,-0.004978,-89.322872,0.010116,
1340,900,-1.254539,-14.061923,0.999982,0.000000,-0.001538,0.004918,0.005664,0.008209,-0.004829,59.840058,0.008251,
1040,1210,1.197955,-7.025216,0.999988,0.000433,-0.007620,0.012778,0.002403,0.013057,-0.007900,83.369788,0.013153,
1450,1600,-0.634265,-3.270828,0.999997,0.000239,-0.003766,0.008532,-0.000934,0.008603,-0.003836,-85.680824,0.008619,
950,890,2.167618,-11.823698,0.999994,0.000285,-0.006425,0.013111,0.001048,0.013167,-0.006481,86.938607,0.013168,
610,1730,2.116993,-3.230171,0.999998,0.000207,-0.004813,0.009932,0.000108,0.009932,-0.004814,89.581570,0.009934,
1170,60,0.013741,-19.916542,0.999998,0.000188,-0.000153,0.006073,0.000166,0.006078,-0.000158,88.476267,0.006928,
690,1770,1.585612,-2.554679,0.999994,0.000281,-0.004803,0.010110,-0.000344,0.010118,-0.004810,-88.680323,0.010122,
1490,1500,-0.910814,-4.314383,0.999997,0.000209,-0.004911,0.009559,-0.001391,0.009692,-0.005043,-84.557112,0.009694,
860,1800,0.799283,-1.865401,0.999997,0.000215,-0.003309,0.008800,-0.000603,0.008830,-0.003339,-87.157973,0.008917,
1340,620,-0.295990,-15.934426,0.999996,0.000229,-0.003526,0.007099,0.002068,0.007487,-0.003914,79.362703,0.007490,
1270,560,-0.096857,-16.515318,0.999998,0.000180,-0.002546,0.006506,0.000522,0.006536,-0.002576,86.709329,0.006585,
1700,1410,-2.293446,-6.031917,0.999994,0.000297,-0.005688,0.010683,0.000163,0.010685,-0.005689,89.430241,0.010692,
1180,1720,0.105408,-2.083270,0.999998,0.000165,-0.001989,0.007131,0.000075,0.007131,-0.001990,89.525774,0.007360,
890,460,1.154593,-16.472026,0.999997,0.000242,-0.004555,0.009610,-0.000598,0.009635,-0.004580,-87.585854,0.009639,
1250,760,-0.038106,-15.543105,0.999998,0.000173,-0.002161,0.002923,0.001028,0.003123,-0.002361,78.987574,0.003257,
570,1160,4.089388,-8.969655,0.999991,0.000358,-0.003975,0.008478,-0.000162,0.008480,-0.003977,-89.255373,0.008485,
1290,320,-0.112533,-18.182338,0.999998,0.000175,-0.001850,0.007138,0.000032,0.007138,-0.001850,89.797133,0.007409,
1100,1260,0.518684,-5.726949,0.999993,0.000320,-0.006130,0.008824,0.004457,0.010052,-0.007358,74.599521,0.010406,
1660,920,-3.097262,-11.189600,0.999997,0.000220,-0.004767,0.010643,-0.001198,0.010736,-0.004859,-85.582846,0.010752,
1410,70,-0.058024,-19.843880,0.999998,0.000155,-0.000486,0.006382,-0.000522,0.006421,-0.000525,-85.679540,0.007131,
710,2010,0.177913,-0.209224,0.999997,0.000220,-0.001236,0.008163,-0.003012,0.009046,-0.002119,-73.672364,0.009462,
890,1400,1.562016,-5.702378,0.999996,0.000247,-0.006257,0.011083,0.000677,0.011110,-0.006284,87.767925,0.011142,
1880,230,-1.862497,-17.760028,0.999997,0.000198,-0.004883,0.009779,-0.000228,0.009782,-0.004886,-89.108856,0.009782,
1250,1670,-0.041940,-2.422862,0.999998,0.000188,-0.002269,0.007102,-0.000207,0.007106,-0.002274,-88.738121,0.007258,
1390,750,-0.581177,-14.563813,0.999995,0.000262,-0.006179,0.009576,0.003690,0.010397,-0.007000,77.451370,0.010603,
1520,840,-1.912025,-12.455260,0.999995,0.000286,-0.007167,0.012995,-0.000475,0.013006,-0.007178,-88.651177,0.013029,
990,590,0.867228,-15.580104,0.999997,0.000235,-0.005086,0.009625,-0.001678,0.009814,-0.005275,-83.573701,0.009824,
730,1080,3.547805,-9.565256,0.999997,0.000196,-0.004406,0.009772,-0.000446,0.009786,-0.004420,-88.199907,0.009801,
980,1910,0.235142,-0.845041,0.999996,0.000236,-0.001326,0.007159,-0.000739,0.007223,-0.001390,-85.060835,0.007665,
1890,1660,-2.529248,-4.055869,0.999996,0.000223,-0.004857,0.009805,-0.000128,0.009806,-0.004859,-89.501454,0.009806,
880,1320,1.878971,-6.663483,0.999995,0.000268,-0.006665,0.011796,0.000007,0.011796,-0.006666,89.978380,0.011829,
1600,1690,-1.076750,-2.865168,0.999997,0.000192,-0.004098,0.009264,-0.000102,0.009265,-0.004099,-89.560956,0.009286,
630,440,2.382833,-15.841406,0.999996,0.000244,-0.005012,0.010098,-0.000135,0.010100,-0.005014,-89.489802,0.010100,
1860,1310,-3.486999,-7.497232,0.999996,0.000226,-0.004912,0.009783,0.000373,0.009792,-0.004922,88.547823,0.009792,
1470,1560,-0.754618,-3.686835,0.999995,0.000269,-0.004124,0.008921,-0.001086,0.009011,-0.004214,-85.275560,0.009017,
1480,460,-0.758297,-16.753155,0.999997,0.000202,-0.003979,0.008817,0.000881,0.008877,-0.004039,86.081593,0.008889,
820,1420,1.931379,-5.741177,0.999995,0.000266,-0.005879,0.010884,0.000169,0.010886,-0.005881,89.423886,0.010898,
1570,1780,-0.738926,-1.974709,0.999996,0.000223,-0.003217,0.008686,0.000414,0.008701,-0.003231,88.011206,0.008796,
680,1650,2.030946,-3.798775,0.999996,0.000225,-0.004938,0.010123,0.000136,0.010124,-0.004939,89.482679,0.010125,
1340,890,-1.149717,-14.123495,0.999996,0.000000,-0.002067,0.005077,0.004650,0.007369,-0.004359,63.766710,0.007410,
1860,440,-2.517470,-15.753233,0.999995,0.000256,-0.004973,0.010034,0.000124,0.010035,-0.004974,89.525985,0.010035,
1470,60,-0.065648,-19.902852,0.999998,0.000149,-0.000297,0.006454,-0.000776,0.006542,-0.000385,-83.529534,0.007342,
1790,250,-1.523599,-17.905831,0.999995,0.000266,-0.004661,0.010116,-0.000693,0.010148,-0.004694,-87.320564,0.010158,
620,1010,4.050247,-10.236567,0.999997,0.000194,-0.004239,0.008945,0.000263,0.008950,-0.004244,88.858248,0.008954,
1730,760,-2.874266,-12.813645,0.999997,0.000219,-0.005496,0.010648,-0.000840,0.010692,-0.005539,-87.028924,0.010694,
1470,1500,-0.812709,-4.230553,0.999997,0.000216,-0.004754,0.009291,-0.001523,0.009454,-0.004917,-83.880097,0.009457,
610,1710,2.183654,-3.429584,0.999997,0.000211,-0.004818,0.009940,0.000122,0.009941,-0.004819,89.527249,0.009943,
1560,940,-2.700855,-11.072224,0.999996,0.000251,-0.004674,0.011692,-0.001407,0.011812,-0.004794,-85.122856,0.011882,
1030,1850,0.276297,-1.253611,0.999998,0.000211,-0.001765,0.007295,-0.000388,0.007312,-0.001782,-87.551963,0.007625,
1230,1510,0.003360,-3.518350,0.999997,0.000188,-0.002506,0.006518,0.000049,0.006519,-0.002507,89.689772,0.006576,
1040,190,0.234491,-19.025216,0.999997,0.000211,-0.001657,0.007123,0.000387,0.007140,-0.001674,87.483952,0.007468,
1080,520,0.436685,-16.541545,0.999997,0.000204,-0.003569,0.007966,-0.001388,0.008131,-0.003734,-83.232530,0.008140,
1600,1740,-0.951735,-2.395257,0.999998,0.000176,-0.003783,0.009186,0.000160,0.009188,-0.003785,89.294745,0.009235,
690,1750,1.662407,-2.757268,0.999996,0.000254,-0.004835,0.010053,-0.000219,0.010056,-0.004838,-89.157330,0.010059,
1710,1520,-2.022125,-4.897220,0.999995,0.000237,-0.005286,0.010342,-0.000215,0.010345,-0.005289,-89.211398,0.010346,
1770,1770,-1.571228,-2.544808,0.999996,0.000239,-0.004791,0.010085,0.000320,0.010092,-0.004798,88.767985,0.010096,
1610,800,-2.325549,-12.633836,0.999994,0.000260,-0.006363,0.011821,-0.000879,0.011863,-0.006405,-87.238746,0.011876,
1060,690,0.589058,-15.022558,0.999993,0.000290,-0.005476,0.009166,-0.002993,0.009755,-0.006064,-78.880844,0.009850,
1210,520,0.054070,-16.793144,0.999998,0.000146,-0.002552,0.006712,-0.000366,0.006726,-0.002566,-87.741610,0.006789,
930,1990,0.105280,-0.300536,0.999998,0.000166,-0.000473,0.006822,-0.001119,0.006990,-0.000641,-81.470338,0.007728,
650,1710,1.989587,-3.291617,0.999996,0.000231,-0.004967,0.010092,-0.000008,0.010092,-0.004967,-89.970666,0.010093,
1410,260,-0.303438,-18.524175,0.999997,0.000210,-0.002157,0.007420,-0.000061,0.007420,-0.002157,-89.634519,0.007634,
1400,690,-0.572685,-15.042449,0.999994,0.000291,-0.005393,0.009084,0.003000,0.009681,-0.005990,78.744054,0.009771,
1690,60,-0.205208,-19.854310,0.999997,0.000198,-0.000984,0.007565,-0.002224,0.008109,-0.001528,-76.257137,0.008618,
640,1930,0.943671,-1.055356,0.999994,0.000284,-0.004205,0.010499,-0.001938,0.010750,-0.004456,-82.616917,0.010802,
1180,1680,0.114757,-2.367013,0.999998,0.000175,-0.002185,0.007099,0.000124,0.007101,-0.002187,89.233894,0.007273,
610,1160,3.922735,-8.902471,0.999996,0.000219,-0.004360,0.008943,-0.000370,0.008953,-0.004370,-88.408357,0.008954,
1240,1470,-0.021376,-3.775564,0.999998,0.000184,-0.002459,0.006161,-0.000253,0.006168,-0.002466,-88.321326,0.006209,
1660,900,-3.025455,-11.407196,0.999997,0.000228,-0.004980,0.010767,-0.001285,0.010872,-0.005084,-85.363872,0.010879,
1270,320,-0.075501,-18.190022,0.999997,0.000216,-0.001948,0.007087,0.000074,0.007087,-0.001949,89.533688,0.007323,
1390,730,-0.557154,-14.745878,0.999995,0.000259,-0.005802,0.009262,0.003506,0.010038,-0.006578,77.520090,0.010198,
1520,860,-2.028215,-12.188816,0.999995,0.000295,-0.006892,0.013016,-0.000781,0.013046,-0.006922,-87.756191,0.013054,
1660,930,-3.126449,-11.084026,0.999997,0.000223,-0.004646,0.010483,-0.001076,0.010559,-0.004722,-85.951839,0.010578,
1880,220,-1.812298,-17.861155,0.999997,0.000176,-0.004890,0.009838,-0.000300,0.009844,-0.004896,-88.833426,0.009844,
870,1400,1.686831,-5.783744,0.999995,0.000270,-0.006184,0.011089,0.000495,0.011103,-0.006198,88.360261,0.011128,
980,1210,1.667341,-7.561923,0.999993,0.000342,-0.007644,0.013462,0.000262,0.013465,-0.007647,89.290208,0.013507,
1250,1650,-0.041810,-2.565390,0.999998,0.000196,-0.002335,0.007078,-0.000206,0.007083,-0.002339,-88.744081,0.007218,
1020,1910,0.190518,-0.826994,0.999997,0.000210,-0.001114,0.006954,-0.000616,0.007001,-0.001161,-85.657349,0.007504,
1400,1980,-0.056789,-0.346090,0.999998,0.000187,-0.000441,0.006373,0.000490,0.006408,-0.000476,85.908698,0.007140,
880,1300,1.957006,-6.901709,0.999996,0.000245,-0.006725,0.011919,-0.000203,0.011922,-0.006728,-89.377618,0.011954,
780,1140,3.195076,-8.934913,0.999995,0.000287,-0.004761,0.010425,-0.001127,0.010508,-0.004845,-85.777973,0.010518,
710,1080,3.634195,-9.573453,0.999996,0.000248,-0.004413,0.009611,-0.000355,0.009620,-0.004422,-88.551023,0.009631,
680,1630,2.086871,-4.005344,0.999997,0.000193,-0.004988,0.010123,0.000165,0.010125,-0.004990,89.373457,0.010125,
870,70,0.164195,-19.807637,0.999997,0.000180,-0.000952,0.007180,0.001533,0.007459,-0.001232,79.668511,0.007997,
1580,1510,-1.352516,-4.557238,0.999996,0.000249,-0.005266,0.010175,-0.000768,0.010213,-0.005305,-87.161122,0.010215,
1340,30,-0.011490,-20.091994,0.999998,0.000000,-0.000178,0.005905,-0.000238,0.005914,-0.000188,-87.764236,0.006723,
680,1750,1.709375,-2.789323,0.999996,0.000227,-0.004804,0.010060,-0.000226,0.010063,-0.004807,-89.130311,0.010067,
1100,1240,0.583842,-5.912739,0.999991,0.000361,-0.006318,0.008973,0.004464,0.010180,-0.007526,74.859831,0.010562,
610,1690,2.251367,-3.627203,0.999996,0.000216,-0.004879,0.009977,0.000078,0.009977,-0.004880,89.699702,0.009978,
1100,730,0.408358,-14.976167,0.999995,0.000290,-0.005097,0.008053,-0.003695,0.009020,-0.006064,-75.332283,0.009197,
690,1730,1.731215,-2.958147,0.999996,0.000241,-0.004818,0.010002,-0.000057,0.010002,-0.004818,-89.779662,0.010004,
580,380,2.449287,-16.276259,0.999995,0.000248,-0.007168,0.009438,0.000462,0.009451,-0.007181,88.407790,0.009867,
1840,1310,-3.388522,-7.443667,0.999996,0.000232,-0.004938,0.009844,0.000485,0.009860,-0.004954,88.122407,0.009860,
670,880,3.612492,-11.478008,0.999995,0.000279,-0.004742,0.009781,0.000878,0.009834,-0.004795,86.553411,0.009835,
1550,1780,-0.680601,-1.943265,0.999997,0.000210,-0.002759,0.008521,0.000463,0.008540,-0.002778,87.655270,0.008712,
740,1530,2.062250,-4.835236,0.999996,0.000260,-0.005245,0.010333,0.000201,0.010336,-0.005247,89.261939,0.010336,
1590,800,-2.195525,-12.691820,0.999993,0.000308,-0.006569,0.012072,-0.000767,0.012104,-0.006601,-87.647297,0.012120,
1690,1520,-1.916489,-4.832403,0.999995,0.000278,-0.005304,0.010362,-0.000281,0.010367,-0.005309,-88.972460,0.010368,
1340,1450,-0.296387,-4.114670,0.999997,0.000198,-0.003438,0.007177,-0.001905,0.007508,-0.003769,-80.127361,0.007508,
1480,900,-2.014444,-11.854956,0.999992,0.000311,-0.006707,0.013788,-0.000476,0.013799,-0.006718,-88.670890,0.013801,
990,1010,2.568304,-10.324058,0.999992,0.000354,-0.004563,0.014699,0.000145,0.014700,-0.004564,89.567949,0.015047,
1660,880,-2.957545,-11.622989,0.999995,0.000268,-0.005194,0.010850,-0.001273,0.010950,-0.005294,-85.490165,0.010952,
660,200,1.339271,-18.379341,0.999995,0.000274,-0.004387,0.010263,0.001248,0.010369,-0.004492,85.163661,0.010400,
1790,230,-1.431182,-18.110308,0.999995,0.000275,-0.004576,0.010089,-0.000895,0.010143,-0.004630,-86.519768,0.010156,
820,1400,1.991877,-5.961720,0.999996,0.000265,-0.005991,0.010976,0.000067,0.010976,-0.005991,89.774700,0.010992,
1340,640,-0.298733,-15.793305,0.999996,0.000255,-0.003623,0.007044,0.002319,0.007526,-0.004106,78.252525,0.007537,
1390,710,-0.533142,-14.934415,0.999995,0.000260,-0.005477,0.008927,0.003294,0.009645,-0.006194,77.710951,0.009774,
1520,880,-2.149622,-11.925600,0.999994,0.000300,-0.006558,0.012990,-0.001043,0.013045,-0.006614,-86.954403,0.013046,
1450,60,-0.060015,-19.903281,0.999998,0.000164,-0.000285,0.006387,-0.000700,0.006460,-0.000358,-84.070657,0.007261,
1530,460,-0.964073,-16.605564,0.999998,0.000189,-0.004433,0.009367,0.000775,0.009411,-0.004476,86.794836,0.009415,
1600,1720,-1.003641,-2.585980,0.999997,0.000185,-0.003858,0.009369,0.000095,0.009370,-0.003859,89.586455,0.009418,
930,1970,0.161534,-0.445059,0.999997,0.000194,-0.000715,0.006947,-0.001114,0.007106,-0.000874,-81.893045,0.007750,
620,1930,1.039933,-1.151362,0.999996,0.000229,-0.004866,0.010607,-0.001412,0.010735,-0.004994,-84.829481,0.010744,
1120,190,0.126890,-19.068969,0.999998,0.000181,-0.001326,0.006798,0.000168,0.006801,-0.001330,88.817813,0.007209,
1390,1720,-0.337657,-2.178612,0.999996,0.000213,-0.002377,0.007616,-0.000174,0.007619,-0.002380,-89.003566,0.007796,
880,1280,2.037681,-7.144399,0.999994,0.000264,-0.006696,0.011945,-0.000425,0.011955,-0.006706,-88.694164,0.011985,
780,1120,3.242128,-9.140616,0.999996,0.000265,-0.004573,0.010224,-0.000932,0.010283,-0.004632,-86.412034,0.010300,
1190,520,0.106195,-16.778938,0.999998,0.000141,-0.002540,0.006789,-0.000422,0.006808,-0.002559,-87.416593,0.006877,
1600,990,-3.017875,-10.480179,0.999996,0.000251,-0.003906,0.010654,-0.000611,0.010680,-0.003932,-87.601135,0.010803,
1080,500,0.428093,-16.701799,0.999996,0.000230,-0.003486,0.007929,-0.001257,0.008066,-0.003623,-83.788094,0.008080,
1770,1750,-1.647748,-2.747076,0.999997,0.000205,-0.004837,0.010032,0.000205,0.010035,-0.004840,89.208883,0.010037,
1690,50,-0.160959,-19.928647,0.999998,0.000178,-0.000732,0.007378,-0.002201,0.007937,-0.001290,-75.755380,0.008518,
1420,690,-0.684104,-14.908030,0.999995,0.000248,-0.005732,0.009657,0.002798,0.010150,-0.006225,80.008642,0.010236,
1230,1490,0.003848,-3.644807,0.999997,0.000196,-0.002477,0.006346,0.000040,0.006346,-0.002477,89.740221,0.006397,
980,1590,0.775240,-3.459316,0.999998,0.000183,-0.004006,0.008881,0.000869,0.008939,-0.004064,86.161038,0.008951,
1560,920,-2.607219,-11.309725,0.999995,0.000269,-0.005187,0.011870,-0.001441,0.011991,-0.005308,-85.203429,0.012017,
1030,1830,0.303891,-1.396048,0.999997,0.000230,-0.001925,0.007424,-0.000284,0.007432,-0.001933,-88.260814,0.007712,
1180,1660,0.117881,-2.510166,0.999997,0.000183,-0.002267,0.007159,0.000174,0.007163,-0.002270,88.940492,0.007321,
690,1710,1.795137,-3.158970,0.999996,0.000229,-0.004809,0.010053,-0.000020,0.010053,-0.004809,-89.921617,0.010057,
960,1210,1.818911,-7.687019,0.999992,0.000371,-0.007380,0.013268,-0.000198,0.013270,-0.007382,-89.450071,0.013298,
1400,1960,-0.080018,-0.473947,0.999998,0.000195,-0.000634,0.006486,0.000471,0.006517,-0.000665,86.232370,0.007172,
1420,1650,-0.489844,-2.787043,0.999994,0.000295,-0.003182,0.008044,-0.000644,0.008081,-0.003219,-86.725084,0.008137,
610,1670,2.317520,-3.830903,0.999996,0.000221,-0.004941,0.010028,0.000104,0.010029,-0.004942,89.602734,0.010029,
1330,2020,-0.010548,-0.092950,0.999999,0.000000,-0.000242,0.006094,0.000221,0.006102,-0.000250,88.000622,0.006906,
590,1160,4.008482,-8.935834,0.999998,0.000145,-0.004235,0.008700,-0.000265,0.008705,-0.004240,-88.828301,0.008706,
620,950,3.997812,-10.771834,0.999996,0.000231,-0.004317,0.008968,0.000335,0.008976,-0.004326,88.555228,0.008978,
1250,1630,-0.045206,-2.706715,0.999998,0.000194,-0.002410,0.007062,-0.000213,0.007067,-0.002414,-88.714586,0.007184,
750,1400,2.399471,-6.176690,0.999994,0.000299,-0.005637,0.010685,-0.000220,0.010688,-0.005640,-89.229507,0.010693,
1360,730,-0.394997,-15.000714,0.999996,0.000299,-0.004968,0.007944,0.003744,0.008952,-0.005975,74.944774,0.009117,
1560,1050,-2.887113,-9.829245,0.999998,0.000193,-0.003652,0.011155,0.000501,0.011172,-0.003669,88.064635,0.011389,
1160,1810,0.105420,-1.452519,0.999997,0.000183,-0.001440,0.006915,-0.000094,0.006916,-0.001441,-89.352503,0.007297,
1550,1240,-1.995410,-7.514324,0.999996,0.000235,-0.006981,0.012570,0.000521,0.012584,-0.006994,88.475573,0.012610,
740,1510,2.118791,-5.043053,0.999996,0.000288,-0.005348,0.010337,0.000163,0.010339,-0.005350,89.405949,0.010341,
1660,860,-2.878318,-11.844066,0.999995,0.000295,-0.005398,0.011024,-0.001316,0.011129,-0.005503,-85.448700,0.011129,
1070,1980,0.054224,-0.345098,0.999998,0.000164,-0.000381,0.006354,-0.000485,0.006389,-0.000416,-85.900370,0.007150,
1000,1910,0.213612,-0.836013,0.999998,0.000174,-0.001048,0.007034,-0.000700,0.007094,-0.001108,-85.084995,0.007633,
960,130,0.233358,-19.409581,0.999998,0.000175,-0.001384,0.007145,0.000817,0.007223,-0.001462,84.575247,0.007637,
1100,1220,0.701576,-6.081580,0.999993,0.000315,-0.006330,0.009107,0.004445,0.010295,-0.007518,75.032765,0.010653,
740,260,1.258626,-18.001125,0.999996,0.000224,-0.004068,0.009815,0.000844,0.009866,-0.004119,86.533690,0.009910,
1390,690,-0.517450,-15.114106,0.999994,0.000264,-0.005159,0.008770,0.003055,0.009411,-0.005800,78.156540,0.009495,
560,840,3.994907,-11.642589,0.999996,0.000000,-0.004554,0.009082,0.000113,0.009083,-0.004555,89.525376,0.009083,
1250,320,-0.036703,-18.197536,0.999998,0.000180,-0.001966,0.007047,0.000102,0.007048,-0.001967,89.350097,0.007274,
1790,210,-1.335433,-18.310980,0.999996,0.000238,-0.004472,0.010175,-0.001138,0.010263,-0.004560,-85.585019,0.010284,
1340,1400,-0.296290,-4.476785,0.999996,0.000229,-0.003684,0.007070,-0.002524,0.007633,-0.004246,-77.427747,0.007649,
1600,1700,-1.054845,-2.774682,0.999997,0.000199,-0.004020,0.009264,-0.000034,0.009264,-0.004020,-89.854661,0.009291,
580,370,2.415316,-16.372506,0.999997,0.000200,-0.006518,0.009581,0.000602,0.009603,-0.006540,87.862508,0.009811,
1520,1320,-1.444269,-6.381292,0.999994,0.000280,-0.007081,0.011890,-0.000935,0.011936,-0.007127,-87.186127,0.012011,
1530,440,-0.929453,-16.793175,0.999997,0.000215,-0.004221,0.009217,0.000666,0.009250,-0.004254,87.168618,0.009260,
1670,700,-2.301489,-13.615878,0.999996,0.000268,-0.006029,0.011053,-0.000352,0.011060,-0.006036,-88.819052,0.011075,
1730,1410,-2.459766,-6.119945,0.999995,0.000251,-0.005556,0.010577,0.000225,0.010580,-0.005559,89.199506,0.010585,
1860,420,-2.458372,-15.953238,0.999996,0.000240,-0.004975,0.009988,0.000128,0.009989,-0.004976,89.510356,0.009989,
1690,40,-0.115998,-20.000663,0.999996,0.000226,-0.000506,0.007282,-0.002202,0.007862,-0.001086,-75.255962,0.008521,
1690,500,-1.823877,-15.690247,0.999996,0.000228,-0.005167,0.010274,0.000307,0.010280,-0.005173,88.861851,0.010280,
890,1780,0.750009,-1.980780,0.999997,0.000213,-0.003265,0.008721,-0.000391,0.008734,-0.003278,-88.133787,0.008824,
930,1950,0.204338,-0.580559,0.999997,0.000199,-0.000928,0.007147,-0.001108,0.007297,-0.001077,-82.330255,0.007878,
830,970,3.110380,-10.678306,0.999996,0.000242,-0.004157,0.010513,0.000900,0.010568,-0.004212,86.500517,0.010640,
780,1100,3.291804,-9.347550,0.999996,0.000250,-0.004419,0.010246,-0.000929,0.010304,-0.004477,-86.390576,0.010334,
880,1260,2.126687,-7.384023,0.999994,0.000281,-0.006686,0.012101,-0.000636,0.012122,-0.006708,-88.061893,0.012145,
1100,190,0.151387,-19.059591,0.999998,0.000169,-0.001195,0.006848,0.000253,0.006856,-0.001203,88.199287,0.007322,
770,740,2.586780,-13.109771,0.999994,0.000306,-0.005814,0.010922,0.000712,0.010953,-0.005844,87.568164,0.010961,
1770,1730,-1.714559,-2.949237,0.999997,0.000200,-0.004841,0.010015,0.000069,0.010016,-0.004841,89.732155,0.010017,
610,1650,2.377879,-4.032538,0.999996,0.000242,-0.004985,0.010026,0.000117,0.010027,-0.004985,89.553057,0.010027,
990,1030,2.583256,-10.046417,0.999992,0.000370,-0.004514,0.014213,0.000001,0.014213,-0.004514,89.997670,0.014525,
960,1590,0.854789,-3.515199,0.999997,0.000242,-0.004125,0.009074,0.000821,0.009125,-0.004176,86.454132,0.009136,
690,1690,1.858885,-3.362307,0.999996,0.000240,-0.004825,0.010083,-0.000008,0.010083,-0.004825,-89.968088,0.010086,
1360,710,-0.384022,-15.159042,0.999996,0.000243,-0.004678,0.007779,0.003451,0.008671,-0.005570,75.504445,0.008788,
650,880,3.708572,-11.451779,0.999996,0.000253,-0.004635,0.009584,0.000739,0.009623,-0.004674,87.031223,0.009624,
1430,1180,-1.461605,-7.509748,0.999994,0.000334,-0.007202,0.013811,-0.001929,0.013987,-0.007378,-84.799062,0.013994,
1560,900,-2.507971,-11.551487,0.999995,0.000274,-0.005616,0.012121,-0.001480,0.012244,-0.005739,-85.262726,0.012252,
1230,1470,0.004580,-3.770578,0.999997,0.000194,-0.002442,0.006163,0.000046,0.006163,-0.002443,89.696611,0.006207,
1250,1610,-0.045180,-2.849758,0.999998,0.000183,-0.002454,0.006995,-0.000258,0.007002,-0.002461,-88.436712,0.007104,
750,1380,2.465486,-6.392183,0.999994,0.000293,-0.005671,0.010753,-0.000349,0.010761,-0.005679,-88.783454,0.010766,
720,1530,2.167679,-4.899672,0.999998,0.000220,-0.005236,0.010306,0.000162,0.010308,-0.005238,89.403764,0.010308,
1150,60,0.017588,-19.915549,0.999998,0.000168,-0.000253,0.006085,0.000222,0.006093,-0.000260,87.996583,0.006890,
1370,1720,-0.294034,-2.158074,0.999996,0.000228,-0.002213,0.007513,-0.000156,0.007515,-0.002216,-89.082224,0.007723,
660,180,1.231658,-18.583187,0.999996,0.000253,-0.004201,0.010239,0.001579,0.010410,-0.004372,83.830646,0.010454,
1250,640,-0.041583,-16.053368,0.999998,0.000158,-0.002279,0.005422,0.000557,0.005462,-0.002319,85.886512,0.005483,
1660,840,-2.796159,-12.067418,0.999995,0.000290,-0.005598,0.011029,-0.001244,0.011121,-0.005691,-85.745341,0.011122,
1730,1840,-1.093336,-1.725885,0.999998,0.000172,-0.003849,0.009788,0.001240,0.009900,-0.003961,84.846817,0.009966,
1480,880,-1.875269,-12.131350,0.999993,0.000315,-0.007184,0.013725,-0.000222,0.013728,-0.007186,-89.391461,0.013733,
820,1600,1.478238,-3.859995,0.999996,0.000262,-0.004846,0.009916,0.000358,0.009925,-0.004855,88.609774,0.009926,
1390,670,-0.510856,-15.285816,0.999995,0.000252,-0.004848,0.008636,0.002826,0.009205,-0.005416,78.629466,0.009252,
1520,1300,-1.515064,-6.624270,0.999994,0.000261,-0.007238,0.012178,-0.000758,0.012207,-0.007267,-87.766219,0.012281,
1180,1640,0.121913,-2.654242,0.999998,0.000175,-0.002343,0.007116,0.000197,0.007120,-0.002347,88.805799,0.007257,
1400,1940,-0.103219,-0.607320,0.999998,0.000168,-0.000777,0.006642,0.000482,0.006673,-0.000808,86.300243,0.007283,
1090,1340,0.449031,-5.139335,0.999996,0.000229,-0.005086,0.008368,0.003461,0.009206,-0.005924,76.387922,0.009332,
1340,1430,-0.296527,-4.260530,0.999997,0.000207,-0.003556,0.007110,-0.002176,0.007537,-0.003983,-78.899800,0.007541,
580,1160,4.050622,-8.952592,0.999998,0.000170,-0.004062,0.008598,-0.000196,0.008601,-0.004065,-89.113295,0.008605,
1580,990,-2.939343,-10.489054,0.999997,0.000231,-0.003888,0.010904,-0.000700,0.010937,-0.003921,-87.296101,0.011082,
1260,1810,-0.045487,-1.443353,0.999997,0.000211,-0.001479,0.006866,-0.000003,0.006866,-0.001479,-89.981784,0.007228,
1100,1200,0.831278,-6.269998,0.999990,0.000366,-0.005502,0.008664,0.004561,0.010005,-0.006843,73.609793,0.010229,
1790,2010,-0.220667,-0.220183,0.999995,0.000287,-0.000496,0.008517,0.003692,0.009836,-0.001815,70.334306,0.010468,
1130,320,0.200349,-18.153222,0.999998,0.000163,-0.002233,0.007285,-0.000228,0.007291,-0.002239,-88.630782,0.007469,
600,950,4.083019,-10.749807,0.999996,0.000224,-0.004243,0.008665,0.000227,0.008669,-0.004247,88.993553,0.008670,
1080,480,0.418412,-16.862201,0.999996,0.000226,-0.003403,0.007904,-0.001119,0.008014,-0.003512,-84.403446,0.008034,
1600,1900,-0.463857,-1.006461,0.999997,0.000242,-0.002198,0.008085,0.001300,0.008246,-0.002360,82.906108,0.008494,
920,1280,1.759659,-6.982608,0.999992,0.000331,-0.007171,0.012294,0.000099,0.012295,-0.007171,89.708525,0.012352,
1090,1980,0.049125,-0.343731,0.999998,0.000149,-0.000294,0.006333,-0.000439,0.006362,-0.000323,-86.223247,0.007166,
600,210,1.677181,-18.038566,0.999996,0.000262,-0.004878,0.010002,0.000354,0.010010,-0.004886,88.639253,0.010011,
1070,260,0.270339,-18.541113,0.999997,0.000201,-0.001890,0.007342,0.000123,0.007344,-0.001891,89.239910,0.007626,
1540,1050,-2.815492,-9.824580,0.999996,0.000233,-0.003691,0.011574,0.000497,0.011590,-0.003707,88.135578,0.011839,
1340,1380,-0.295400,-4.614776,0.999996,0.000228,-0.003756,0.007019,-0.002761,0.007685,-0.004422,-76.432384,0.007714,
1040,100,0.100861,-19.647523,0.999998,0.000188,-0.000835,0.006602,0.000517,0.006638,-0.000871,86.042048,0.007215,
850,1170,2.729499,-8.531593,0.999995,0.000299,-0.005401,0.011466,-0.001433,0.011587,-0.005522,-85.177896,0.011591,
1860,400,-2.397549,-16.152477,0.999996,0.000232,-0.004977,0.009990,0.000124,0.009991,-0.004978,89.523620,0.009991,
620,650,3.074522,-13.664240,0.999996,0.000224,-0.005078,0.010159,0.000220,0.010163,-0.005081,89.173676,0.010163,
1400,1650,-0.425334,-2.743355,0.999997,0.000229,-0.003107,0.007887,-0.000700,0.007931,-0.003151,-86.369317,0.007986,
610,1630,2.438316,-4.234333,0.999996,0.000244,-0.004980,0.010013,0.000120,0.010014,-0.004981,89.539733,0.010014,
990,1050,2.562237,-9.758016,0.999991,0.000357,-0.004585,0.014815,-0.000116,0.014815,-0.004586,-89.657753,0.015169,
880,1240,2.218705,-7.631814,0.999994,0.000285,-0.006558,0.012174,-0.000886,0.012216,-0.006599,-87.298144,0.012229,
1410,1180,-1.323273,-7.240136,0.999993,0.000325,-0.007117,0.012983,-0.002968,0.013412,-0.007546,-81.773918,0.013447,
1120,730,0.314775,-15.140156,0.999996,0.000269,-0.004374,0.007052,-0.003704,0.008147,-0.005469,-73.522831,0.008305,
780,1080,3.333812,-9.552509,0.999995,0.000265,-0.004281,0.010127,-0.000614,0.010153,-0.004307,-87.562892,0.010192,
1160,1530,0.185189,-3.454558,0.999996,0.000213,-0.002846,0.007034,0.000916,0.007118,-0.002930,84.747699,0.007155,
1280,1270,-0.130287,-4.819747,0.999996,0.000256,-0.003036,0.003386,-0.002700,0.004370,-0.004020,-69.969350,0.004857,
1230,1450,0.003125,-3.891825,0.999998,0.000172,-0.002387,0.005905,0.000041,0.005905,-0.002387,89.719020,0.005941,
1560,880,-2.401029,-11.796969,0.999995,0.000266,-0.006034,0.012235,-0.001342,0.012333,-0.006132,-85.820093,0.012333,
1790,190,-1.230307,-18.519766,0.999996,0.000238,-0.004282,0.010145,-0.001386,0.010277,-0.004414,-84.562535,0.010311,
890,1760,0.800284,-2.156973,0.999997,0.000204,-0.003455,0.008806,-0.000258,0.008811,-0.003460,-88.797069,0.008878,
1330,1170,-1.063835,-5.818619,0.999992,0.000000,-0.002498,0.004381,-0.003440,0.005806,-0.003923,-67.494716,0.005925,
1670,680,-2.235353,-13.835424,0.999995,0.000269,-0.005987,0.010984,-0.000213,0.010987,-0.005990,-89.282402,0.011002,
660,160,1.105133,-18.792271,0.999996,0.000253,-0.003962,0.010294,0.001906,0.010545,-0.004212,82.513098,0.010615,
760,1570,1.851542,-4.356495,0.999997,0.000203,-0.005099,0.010193,0.000273,0.010198,-0.005104,88.977339,0.010198,
690,1670,1.922750,-3.564283,0.999996,0.000226,-0.004893,0.010109,0.000066,0.010109,-0.004893,89.746616,0.010111,
1390,650,-0.503106,-15.457401,0.999996,0.000208,-0.004609,0.008416,0.002643,0.008932,-0.005125,78.956818,0.008964,
1660,820,-2.714446,-12.286470,0.999995,0.000293,-0.005771,0.011172,-0.001148,0.011249,-0.005849,-86.140249,0.011252,
830,930,3.006106,-11.104032,0.999995,0.000269,-0.004666,0.010804,0.001230,0.010901,-0.004763,85.481422,0.010930,
1470,260,-0.436609,-18.455665,0.999997,0.000205,-0.002180,0.007832,-0.000307,0.007841,-0.002190,-88.243517,0.008092,
590,880,3.975194,-11.357807,0.999995,0.000253,-0.004319,0.008801,0.000246,0.008805,-0.004323,88.927849,0.008806,
1520,1280,-1.593080,-6.871704,0.999993,0.000278,-0.007351,0.012464,-0.000499,0.012477,-0.007364,-88.557902,0.012544,
1250,1590,-0.046271,-2.986989,0.999998,0.000156,-0.002462,0.006879,-0.000267,0.006887,-0.002469,-88.361377,0.006978,
1780,310,-1.712687,-17.330442,0.999996,0.000241,-0.004834,0.010053,-0.000146,0.010054,-0.004835,-89.438720,0.010057,
920,1260,1.851147,-7.236057,0.999993,0.000321,-0.007143,0.012478,-0.000159,0.012479,-0.007144,-89.535143,0.012523,
1500,1910,-0.261150,-0.856599,0.999997,0.000200,-0.001583,0.007256,0.000812,0.007330,-0.001657,84.794372,0.007688,
1110,320,0.245252,-18.132574,0.999997,0.000208,-0.002219,0.007394,-0.000156,0.007396,-0.002222,-89.067811,0.007590,
1770,1710,-1.780179,-3.147985,0.999997,0.000211,-0.004822,0.010042,0.000026,0.010042,-0.004822,89.901591,0.010045,
620,630,3.009019,-13.869661,0.999997,0.000195,-0.005057,0.010157,0.000145,0.010158,-0.005059,89.455841,0.010159,
1080,460,0.407322,-17.021199,0.999997,0.000229,-0.003298,0.007834,-0.000984,0.007920,-0.003384,-84.986950,0.007948,
1240,1810,-0.013960,-1.438376,0.999998,0.000165,-0.001535,0.006831,-0.000027,0.006831,-0.001535,-89.817083,0.007168,
1640,1940,-0.380526,-0.709921,0.999997,0.000222,-0.001523,0.008025,0.001783,0.008347,-0.001845,79.759993,0.008769,
880,1220,2.314762,-7.875241,0.999994,0.000269,-0.006409,0.012078,-0.001084,0.012141,-0.006473,-86.654822,0.012150,
1860,380,-2.335993,-16.355821,0.999996,0.000226,-0.004959,0.009955,0.000120,0.009956,-0.004960,89.538447,0.009956,
1340,1360,-0.294037,-4.752913,0.999996,0.000246,-0.003902,0.006996,-0.003041,0.007787,-0.004693,-75.419248,0.007842,
1480,860,-1.736648,-12.412594,0.999991,0.000368,-0.007550,0.013586,0.000110,0.013587,-0.007551,89.702162,0.013615,
910,1020,2.878350,-10.164491,0.999997,0.000212,-0.003582,0.011169,0.000205,0.011172,-0.003585,89.202559,0.011409,
1370,920,-1.519663,-13.199110,0.999987,0.000000,-0.003097,0.010890,0.007579,0.014210,-0.006416,66.349102,0.014232,
780,1060,3.354140,-9.753785,0.999996,0.000250,-0.004170,0.009996,-0.000372,0.010006,-0.004180,-88.494942,0.010051,
610,1610,2.499556,-4.434140,0.999996,0.000225,-0.004999,0.010057,0.000134,0.010058,-0.005000,89.489973,0.010058,
1080,730,0.516412,-14.808679,0.999994,0.000294,-0.005662,0.008949,-0.003618,0.009796,-0.006509,-76.824939,0.009971,
1180,1620,0.124946,-2.796039,0.999998,0.000180,-0.002406,0.007079,0.000234,0.007085,-0.002411,88.588065,0.007205,
580,730,3.546629,-12.743493,0.999995,0.000272,-0.005915,0.010333,0.000487,0.010347,-0.005930,88.284395,0.010384,
1570,870,-2.411395,-11.890977,0.999995,0.000259,-0.006099,0.012132,-0.001324,0.012227,-0.006195,-85.869229,0.012228,
690,380,1.907315,-16.646930,0.999997,0.000186,-0.004886,0.010120,-0.000069,0.010120,-0.004887,-89.737380,0.010122,
1490,260,-0.480501,-18.432639,0.999997,0.000202,-0.002596,0.007976,-0.000263,0.007983,-0.002602,-88.578512,0.008142,
740,240,1.176907,-18.202979,0.999998,0.000183,-0.003866,0.009847,0.001028,0.009923,-0.003943,85.737189,0.009993,
1400,1920,-0.128247,-0.739121,0.999998,0.000157,-0.000963,0.006704,0.000439,0.006729,-0.000988,86.731605,0.007267,
1150,1340,0.197436,-4.714279,0.999996,0.000221,-0.003332,0.005774,0.003028,0.006689,-0.004248,73.185313,0.006770,
1090,1720,0.301352,-2.161936,0.999998,0.000204,-0.002261,0.007524,0.000114,0.007525,-0.002263,89.329701,0.007722,
1030,1000,2.320069,-10.623657,0.999986,0.000438,-0.007604,0.019615,-0.001359,0.019683,-0.007672,-87.149327,0.019841,
1140,1530,0.243184,-3.498051,0.999997,0.000201,-0.002936,0.007214,0.001039,0.007319,-0.003041,84.213735,0.007354,
810,770,2.466556,-12.869875,0.999994,0.000295,-0.006074,0.011312,0.000796,0.011349,-0.006111,87.384322,0.011360,
780,1970,0.323477,-0.498598,0.999996,0.000210,-0.001517,0.007881,-0.002106,0.008331,-0.001968,-77.926826,0.008709,
1230,640,0.004316,-16.066296,0.999998,0.000159,-0.002257,0.005402,-0.000046,0.005402,-0.002257,-89.657294,0.005426,
1080,440,0.394872,-17.180926,0.999997,0.000225,-0.003174,0.007818,-0.000848,0.007883,-0.003239,-85.616548,0.007925,
920,1270,1.804960,-7.108509,0.999993,0.000340,-0.007173,0.012381,-0.000022,0.012381,-0.007173,-89.935504,0.012433,
1110,1980,0.043084,-0.341703,0.999998,0.000182,-0.000385,0.006291,-0.000352,0.006310,-0.000403,-86.989404,0.007065,
820,310,1.098685,-17.714644,0.999997,0.000233,-0.003856,0.009402,0.000324,0.009410,-0.003864,88.600413,0.009460,
990,1070,2.497076,-9.456531,0.999993,0.000311,-0.004806,0.014332,-0.000303,0.014337,-0.004810,-89.092659,0.014593,
1340,1390,-0.295374,-4.546203,0.999996,0.000230,-0.003716,0.007052,-0.002637,0.007663,-0.004327,-76.953794,0.007684,
1860,360,-2.269069,-16.555420,0.999996,0.000235,-0.004919,0.009913,0.000129,0.009914,-0.004920,89.502645,0.009914,
1130,60,0.024073,-19.913805,0.999999,0.000150,-0.000316,0.006126,0.000273,0.006137,-0.000328,87.574108,0.006905,
870,1780,0.819415,-2.020416,0.999997,0.000189,-0.003565,0.008893,-0.000409,0.008907,-0.003578,-88.120994,0.008964,
660,140,0.980346,-18.996768,0.999996,0.000250,-0.003661,0.010156,0.002285,0.010524,-0.004029,80.850661,0.010620,
1620,1610,-1.344584,-3.689983,0.999997,0.000227,-0.004809,0.009858,-0.000425,0.009870,-0.004821,-88.340018,0.009871,
1890,650,-3.311893,-13.520106,0.999996,0.000250,-0.005054,0.010112,-0.000108,0.010113,-0.005055,-89.590533,0.010113,
880,1210,2.365608,-7.996733,0.999996,0.000243,-0.006280,0.012038,-0.001182,0.012114,-0.006356,-86.322120,0.012119,
560,830,3.966463,-11.733120,0.999995,0.000000,-0.004607,0.009193,0.000104,0.009194,-0.004608,89.569277,0.009194,
1230,1430,0.003950,-4.006332,0.999998,0.000162,-0.002316,0.005640,0.000040,0.005640,-0.002316,89.709671,0.005670,
1660,800,-2.632560,-12.517622,0.999996,0.000283,-0.005930,0.011316,-0.001065,0.011382,-0.005996,-86.479945,0.011387,
1340,1340,-0.294249,-4.891278,0.999996,0.000245,-0.004111,0.006952,-0.003402,0.007915,-0.005074,-74.203041,0.008019,
590,950,4.124567,-10.740677,0.999996,0.000256,-0.004139,0.008525,0.000164,0.008527,-0.004141,89.259869,0.008529,
1390,630,-0.494506,-15.624165,0.999996,0.000233,-0.004452,0.008287,0.002469,0.008749,-0.004914,79.406772,0.008771,
1520,1260,-1.682344,-7.121058,0.999993,0.000299,-0.007409,0.012686,-0.000218,0.012688,-0.007411,-89.378515,0.012748,
1030,1810,0.335107,-1.552871,0.999996,0.000254,-0.002121,0.007557,-0.000215,0.007561,-0.002126,-88.727071,0.007799,
1230,320,0.002575,-18.201820,0.999998,0.000174,-0.001991,0.007029,-0.000021,0.007029,-0.001991,-89.868021,0.007246,
610,1590,2.555751,-4.638133,0.999995,0.000241,-0.005039,0.010154,0.000123,0.010155,-0.005040,89.535782,0.010155,
1710,820,-2.992114,-12.203826,0.999995,0.000283,-0.005406,0.010662,-0.001116,0.010739,-0.005483,-86.047138,0.010740,
1590,1070,-2.973457,-9.623689,0.999995,0.000270,-0.003910,0.010853,0.000732,0.010890,-0.003947,87.168196,0.011026,
1600,1050,-3.033888,-9.838388,0.999997,0.000243,-0.003782,0.010583,0.000397,0.010594,-0.003793,88.418077,0.010735,
1250,1570,-0.047668,-3.125001,0.999998,0.000162,-0.002488,0.006890,-0.000298,0.006900,-0.002497,-88.184773,0.006987,
1060,730,0.634351,-14.643151,0.999995,0.000244,-0.006117,0.009781,-0.003351,0.010458,-0.006794,-78.570309,0.010613,
890,380,0.996972,-17.226521,0.999997,0.000217,-0.004181,0.009275,-0.000269,0.009280,-0.004186,-88.853452,0.009295,
1480,840,-1.612723,-12.687227,0.999991,0.000364,-0.007737,0.013356,0.000466,0.013366,-0.007747,88.733740,0.013423,
640,630,2.908165,-13.928127,0.999997,0.000207,-0.005152,0.010192,0.000179,0.010194,-0.005154,89.331139,0.010194,
1560,860,-2.293795,-12.044250,0.999995,0.000267,-0.006368,0.012348,-0.001197,0.012425,-0.006444,-86.354061,0.012427,
1160,630,0.179355,-15.998695,0.999998,0.000197,-0.002857,0.006266,-0.001641,0.006553,-0.003144,-80.105751,0.006554,
920,1240,1.946926,-7.487366,0.999994,0.000273,-0.007080,0.012638,-0.000416,0.012647,-0.007089,-88.790691,0.012678,
1790,170,-1.118320,-18.717297,0.999997,0.000244,-0.004072,0.010165,-0.001779,0.010384,-0.004291,-82.985213,0.010436,
1370,930,-1.605371,-13.078107,0.999987,0.000000,-0.003268,0.012518,0.008340,0.016108,-0.006858,66.710953,0.016167,
1400,1900,-0.154019,-0.876911,0.999997,0.000170,-0.001124,0.006831,0.000422,0.006854,-0.001147,86.971507,0.007342,
890,1020,2.950402,-10.163882,0.999996,0.000254,-0.003613,0.010933,0.000190,0.010935,-0.003616,89.251830,0.011143,
1210,1320,0.041901,-4.543113,0.999998,0.000148,-0.002076,0.003619,0.001058,0.003810,-0.002266,79.805866,0.003832,
620,610,2.945914,-14.072708,0.999997,0.000228,-0.005095,0.010181,0.000118,0.010182,-0.005096,89.558836,0.010182,
1770,1690,-1.844618,-3.350540,0.999997,0.000198,-0.004853,0.010078,-0.000004,0.010078,-0.004853,-89.983616,0.010081,
1530,1740,-0.708926,-2.252198,0.999997,0.000204,-0.003163,0.008571,0.000056,0.008571,-0.003163,89.726115,0.008669,
1030,990,2.290869,-10.813246,0.999972,0.000607,-0.007362,0.018746,-0.001773,0.018866,-0.007482,-86.132257,0.019000,
780,1040,3.370317,-9.955218,0.999996,0.000242,-0.004146,0.010004,-0.000260,0.010008,-0.004151,-88.946951,0.010057,
660,120,0.834277,-19.203409,0.999995,0.000251,-0.003323,0.010268,0.002724,0.010793,-0.003849,79.078123,0.010940,
820,350,1.208313,-17.335419,0.999996,0.000239,-0.004279,0.009573,0.000078,0.009573,-0.004280,89.675780,0.009591,
1650,1880,-0.647336,-1.220864,0.999996,0.000222,-0.002702,0.008644,0.001406,0.008816,-0.002873,83.042342,0.008992,
1050,60,0.045668,-19.907453,0.999998,0.000181,-0.000415,0.006307,0.000512,0.006346,-0.000454,85.669859,0.007080,
1200,1810,0.049922,-1.444018,0.999998,0.000171,-0.001476,0.006846,0.000006,0.006846,-0.001476,89.956070,0.007205,
850,1720,1.052314,-2.614172,0.999998,0.000174,-0.003810,0.009445,-0.000161,0.009447,-0.003812,-89.306227,0.009506,
1340,1370,-0.294638,-4.684268,0.999997,0.000208,-0.003820,0.006986,-0.002891,0.007711,-0.004545,-75.926151,0.007752,
760,1550,1.904825,-4.561884,0.999996,0.000225,-0.005182,0.010304,0.000277,0.010309,-0.005187,88.976332,0.010309,
570,800,3.831448,-12.038988,0.999981,0.000531,-0.005013,0.009009,-0.000063,0.009009,-0.005014,-89.744573,0.009028,
780,1950,0.413972,-0.658827,0.999996,0.000239,-0.001952,0.008327,-0.002134,0.008752,-0.002377,-78.727363,0.009051,
1860,340,-2.204612,-16.753559,0.999998,0.000194,-0.004872,0.009913,0.000154,0.009914,-0.004874,89.401968,0.009915,
1600,1950,-0.286743,-0.610587,0.999997,0.000197,-0.001445,0.007620,0.001461,0.007849,-0.001674,81.067353,0.008268,
560,820,3.940017,-11.823423,0.999990,0.000000,-0.004721,0.009178,0.000034,0.009178,-0.004721,89.858729,0.009179,
1340,1320,-0.301201,-5.029594,0.999996,0.000251,-0.004313,0.006886,-0.003722,0.008010,-0.005437,-73.194465,0.008179,
810,730,2.308900,-13.327265,0.999994,0.000279,-0.006154,0.011265,0.000506,0.011279,-0.006168,88.338557,0.011296,
1660,780,-2.548243,-12.742153,0.999995,0.000295,-0.006004,0.011231,-0.000921,0.011280,-0.006053,-86.949410,0.011290,
850,1130,2.891272,-8.980089,0.999996,0.000245,-0.004768,0.011061,-0.001402,0.011185,-0.004891,-84.976090,0.011214,
900,1210,2.235146,-7.935979,0.999994,0.000270,-0.006554,0.012309,-0.001042,0.012367,-0.006611,-86.848986,0.012376,
1230,1850,0.002123,-1.166192,0.999998,0.000169,-0.001294,0.006680,-0.000003,0.006680,-0.001294,-89.980573,0.007086,
1620,1630,-1.298877,-3.490732,0.999996,0.000267,-0.004651,0.009783,-0.000331,0.009791,-0.004659,-88.685193,0.009795,
1390,830,-0.848441,-13.721542,0.999993,0.000305,-0.007189,0.011074,0.003600,0.011758,-0.007873,79.240544,0.011981,
1030,1770,0.391339,-1.857157,0.999997,0.000215,-0.002443,0.007757,-0.000021,0.007757,-0.002443,-89.884406,0.007932,
1150,320,0.158011,-18.172600,0.999998,0.000163,-0.002016,0.007178,-0.000117,0.007180,-0.002017,-89.272833,0.007406,
1520,1240,-1.778422,-7.381559,0.999995,0.000269,-0.007379,0.012866,0.000065,0.012866,-0.007379,89.817079,0.012912,
580,950,4.167345,-10.728530,0.999997,0.000223,-0.003926,0.008381,0.000076,0.008381,-0.003927,89.648041,0.008387,
1390,1240,-0.776715,-6.264509,0.999995,0.000259,-0.007160,0.010914,-0.003818,0.011688,-0.007933,-78.548444,0.011934,
1250,840,-0.141837,-15.360201,0.999990,0.000364,-0.007014,0.002836,-0.000177,0.002840,-0.007017,-88.970206,0.007060,
1480,820,-1.500140,-12.953652,0.999993,0.000327,-0.007809,0.013101,0.000758,0.013129,-0.007836,87.925531,0.013211,
610,1570,2.615913,-4.842827,0.999996,0.000240,-0.005070,0.010141,0.000104,0.010142,-0.005070,89.607169,0.010142,
1250,1550,-0.046120,-3.263467,0.999998,0.000164,-0.002515,0.006801,-0.000355,0.006814,-0.002529,-87.821347,0.006889,
1400,1880,-0.178063,-1.011416,0.999998,0.000157,-0.001320,0.006880,0.000350,0.006895,-0.001335,87.563369,0.007314,
1210,1300,0.045117,-4.607302,0.999998,0.000182,-0.002186,0.003114,0.001202,0.003374,-0.002446,77.805997,0.003486,
1060,710,0.608893,-14.836054,0.999993,0.000281,-0.005781,0.009454,-0.003149,0.010079,-0.006406,-78.768690,0.010202,
1580,1050,-2.958011,-9.834890,0.999996,0.000283,-0.003719,0.010821,0.000423,0.010834,-0.003731,88.335676,0.011007,
1670,1880,-0.711123,-1.248593,0.999998,0.000180,-0.003199,0.008813,0.001410,0.008977,-0.003363,83.392577,0.009070,
1530,560,-1.117350,-15.639405,0.999995,0.000253,-0.005241,0.010004,0.001150,0.010090,-0.005328,85.708739,0.010095,
830,1720,1.128580,-2.660464,0.999997,0.000207,-0.003977,0.009483,-0.000163,0.009485,-0.003979,-89.304347,0.009526,
1050,1780,0.329966,-1.751128,0.999997,0.000201,-0.002303,0.007558,-0.000004,0.007558,-0.002303,-89.974827,0.007747,
1560,840,-2.189819,-12.293771,0.999994,0.000282,-0.006637,0.012410,-0.000973,0.012460,-0.006686,-87.083362,0.012471,
640,610,2.841960,-14.132766,0.999996,0.000219,-0.005179,0.010217,0.000155,0.010219,-0.005181,89.422059,0.010219,
1730,820,-3.097669,-12.174201,0.999997,0.000225,-0.005280,0.010513,-0.001079,0.010587,-0.005354,-86.109320,0.010587,
1370,1130,-1.584107,-7.020539,0.999995,0.000000,-0.002669,0.011502,-0.007941,0.015059,-0.006226,-65.870579,0.015134,
660,100,0.692948,-19.403834,0.999996,0.000235,-0.002639,0.009941,0.003193,0.010705,-0.003402,76.544908,0.010940,
1260,530,-0.072634,-16.720614,0.999997,0.000200,-0.002530,0.006664,0.000408,0.006683,-0.002548,87.464035,0.006745,
1030,980,2.249481,-10.990703,0.999982,0.000508,-0.007073,0.017961,-0.002045,0.018127,-0.007239,-85.361215,0.018249,
1590,1030,-3.015296,-10.052422,0.999996,0.000249,-0.003712,0.010792,0.000076,0.010793,-0.003713,89.699587,0.010966,
820,290,1.040926,-17.903804,0.999997,0.000225,-0.003670,0.009356,0.000510,0.009376,-0.003690,87.759738,0.009446,
620,590,2.880901,-14.277831,0.999996,0.000232,-0.005124,0.010174,0.000074,0.010174,-0.005125,89.723621,0.010174,
1650,2000,-0.144233,-0.252500,0.999998,0.000195,-0.000741,0.007271,0.001895,0.007697,-0.001167,77.342137,0.008296,
560,810,3.908016,-11.921825,0.999987,0.000000,-0.004972,0.008955,-0.000156,0.008957,-0.004974,-89.359490,0.008975,
1860,320,-2.135389,-16.951679,0.999998,0.000193,-0.004841,0.009942,0.000065,0.009943,-0.004841,89.747070,0.009944,
1310,1980,-0.024719,-0.336692,0.999998,0.000184,-0.000300,0.006166,0.000209,0.006173,-0.000307,88.147384,0.006957,
1790,150,-0.991393,-18.929621,0.999997,0.000247,-0.003819,0.010035,-0.002091,0.010344,-0.004128,-81.602847,0.010414,
800,80,0.267430,-19.712350,0.999997,0.000211,-0.001420,0.007701,0.001976,0.008110,-0.001830,78.288958,0.008508,
840,480,1.435241,-16.111868,0.999996,0.000225,-0.004936,0.009957,-0.000491,0.009973,-0.004952,-88.112785,0.009973,
1340,1300,-0.321058,-5.171596,0.999996,0.000257,-0.004649,0.006984,-0.004047,0.008254,-0.005918,-72.584528,0.008509,
1390,1180,-1.174563,-6.941468,0.999979,0.000522,-0.006458,0.011065,-0.003975,0.011925,-0.007318,-77.798898,0.012027,
1660,1200,-2.857344,-8.259732,0.999996,0.000273,-0.005439,0.011083,0.001302,0.011185,-0.005541,85.520480,0.011185,
1770,1670,-1.907603,-3.553967,0.999997,0.000198,-0.004896,0.010122,-0.000081,0.010122,-0.004896,-89.690392,0.010124,
1230,1870,0.001076,-1.032703,0.999998,0.000167,-0.001179,0.006549,-0.000003,0.006549,-0.001179,-89.978329,0.006981,
690,1650,1.982569,-3.767442,0.999996,0.000235,-0.004930,0.010120,0.000131,0.010121,-0.004931,89.499941,0.010122,
1400,400,-0.421381,-17.457200,0.999997,0.000202,-0.003066,0.007918,0.000659,0.007957,-0.003105,86.579230,0.008021,
1100,1180,1.027547,-6.432533,0.999993,0.000318,-0.004094,0.007616,0.004551,0.009177,-0.005655,71.070992,0.009259,
920,1220,2.047416,-7.745485,0.999995,0.000276,-0.006913,0.012645,-0.000705,0.012670,-0.006938,-87.938285,0.012689,
1480,800,-1.398578,-13.217452,0.999992,0.000342,-0.007777,0.012798,0.001097,0.012857,-0.007835,86.957373,0.012959,
570,950,4.205832,-10.714936,0.999958,0.000761,-0.003817,0.008222,-0.000005,0.008222,-0.003817,-89.976035,0.008229,
1520,1220,-1.883448,-7.638211,0.999996,0.000254,-0.007246,0.012979,0.000384,0.012986,-0.007253,88.913012,0.013015,
1410,1240,-0.926640,-6.500541,0.999992,0.000336,-0.007647,0.011837,-0.003166,0.012338,-0.008149,-80.998974,0.012548,
950,460,0.886623,-16.661493,0.999998,0.000178,-0.004185,0.009169,-0.000786,0.009215,-0.004231,-86.643731,0.009225,
580,250,1.966860,-17.552120,0.999998,0.000157,-0.004818,0.009739,0.000088,0.009739,-0.004819,89.651931,0.009739,
1010,980,2.372297,-10.857245,0.999992,0.000324,-0.005682,0.015637,-0.000524,0.015650,-0.005694,-88.591846,0.015842,
1780,2010,-0.210592,-0.217943,0.999994,0.000293,-0.000732,0.008437,0.003478,0.009607,-0.001902,71.405399,0.010174,
780,1020,3.375665,-10.155012,0.999996,0.000230,-0.004143,0.010037,0.000172,0.010039,-0.004145,89.305589,0.010089,
1400,1860,-0.202089,-1.152739,0.999998,0.000169,-0.001476,0.007068,0.000346,0.007082,-0.001490,87.684412,0.007467,
1250,1530,-0.047364,-3.397611,0.999998,0.000158,-0.002529,0.006653,-0.000368,0.006667,-0.002543,-87.710727,0.006729,
610,1790,1.888961,-2.633542,0.999996,0.000231,-0.004824,0.010019,-0.000155,0.010021,-0.004826,-89.401762,0.010023,
1400,130,-0.123594,-19.453282,0.999998,0.000171,-0.000917,0.006689,-0.000433,0.006713,-0.000942,-86.749823,0.007269,
1550,1880,-0.422796,-1.120282,0.999997,0.000209,-0.001806,0.007770,0.000985,0.007870,-0.001906,84.187998,0.008211,
1180,1810,0.077598,-1.448046,0.999998,0.000149,-0.001422,0.006865,-0.000068,0.006866,-0.001422,-89.528142,0.007247,
1640,2000,-0.139344,-0.250944,0.999997,0.000201,-0.000504,0.007211,0.001867,0.007639,-0.000932,77.086646,0.008335,
1430,1060,-2.284898,-9.422937,0.999985,0.000433,-0.007852,0.019742,-0.001845,0.019865,-0.007975,-86.191100,0.019993,
1570,860,-2.358611,-12.017367,0.999995,0.000257,-0.006243,0.012200,-0.001252,0.012285,-0.006328,-86.132889,0.012287,
1860,300,-2.060655,-17.154950,0.999997,0.000224,-0.004812,0.009928,-0.000010,0.009928,-0.004812,-89.962002,0.009930,
830,1080,3.123292,-9.534722,0.999996,0.000213,-0.004153,0.010504,-0.000819,0.010549,-0.004199,-86.810387,0.010622,
560,430,2.766132,-15.703509,0.999852,0.000000,-0.006918,0.010146,-0.000451,0.010158,-0.006930,-88.487976,0.010380,
580,830,3.874770,-11.790072,0.999996,0.000237,-0.004547,0.009216,0.000238,0.009220,-0.004551,89.011520,0.009220,
1360,690,-0.376308,-15.314891,0.999996,0.000239,-0.004432,0.007670,0.003144,0.008438,-0.005199,76.272714,0.008514,
590,1340,3.446506,-7.239157,0.999995,0.000290,-0.005087,0.009891,-0.000128,0.009892,-0.005088,-89.510378,0.009893,
1560,820,-2.087320,-12.546691,0.999994,0.000282,-0.006842,0.012457,-0.000715,0.012484,-0.006868,-87.881719,0.012505,
830,640,1.886311,-14.398352,0.999994,0.000271,-0.005965,0.010975,-0.000243,0.010979,-0.005969,-89.176955,0.010993,
1790,1440,-2.686747,-5.980240,0.999997,0.000249,-0.005249,0.010288,0.000142,0.010289,-0.005250,89.475955,0.010290,
1580,1550,-1.275469,-4.154514,0.999995,0.000276,-0.005019,0.009949,-0.000731,0.009984,-0.005054,-87.209198,0.009985,
800,60,0.176209,-19.867897,0.999997,0.000214,-0.001115,0.007388,0.001978,0.007826,-0.001552,77.525786,0.008287,
820,210,0.764580,-18.638644,0.999997,0.000204,-0.002935,0.008913,0.001188,0.009031,-0.003053,84.328790,0.009188,
1430,60,-0.052650,-19.905607,0.999998,0.000177,-0.000392,0.006334,-0.000593,0.006386,-0.000444,-85.003660,0.007132,
1580,380,-1.025677,-17.207434,0.999996,0.000245,-0.004193,0.009279,0.000275,0.009284,-0.004198,88.829489,0.009298,
830,1700,1.181305,-2.851034,0.999996,0.000218,-0.004095,0.009491,-0.000122,0.009492,-0.004096,-89.486632,0.009522,
1340,1280,-0.342595,-5.310282,0.999994,0.000299,-0.004988,0.007098,-0.004301,0.008473,-0.006363,-72.280465,0.008821,
880,290,0.826206,-18.024743,0.999998,0.000174,-0.003625,0.008864,0.000274,0.008870,-0.003631,88.743461,0.008918,
1660,1220,-2.775691,-8.036622,0.999995,0.000275,-0.005627,0.011054,0.001225,0.011144,-0.005717,85.822284,0.011145,
840,460,1.391514,-16.311777,0.999996,0.000228,-0.004832,0.009931,-0.000457,0.009945,-0.004846,-88.229946,0.009946,
1160,530,0.184125,-16.668608,0.999998,0.000155,-0.002853,0.007010,-0.000943,0.007099,-0.002943,-84.588670,0.007134,
1230,1890,0.001191,-0.903086,0.999998,0.000152,-0.001014,0.006499,0.000011,0.006499,-0.001014,89.913933,0.006994,
1080,1210,0.904718,-6.503973,0.999992,0.000321,-0.006976,0.010643,0.003903,0.011469,-0.007801,78.052995,0.011714,
1480,780,-1.313646,-13.468688,0.999995,0.000325,-0.007625,0.012451,0.001353,0.012542,-0.007715,86.160715,0.012652,
1520,1200,-2.001229,-7.907227,0.999995,0.000281,-0.006994,0.013015,0.000703,0.013040,-0.007018,87.990138,0.013052,
950,440,0.859100,-16.842264,0.999998,0.000179,-0.003963,0.008977,-0.000663,0.009011,-0.003997,-87.072931,0.009030,
920,1200,2.159467,-7.997877,0.999995,0.000280,-0.006707,0.012648,-0.000966,0.012696,-0.006755,-87.149258,0.012705,
1830,800,-3.532021,-12.193714,0.999995,0.000291,-0.004874,0.009740,-0.000651,0.009769,-0.004903,-87.455494,0.009769,
1370,1650,-0.340821,-2.689245,0.999997,0.000215,-0.002659,0.007549,-0.000488,0.007572,-0.002682,-87.270830,0.007679,
1760,1550,-2.197841,-4.747438,0.999997,0.000208,-0.005187,0.010252,-0.000170,0.010253,-0.005189,-89.370380,0.010254,
1630,2000,-0.135168,-0.249982,0.999997,0.000213,-0.000387,0.007164,0.001779,0.007562,-0.000786,77.382489,0.008316,
1400,1840,-0.228813,-1.295047,0.999998,0.000183,-0.001643,0.007144,0.000252,0.007151,-0.001650,88.361346,0.007489,
780,1000,3.356207,-10.357081,0.999996,0.000228,-0.004152,0.010018,0.000349,0.010027,-0.004160,88.590104,0.010075,
1770,1650,-1.964958,-3.758803,0.999997,0.000211,-0.004935,0.010123,-0.000151,0.010125,-0.004937,-89.425474,0.010126,
1860,1370,-3.279126,-6.899113,0.999996,0.000230,-0.004993,0.010059,0.000241,0.010062,-0.004997,89.083723,0.010063,
610,1550,2.674107,-5.044295,0.999995,0.000251,-0.005073,0.010105,0.000080,0.010105,-0.005073,89.697450,0.010105,
1590,860,-2.480843,-11.966124,0.999993,0.000293,-0.006002,0.011882,-0.001297,0.011976,-0.006095,-85.872074,0.011977,
1430,1050,-2.309038,-9.625234,0.999981,0.000565,-0.008117,0.020446,-0.001352,0.020510,-0.008181,-87.295281,0.020649,
1030,1750,0.417805,-2.009509,0.999997,0.000237,-0.002594,0.007752,0.000089,0.007753,-0.002595,89.505614,0.007893,
940,1270,1.659569,-7.012644,0.999994,0.000270,-0.007389,0.012535,0.000353,0.012541,-0.007395,88.985042,0.012608,
1860,280,-1.983672,-17.351998,0.999996,0.000232,-0.004835,0.009849,-0.000062,0.009849,-0.004835,-89.759281,0.009850,
1300,1810,-0.100723,-1.452784,0.999998,0.000142,-0.001426,0.006915,0.000109,0.006916,-0.001427,89.254663,0.007303,
1730,1390,-2.527052,-6.332193,0.999994,0.000285,-0.005578,0.010605,0.000366,0.010613,-0.005587,88.703848,0.010618,
1210,1280,0.047844,-4.662929,0.999998,0.000185,-0.002425,0.002622,0.001310,0.002942,-0.002745,76.286348,0.003289,
880,460,1.198494,-16.441264,0.999997,0.000228,-0.004652,0.009696,-0.000574,0.009719,-0.004675,-87.711073,0.009721,
810,1080,3.206774,-9.540905,0.999997,0.000197,-0.004201,0.010330,-0.000741,0.010368,-0.004238,-87.086500,0.010425,
1780,650,-2.749604,-13.846671,0.999995,0.000259,-0.005311,0.010358,-0.000318,0.010364,-0.005318,-88.838233,0.010366,
1250,1510,-0.046684,-3.529680,0.999998,0.000170,-0.002537,0.006539,-0.000381,0.006555,-0.002553,-87.600531,0.006608,
1060,590,0.536556,-15.898231,0.999995,0.000255,-0.004339,0.008426,-0.002023,0.008739,-0.004653,-81.205568,0.008745,
690,1630,2.038015,-3.970556,0.999997,0.000206,-0.004974,0.010117,0.000166,0.010119,-0.004975,89.371342,0.010120,
1340,1260,-0.384742,-5.451251,0.999994,0.000306,-0.005247,0.007209,-0.004544,0.008690,-0.006729,-71.941919,0.009116,
790,1990,0.210839,-0.337410,0.999997,0.000207,-0.001218,0.007570,-0.002065,0.008031,-0.001680,-77.411650,0.008472,
1030,1780,0.377044,-1.777076,0.999997,0.000221,-0.002369,0.007703,-0.000068,0.007703,-0.002370,-89.614726,0.007891,
1800,990,-3.849616,-10.430782,0.999998,0.000179,-0.004300,0.009312,-0.000235,0.009316,-0.004304,-89.011113,0.009325,
1370,1140,-1.488888,-6.908214,0.999995,0.000000,-0.002878,0.010292,-0.007011,0.013326,-0.005911,-66.602991,0.013354,
660,80,0.521233,-19.608472,0.999996,0.000237,-0.001922,0.010021,0.003895,0.011179,-0.003080,73.440871,0.011548,
1800,450,-2.245968,-15.847346,0.999997,0.000232,-0.005027,0.010119,0.000155,0.010121,-0.005028,89.415010,0.010121,
1110,1720,0.256353,-2.140197,0.999997,0.000219,-0.002268,0.007386,0.000227,0.007391,-0.002274,88.652728,0.007571,
1270,1920,-0.029149,-0.712474,0.999999,0.000131,-0.000719,0.006378,0.000075,0.006379,-0.000720,89.393667,0.006987,
1580,1530,-1.314591,-4.355698,0.999997,0.000223,-0.005105,0.010061,-0.000753,0.010098,-0.005143,-87.163758,0.010099,
1340,1350,-0.295444,-4.823219,0.999995,0.000259,-0.003999,0.006987,-0.003213,0.007858,-0.004870,-74.836752,0.007933,
1030,60,0.052161,-19.905444,0.999998,0.000154,-0.000391,0.006379,0.000621,0.006436,-0.000448,84.800584,0.007187,
1560,800,-1.993331,-12.793183,0.999994,0.000303,-0.006942,0.012362,-0.000456,0.012373,-0.006953,-88.648331,0.012405,
1540,350,-0.810268,-17.577973,0.999998,0.000183,-0.003279,0.008883,-0.000019,0.008883,-0.003279,-89.911446,0.008984,
820,190,0.689446,-18.817757,0.999997,0.000203,-0.002678,0.008734,0.001305,0.008881,-0.002825,83.559915,0.009075,
560,800,3.882623,-12.008849,0.999981,0.000000,-0.005225,0.008789,-0.000281,0.008795,-0.005231,-88.853058,0.008847,
1230,1910,0.002104,-0.771797,0.999998,0.000165,-0.000874,0.006435,0.000004,0.006435,-0.000874,89.965903,0.006981,
1730,480,-1.976658,-15.766330,0.999997,0.000216,-0.005083,0.010239,0.000237,0.010243,-0.005087,89.113005,0.010243,
760,1910,0.665010,-1.023679,0.999996,0.000236,-0.002512,0.008890,-0.002016,0.009236,-0.002858,-80.262010,0.009457,
1060,1210,1.044929,-6.769432,0.999994,0.000282,-0.007475,0.011798,0.003041,0.012266,-0.007943,81.244030,0.012443,
1350,1980,-0.042350,-0.340913,0.999998,0.000150,-0.000395,0.006250,0.000346,0.006268,-0.000413,87.031365,0.007012,
1790,130,-0.866692,-19.119051,0.999996,0.000258,-0.003505,0.009980,-0.002514,0.010433,-0.003958,-79.777168,0.010534,
1660,1240,-2.694220,-7.816697,0.999995,0.000277,-0.005779,0.011217,0.001124,0.011291,-0.005853,86.233052,0.011294,
1520,1180,-2.117289,-8.165827,0.999995,0.000277,-0.006654,0.013015,0.000987,0.013065,-0.006703,87.134848,0.013066,
1580,360,-0.982172,-17.395077,0.999997,0.000227,-0.004141,0.009182,0.000209,0.009185,-0.004144,89.099828,0.009200,
840,440,1.346783,-16.510376,0.999994,0.000293,-0.004755,0.009879,-0.000381,0.009889,-0.004765,-88.508914,0.009891,
1180,630,0.123771,-16.059996,0.999997,0.000227,-0.002693,0.005954,-0.001265,0.006135,-0.002874,-81.844337,0.006139,
1370,1610,-0.356821,-2.990100,0.999996,0.000247,-0.002975,0.007696,-0.000737,0.007746,-0.003026,-86.067329,0.007808,
610,1510,2.792458,-5.452089,0.999997,0.000214,-0.005061,0.010193,0.000044,0.010193,-0.005062,89.832885,0.010193,
1860,1250,-3.692058,-8.081017,0.999995,0.000274,-0.004693,0.009368,0.000406,0.009379,-0.004704,88.347745,0.009379,
1230,1660,0.003525,-2.486545,0.999998,0.000181,-0.002287,0.007073,0.000012,0.007073,-0.002287,89.926340,0.007219,
1400,1820,-0.251352,-1.438982,0.999997,0.000194,-0.001793,0.007284,0.000182,0.007287,-0.001797,88.853262,0.007593,
1200,830,0.167801,-15.324991,0.999991,0.000343,-0.005219,0.002813,-0.000748,0.002883,-0.005288,-84.723698,0.005295,
1250,1490,-0.046689,-3.659767,0.999998,0.000169,-0.002515,0.006365,-0.000428,0.006386,-0.002535,-87.248178,0.006431,
1060,570,0.526585,-16.068245,0.999995,0.000261,-0.004144,0.008332,-0.001812,0.008590,-0.004402,-81.898931,0.008591,
630,1080,3.978979,-9.605658,0.999997,0.000234,-0.004281,0.008903,-0.000170,0.008905,-0.004283,-89.260323,0.008907,
780,1200,2.982298,-8.293307,0.999997,0.000222,-0.005275,0.010835,-0.001261,0.010933,-0.005373,-85.552459,0.010934,
1340,1240,-0.449558,-5.601138,0.999993,0.000335,-0.005461,0.007033,-0.004402,0.008428,-0.006856,-72.414613,0.008963,
580,1340,3.495829,-7.269543,0.999996,0.000281,-0.006205,0.009819,0.000224,0.009822,-0.006208,89.200308,0.009936,
1860,1130,-4.019614,-9.180775,0.999998,0.000171,-0.004347,0.008970,0.000460,0.008986,-0.004363,88.024463,0.008987,
1860,260,-1.900209,-17.550234,0.999996,0.000238,-0.004854,0.009943,-0.000149,0.009945,-0.004856,-89.422378,0.009946,
790,1970,0.306305,-0.491577,0.999997,0.000203,-0.001533,0.007826,-0.002006,0.008238,-0.001945,-78.396807,0.008612,
1880,630,-3.194779,-13.754955,0.999996,0.000234,-0.005092,0.010126,-0.000103,0.010126,-0.005093,-89.610747,0.010126,
1810,800,-3.435005,-12.238119,0.999996,0.000243,-0.004925,0.009943,-0.000769,0.009982,-0.004965,-87.047643,0.009982,
1480,760,-1.237681,-13.715679,0.999994,0.000344,-0.007387,0.012095,0.001552,0.012218,-0.007510,85.472512,0.012325,
1470,360,-0.591105,-17.646133,0.999997,0.000212,-0.003031,0.008273,0.000272,0.008280,-0.003037,88.624510,0.008377,
570,1010,4.248682,-10.226706,0.999953,0.000876,-0.003350,0.008184,0.000287,0.008191,-0.003357,88.573371,0.008236,
920,1180,2.268978,-8.252990,0.999995,0.000274,-0.006330,0.012611,-0.001222,0.012690,-0.006408,-86.325153,0.012690,
1400,990,-1.990011,-11.154136,0.999970,0.000000,-0.009471,0.026094,0.005178,0.026832,-0.010210,81.883308,0.027086,
560,780,3.836349,-12.179539,0.999950,0.000000,-0.005670,0.009249,-0.000188,0.009252,-0.005673,-89.276502,0.009330,
1770,1630,-2.024286,-3.959142,0.999996,0.000227,-0.004970,0.010109,-0.000148,0.010110,-0.004972,-89.436267,0.010111,
660,60,0.343432,-19.812744,0.999995,0.000258,-0.001190,0.009276,0.003906,0.010573,-0.002487,71.630359,0.011057,
1490,1560,-0.836381,-3.748389,0.999996,0.000246,-0.004254,0.009150,-0.001027,0.009228,-0.004332,-85.642002,0.009234,
1140,190,0.099650,-19.077485,0.999998,0.000192,-0.001273,0.006730,0.000138,0.006733,-0.001275,89.010177,0.007153,
1560,1220,-2.164024,-7.805745,0.999994,0.000283,-0.006693,0.012409,0.000906,0.012451,-0.006736,87.291338,0.012465,
1710,480,-1.874847,-15.833128,0.999996,0.000253,-0.005103,0.010205,0.000275,0.010210,-0.005108,88.969619,0.010210,
1340,1330,-0.297936,-4.961186,0.999996,0.000252,-0.004205,0.006918,-0.003569,0.007965,-0.005251,-73.655939,0.008098,
1280,1810,-0.073774,-1.448776,0.999998,0.000175,-0.001441,0.006903,0.000070,0.006903,-0.001442,89.517195,0.007283,
1390,60,-0.038514,-19.911081,0.999998,0.000194,-0.000270,0.006233,-0.000446,0.006264,-0.000301,-86.095229,0.007066,
610,1840,1.654356,-2.129016,0.999996,0.000218,-0.004869,0.010078,-0.000379,0.010088,-0.004879,-88.548730,0.010090,
950,1720,0.694612,-2.397534,0.999998,0.000193,-0.003335,0.008718,0.000085,0.008719,-0.003336,89.597909,0.008799,
1100,120,0.088601,-19.528236,0.999998,0.000154,-0.000668,0.006560,0.000377,0.006580,-0.000688,87.024810,0.007233,
1660,1260,-2.609530,-7.586268,0.999994,0.000297,-0.005921,0.011267,0.001004,0.011325,-0.005979,86.669246,0.011331,
1240,400,-0.019889,-17.636974,0.999998,0.000180,-0.002279,0.007072,0.000124,0.007074,-0.002281,89.243334,0.007221,
1580,340,-0.937801,-17.577197,0.999997,0.000230,-0.003992,0.009167,0.000080,0.009168,-0.003992,89.652423,0.009193,
590,1660,2.446969,-3.998043,0.999996,0.000238,-0.005383,0.010024,0.000069,0.010024,-0.005383,89.744509,0.010033,
1540,330,-0.771857,-17.755783,0.999998,0.000200,-0.003202,0.008832,-0.000066,0.008832,-0.003202,-89.687801,0.008943,
660,1210,3.549941,-8.352118,0.999996,0.000230,-0.004809,0.009713,-0.000820,0.009759,-0.004855,-86.780177,0.009759,
740,1910,0.716198,-1.044250,0.999996,0.000245,-0.002585,0.009104,-0.002142,0.009484,-0.002966,-79.934425,0.009703,
1360,360,-0.286222,-17.828637,0.999998,0.000181,-0.002402,0.007462,0.000289,0.007470,-0.002410,88.320628,0.007625,
1030,1730,0.445205,-2.169514,0.999997,0.000232,-0.002758,0.007913,0.000184,0.007916,-0.002761,89.012239,0.008036,
1520,1160,-2.242042,-8.432731,0.999995,0.000270,-0.006224,0.012909,0.001177,0.012982,-0.006296,86.492743,0.012984,
1160,550,0.186245,-16.530799,0.999997,0.000190,-0.002883,0.006827,-0.001065,0.006942,-0.002999,-83.811983,0.006964,
620,90,0.748102,-19.381183,0.999996,0.000212,-0.004629,0.010780,0.002332,0.011125,-0.004974,81.578957,0.011146,
1800,390,-2.069440,-16.456781,0.999997,0.000216,-0.004960,0.010102,0.000099,0.010103,-0.004961,89.624766,0.010103,
1790,110,-0.715981,-19.332262,0.999996,0.000255,-0.003043,0.009882,-0.002836,0.010477,-0.003638,-78.151433,0.010638,
1640,1920,-0.464607,-0.874053,0.999996,0.000241,-0.001853,0.008122,0.001674,0.008396,-0.002127,80.724252,0.008729,
1180,1600,0.125418,-2.938497,0.999998,0.000172,-0.002446,0.007082,0.000297,0.007092,-0.002456,88.217234,0.007202,
1330,1980,-0.033472,-0.338977,0.999998,0.000173,-0.000419,0.006194,0.000257,0.006204,-0.000429,87.778922,0.006929,
1600,1310,-2.030570,-6.844358,0.999997,0.000228,-0.006561,0.011699,0.000243,0.011702,-0.006565,89.237734,0.011731,
650,780,3.379096,-12.432578,0.999996,0.000220,-0.004983,0.009996,0.000732,0.010032,-0.005019,87.209439,0.010032,
1400,1800,-0.275002,-1.587207,0.999997,0.000208,-0.001965,0.007366,0.000110,0.007368,-0.001966,89.327654,0.007630,
740,220,1.093315,-18.398344,0.999997,0.000183,-0.003694,0.009711,0.001272,0.009831,-0.003814,84.626625,0.009913,
1860,460,-2.578126,-15.551468,0.999995,0.000251,-0.005010,0.010118,0.000110,0.010119,-0.005011,89.584540,0.010119,
610,1490,2.852711,-5.658547,0.999996,0.000233,-0.005100,0.010194,-0.000014,0.010194,-0.005100,-89.948011,0.010194,
980,870,1.826652,-12.254385,0.999995,0.000302,-0.007322,0.013589,0.000163,0.013590,-0.007324,89.552769,0.013604,
1480,1110,-2.323471,-8.924410,0.999991,0.000323,-0.005520,0.014024,0.000769,0.014054,-0.005550,87.748977,0.014157,
1770,1850,-1.220868,-1.739760,0.999995,0.000256,-0.004505,0.010045,0.001098,0.010128,-0.004587,85.707252,0.010143,
1120,1530,0.302298,-3.540266,0.999996,0.000232,-0.003072,0.007435,0.001093,0.007547,-0.003184,84.123564,0.007578,
1080,420,0.382750,-17.337289,0.999997,0.000218,-0.002986,0.007779,-0.000689,0.007823,-0.003030,-86.351515,0.007889,
590,1840,1.752136,-2.217140,0.999996,0.000206,-0.004865,0.009930,-0.000360,0.009939,-0.004874,-88.605686,0.009939,
1340,1220,-0.563347,-5.733261,0.999992,0.000334,-0.005140,0.006848,-0.004162,0.008151,-0.006443,-72.612830,0.008597,
1350,1720,-0.249920,-2.136883,0.999998,0.000187,-0.002278,0.007367,-0.000236,0.007373,-0.002284,-88.597210,0.007549,
1240,380,-0.018557,-17.779624,0.999998,0.000170,-0.002247,0.007081,0.000105,0.007082,-0.002249,89.356182,0.007237,
950,580,1.058794,-15.508722,0.999997,0.000228,-0.005344,0.010011,-0.001345,0.010128,-0.005461,-85.032458,0.010138,
1400,1780,-0.298100,-1.735279,0.999997,0.000228,-0.002111,0.007472,0.000045,0.007472,-0.002111,89.729300,0.007705,
1520,1140,-2.362112,-8.688375,0.999996,0.000260,-0.005705,0.012824,0.001323,0.012918,-0.005799,85.935966,0.012941,
1660,1700,-1.301547,-2.924109,0.999996,0.000230,-0.004575,0.009662,-0.000021,0.009662,-0.004575,-89.914303,0.009667,
580,1010,4.216894,-10.228459,0.999998,0.000158,-0.003577,0.008380,0.000236,0.008385,-0.003582,88.867770,0.008414,
700,100,0.563482,-19.472563,0.999995,0.000237,-0.003204,0.008976,0.002406,0.009434,-0.003662,79.221225,0.009512,
840,420,1.299414,-16.710394,0.999995,0.000290,-0.004617,0.009751,-0.000317,0.009758,-0.004624,-88.735318,0.009762,
1380,130,-0.109243,-19.458539,0.999998,0.000178,-0.000722,0.006602,-0.000422,0.006626,-0.000746,-86.713428,0.007259,
1100,1470,0.379695,-4.057218,0.999996,0.000223,-0.003689,0.007620,0.001835,0.007910,-0.003980,81.012870,0.007910,
1780,450,-2.145519,-15.911913,0.999996,0.000241,-0.005021,0.010135,0.000175,0.010137,-0.005023,89.336932,0.010137,
1480,740,-1.173700,-13.953990,0.999994,0.000321,-0.007143,0.011730,0.001708,0.011883,-0.007296,84.869610,0.011985,
730,1280,2.947071,-7.516699,0.999997,0.000238,-0.005446,0.010617,-0.000918,0.010670,-0.005498,-86.738248,0.010671,
1550,1120,-2.626744,-9.010539,0.999995,0.000288,-0.004898,0.011920,0.001450,0.012044,-0.005022,85.106856,0.012099,
590,1590,2.657830,-4.702161,0.999995,0.000263,-0.005056,0.010100,0.000082,0.010101,-0.005056,89.689547,0.010101,
1480,190,-0.322849,-18.986522,0.999997,0.000216,-0.001718,0.007459,-0.000611,0.007500,-0.001758,-86.210179,0.007844,
1360,340,-0.278014,-17.972942,0.999997,0.000200,-0.002302,0.007398,0.000250,0.007404,-0.002308,88.523269,0.007577,
770,370,1.494970,-16.991764,0.999995,0.000254,-0.004527,0.009791,0.000027,0.009791,-0.004527,89.892346,0.009800,
1060,630,0.555164,-15.555002,0.999995,0.000267,-0.004631,0.008562,-0.002369,0.008974,-0.005043,-80.122325,0.008997,
870,1080,2.959419,-9.515561,0.999997,0.000205,-0.004042,0.010928,-0.000943,0.010987,-0.004101,-86.409118,0.011104,
1250,1470,-0.046209,-3.786037,0.999998,0.000163,-0.002463,0.006172,-0.000458,0.006196,-0.002488,-86.970479,0.006236,
1620,1590,-1.388251,-3.888580,0.999996,0.000225,-0.004873,0.009897,-0.000456,0.009911,-0.004887,-88.233318,0.009911,
1770,120,-0.726626,-19.257580,0.999996,0.000236,-0.003530,0.009661,-0.002397,0.010083,-0.003952,-80.014851,0.010162,
1170,850,0.476504,-15.012865,0.999991,0.000364,-0.005499,0.003065,-0.000703,0.003123,-0.005557,-85.340757,0.005571,
580,1660,2.494657,-4.030607,0.999997,0.000218,-0.007653,0.010173,0.000014,0.010173,-0.007653,89.954830,0.010596,
1820,1310,-3.289469,-7.394350,0.999998,0.000160,-0.005021,0.009957,0.000573,0.009978,-0.005043,87.810778,0.009979,
880,1200,2.415392,-8.118211,0.999994,0.000284,-0.006145,0.011993,-0.001252,0.012079,-0.006231,-86.069846,0.012081,
650,1990,0.394308,-0.396831,0.999994,0.000299,-0.002072,0.009726,-0.003659,0.010768,-0.003115,-74.096480,0.011082,
1380,1330,-0.494466,-5.279131,0.999993,0.000329,-0.005511,0.008770,-0.003582,0.009617,-0.006359,-76.681256,0.009783,
1280,250,-0.075181,-18.678108,0.999998,0.000142,-0.001464,0.006873,-0.000041,0.006873,-0.001464,-89.716893,0.007241,
1640,1900,-0.542827,-1.037393,0.999996,0.000226,-0.002103,0.008430,0.001604,0.008669,-0.002342,81.530088,0.008969,
1730,1370,-2.598317,-6.546096,0.999995,0.000296,-0.005611,0.010673,0.000439,0.010685,-0.005623,88.457318,0.010690,
600,90,0.841316,-19.285255,0.999997,0.000190,-0.004582,0.011282,0.002512,0.011670,-0.004970,81.214972,0.011712,
1730,500,-2.030398,-15.559778,0.999996,0.000237,-0.005133,0.010291,0.000243,0.010295,-0.005136,89.097571,0.010295,
1790,90,-0.587939,-19.511590,0.999996,0.000268,-0.002303,0.009546,-0.003372,0.010438,-0.003195,-75.178128,0.010697,
560,770,3.806215,-12.280374,0.999897,0.000000,-0.005817,0.009407,-0.000121,0.009408,-0.005818,-89.545005,0.009495,
1340,1440,-0.296165,-4.188426,0.999997,0.000217,-0.003491,0.007152,-0.002043,0.007531,-0.003869,-79.498433,0.007532,
1480,720,-1.120868,-14.184687,0.999996,0.000277,-0.006866,0.011394,0.001801,0.011570,-0.007042,84.420006,0.011661,
1660,1680,-1.355683,-3.119187,0.999997,0.000222,-0.004619,0.009763,-0.000088,0.009764,-0.004620,-89.648723,0.009769,
1580,320,-0.889284,-17.762312,0.999996,0.000259,-0.003809,0.009084,-0.000060,0.009085,-0.003810,-89.731929,0.009124,
970,60,0.074033,-19.899109,0.999998,0.000191,-0.000571,0.006566,0.000843,0.006664,-0.000669,83.355074,0.007339,
610,1470,2.916150,-5.863133,0.999996,0.000231,-0.005110,0.010161,-0.000061,0.010161,-0.005110,-89.770731,0.010161,
1650,260,-0.967091,-18.169230,0.999996,0.000210,-0.003616,0.009232,-0.000726,0.009273,-0.003656,-86.777701,0.009342,
1340,1530,-0.292923,-3.533800,0.999997,0.000200,-0.003030,0.007345,-0.001062,0.007452,-0.003138,-84.214221,0.007483,
920,1160,2.380442,-8.502858,0.999995,0.000291,-0.005920,0.012474,-0.001412,0.012582,-0.006027,-85.636153,0.012585,
790,1950,0.395213,-0.650149,0.999996,0.000224,-0.001995,0.008226,-0.001996,0.008602,-0.002371,-79.333670,0.008885,
590,1790,1.985605,-2.713880,0.999996,0.000221,-0.004811,0.009831,-0.000098,0.009832,-0.004811,-89.615578,0.009832,
1660,1970,-0.283393,-0.483475,0.999997,0.000209,-0.001424,0.007749,0.001946,0.008145,-0.001820,78.505929,0.008550,
1030,1710,0.467523,-2.326469,0.999997,0.000224,-0.002887,0.007910,0.000334,0.007920,-0.002897,88.231043,0.008014,
1400,1760,-0.318772,-1.885513,0.999997,0.000229,-0.002265,0.007525,-0.000039,0.007525,-0.002265,-89.772247,0.007721,
1240,360,-0.019013,-17.921149,0.999998,0.000180,-0.002175,0.007007,0.000115,0.007008,-0.002177,89.284996,0.007174,
1240,530,-0.021879,-16.737742,0.999997,0.000194,-0.002536,0.006648,0.000193,0.006652,-0.002540,88.794771,0.006714,
1520,1360,-1.325535,-5.914797,0.999993,0.000289,-0.006666,0.011353,-0.001184,0.011430,-0.006743,-86.255713,0.011492,
840,400,1.251569,-16.905024,0.999996,0.000273,-0.004437,0.009589,-0.000225,0.009592,-0.004440,-89.080638,0.009601,
1780,430,-2.087700,-16.116417,0.999997,0.000209,-0.004957,0.010115,0.000169,0.010117,-0.004959,89.358743,0.010117,
1080,190,0.175687,-19.050599,0.999997,0.000198,-0.001192,0.006927,0.000331,0.006941,-0.001206,87.670786,0.007417,
630,780,3.476982,-12.388437,0.999995,0.000250,-0.004926,0.009887,0.000608,0.009912,-0.004951,87.654383,0.009912,
1750,120,-0.651983,-19.300394,0.999995,0.000274,-0.003412,0.009276,-0.002233,0.009658,-0.003793,-80.305009,0.009732,
1360,320,-0.258822,-18.125890,0.999997,0.000205,-0.002200,0.007414,0.000121,0.007415,-0.002202,89.281599,0.007617,
770,350,1.435790,-17.191099,0.999995,0.000261,-0.004407,0.009823,0.000140,0.009824,-0.004408,89.436311,0.009841,
980,850,1.696804,-12.530798,0.999995,0.000306,-0.007607,0.013481,-0.000169,0.013483,-0.007608,-89.541205,0.013520,
1740,1250,-3.095043,-7.845559,0.999996,0.000252,-0.005284,0.010417,0.001004,0.010480,-0.005347,86.357374,0.010481,
990,1510,0.816238,-4.147030,0.999996,0.000243,-0.004646,0.009222,0.001432,0.009368,-0.004792,84.164764,0.009369,
1100,860,0.864156,-13.840188,0.999991,0.000387,-0.005177,0.008346,-0.004495,0.009704,-0.006535,-73.190953,0.009896,
820,1150,2.961788,-8.790299,0.999996,0.000240,-0.004941,0.010882,-0.001346,0.010996,-0.005055,-85.172106,0.011008,
1180,1580,0.127513,-3.080178,0.999998,0.000162,-0.002501,0.006995,0.000338,0.007007,-0.002513,87.965354,0.007100,
1700,1050,-3.432730,-9.856324,0.999995,0.000247,-0.004221,0.009912,0.000360,0.009921,-0.004230,88.539856,0.009957,
760,1770,1.272193,-2.355471,0.999996,0.000228,-0.004184,0.009790,-0.000557,0.009812,-0.004206,-87.722551,0.009845,
1800,1310,-3.187245,-7.346473,0.999995,0.000264,-0.005113,0.010130,0.000651,0.010158,-0.005140,87.560375,0.010158,
1060,610,0.546084,-15.725804,0.999997,0.000217,-0.004489,0.008487,-0.002202,0.008851,-0.004853,-80.627465,0.008864,
1250,1450,-0.044369,-3.908191,0.999998,0.000151,-0.002412,0.005940,-0.000493,0.005969,-0.002441,-86.633089,0.006002,
1740,890,-3.386538,-11.436847,0.999997,0.000213,-0.004815,0.010175,-0.001096,0.010255,-0.004894,-85.838577,0.010258,
590,1010,4.175205,-10.228974,0.999998,0.000197,-0.004003,0.008570,0.000246,0.008575,-0.004008,88.878982,0.008581,
570,1660,2.561814,-4.058082,0.999824,0.001966,-0.008938,0.010371,-0.000150,0.010372,-0.008939,-89.553898,0.011241,
880,1160,2.612140,-8.597835,0.999995,0.000264,-0.005475,0.011780,-0.001466,0.011904,-0.005599,-85.176851,0.011911,
990,1660,0.648352,-2.816245,0.999997,0.000216,-0.003477,0.008506,0.000535,0.008530,-0.003501,87.449734,0.008575,
1710,500,-1.928124,-15.626099,0.999997,0.000211,-0.005182,0.010292,0.000269,0.010297,-0.005187,89.004643,0.010297,
650,1970,0.578753,-0.607819,0.999994,0.000295,-0.002716,0.010205,-0.003476,0.011081,-0.003592,-75.857398,0.011307,
1790,70,-0.406078,-19.719393,0.999997,0.000252,-0.001516,0.009574,-0.003902,0.010810,-0.002751,-72.433251,0.011235,
1080,400,0.369546,-17.492738,0.999996,0.000227,-0.002801,0.007742,-0.000520,0.007767,-0.002827,-87.182128,0.007863,
580,1590,2.707354,-4.734065,0.999996,0.000234,-0.005223,0.010062,0.000095,0.010063,-0.005224,89.642411,0.010065,
1580,300,-0.839369,-17.943500,0.999996,0.000228,-0.003631,0.008907,-0.000216,0.008911,-0.003635,-89.011550,0.008961,
610,1450,2.976731,-6.066253,0.999996,0.000257,-0.005081,0.010135,-0.000070,0.010135,-0.005081,-89.734691,0.010135,
1880,580,-3.036270,-14.264888,0.999996,0.000254,-0.005058,0.010191,-0.000010,0.010191,-0.005058,-89.962813,0.010191,
1340,1200,-0.718722,-5.867061,0.999991,0.000364,-0.004215,0.006000,-0.003547,0.007111,-0.005326,-72.612423,0.007399,
1730,1350,-2.668427,-6.760386,0.999994,0.000312,-0.005598,0.010680,0.000543,0.010698,-0.005616,88.090637,0.010703,
1050,1400,0.614500,-4.878812,0.999995,0.000267,-0.005132,0.009076,0.002559,0.009523,-0.005578,80.095415,0.009570,
950,600,1.092403,-15.305032,0.999995,0.000270,-0.005563,0.010192,-0.001381,0.010312,-0.005683,-85.029099,0.010330,
740,200,0.997189,-18.595466,0.999997,0.000183,-0.003458,0.009681,0.001486,0.009847,-0.003624,83.626877,0.009961,
1240,340,-0.018678,-18.059697,0.999998,0.000183,-0.002080,0.007001,0.000091,0.007002,-0.002081,89.428519,0.007191,
1720,1650,-1.720149,-3.598288,0.999997,0.000223,-0.004891,0.010086,-0.000137,0.010087,-0.004892,-89.474132,0.010089,
1400,1740,-0.342002,-2.037845,0.999997,0.000213,-0.002422,0.007611,-0.000127,0.007613,-0.002423,-89.276116,0.007779,
1340,1510,-0.294924,-3.678978,0.999996,0.000217,-0.003115,0.007297,-0.001220,0.007438,-0.003256,-83.405992,0.007457,
1060,670,0.572329,-15.207609,0.999996,0.000225,-0.005164,0.008942,-0.002767,0.009466,-0.005687,-79.289947,0.009529,
770,1080,3.376029,-9.554796,0.999993,0.000314,-0.004290,0.010055,-0.000587,0.010079,-0.004314,-87.658824,0.010114,
1360,300,-0.247465,-18.271453,0.999998,0.000184,-0.002056,0.007330,0.000068,0.007330,-0.002057,89.586913,0.007562,
1250,1430,-0.042243,-4.024127,0.999998,0.000151,-0.002324,0.005654,-0.000499,0.005685,-0.002356,-86.434419,0.005712,
580,1790,2.033833,-2.754675,0.999996,0.000232,-0.004722,0.009714,-0.000062,0.009714,-0.004722,-89.754033,0.009716,
560,760,3.764035,-12.377315,0.999808,0.000000,-0.006056,0.009665,-0.000256,0.009669,-0.006060,-89.067439,0.009772,
1660,1660,-1.409752,-3.315431,0.999996,0.000242,-0.004672,0.009823,-0.000165,0.009825,-0.004674,-89.348955,0.009829,
1100,820,0.609588,-14.202048,0.999992,0.000350,-0.006410,0.008997,-0.004431,0.010181,-0.007594,-75.047042,0.010583,
1520,1120,-2.477532,-8.946907,0.999994,0.000299,-0.005236,0.012614,0.001319,0.012711,-0.005333,85.796260,0.012766,
1480,940,-2.293133,-11.298451,0.999993,0.000313,-0.005637,0.014028,-0.000760,0.014057,-0.005666,-87.790517,0.014145,
1720,1250,-2.987959,-7.811300,0.999996,0.000262,-0.005394,0.010563,0.001030,0.010629,-0.005460,86.321915,0.010630,
1220,530,0.029109,-16.734749,0.999998,0.000158,-0.002538,0.006646,-0.000260,0.006653,-0.002545,-88.378680,0.006714,
920,1140,2.492443,-8.752869,0.999995,0.000292,-0.005434,0.012292,-0.001475,0.012413,-0.005556,-85.276939,0.012436,
1030,1690,0.488111,-2.487451,0.999997,0.000219,-0.002989,0.008139,0.000385,0.008152,-0.003002,88.022763,0.008246,
1260,250,-0.046356,-18.683555,0.999998,0.000178,-0.001528,0.006849,0.000032,0.006849,-0.001528,89.779981,0.007190,
1520,690,-1.312082,-14.305217,0.999997,0.000212,-0.006627,0.011308,0.001228,0.011392,-0.006710,86.102796,0.011452,
1670,1540,-1.759385,-4.557844,0.999995,0.000239,-0.005214,0.010288,-0.000360,0.010296,-0.005222,-88.670530,0.010296,
1880,810,-3.800132,-11.982955,0.999995,0.000284,-0.004581,0.009193,-0.000259,0.009198,-0.004586,-88.921530,0.009198,
1130,1340,0.269390,-4.841832,0.999997,0.000223,-0.003889,0.006693,0.003308,0.007642,-0.004838,73.992411,0.007731,
1180,1560,0.128717,-3.218021,0.999998,0.000167,-0.002552,0.006932,0.000392,0.006948,-0.002568,87.639228,0.007026,
990,1490,0.839055,-4.337620,0.999996,0.000237,-0.004900,0.009434,0.001572,0.009604,-0.005070,83.814532,0.009609,
1060,190,0.201404,-19.038283,0.999998,0.000169,-0.001505,0.007026,0.000333,0.007039,-0.001518,87.769681,0.007408,
770,330,1.375389,-17.388576,0.999996,0.000244,-0.004364,0.009868,0.000207,0.009871,-0.004367,89.166254,0.009893,
1790,490,-2.310043,-15.469993,0.999996,0.000253,-0.005141,0.010246,0.000162,0.010247,-0.005143,89.398150,0.010247,
970,1660,0.721663,-2.868578,0.999997,0.000201,-0.003718,0.008692,0.000516,0.008713,-0.003739,87.623666,0.008742,
790,1930,0.497640,-0.822505,0.999996,0.000232,-0.002387,0.008359,-0.001870,0.008676,-0.002703,-80.403832,0.008879,
1810,180,-1.258844,-18.566251,0.999997,0.000236,-0.004288,0.010316,-0.001462,0.010461,-0.004433,-84.339529,0.010501,
660,240,1.536564,-17.969353,0.999996,0.000258,-0.004619,0.010144,0.000771,0.010184,-0.004659,87.018160,0.010197,
1880,570,-3.005043,-14.366465,0.999997,0.000242,-0.005073,0.010198,-0.000004,0.010198,-0.005073,-89.983268,0.010198,
1610,860,-2.597751,-11.924538,0.999993,0.000335,-0.005819,0.011596,-0.001346,0.011700,-0.005923,-85.606911,0.011700,
610,1430,3.043247,-6.271062,0.999996,0.000260,-0.005044,0.010194,-0.000111,0.010195,-0.005045,-89.582005,0.010195,
950,60,0.086494,-19.895392,0.999998,0.000202,-0.000535,0.006642,0.000957,0.006768,-0.000661,82.531282,0.007463,
840,380,1.204989,-17.094679,0.999997,0.000242,-0.004218,0.009498,-0.000037,0.009498,-0.004218,-89.846317,0.009517,
720,1830,1.192407,-1.857957,0.999994,0.000294,-0.004302,0.009844,-0.000933,0.009905,-0.004363,-86.241027,0.009929,
810,640,2.005258,-14.331785,0.999997,0.000186,-0.005877,0.010899,-0.000095,0.010899,-0.005878,-89.675405,0.010911,
1730,1330,-2.741552,-6.977370,0.999996,0.000266,-0.005565,0.010615,0.000670,0.010643,-0.005592,87.631151,0.010648,
1340,840,-0.590673,-14.389137,0.999989,0.000435,-0.004915,0.006780,0.004108,0.008078,-0.006214,72.455847,0.008460,
570,1590,2.765215,-4.768870,0.999955,0.000832,-0.005336,0.010012,0.000102,0.010012,-0.005336,89.618534,0.010019,
1580,280,-0.788397,-18.122435,0.999996,0.000219,-0.003471,0.008819,-0.000366,0.008830,-0.003482,-88.297432,0.008896,
880,1140,2.699160,-8.830280,0.999996,0.000234,-0.005131,0.011514,-0.001434,0.011637,-0.005253,-85.112707,0.011655,
950,560,1.029962,-15.707822,0.999995,0.000264,-0.005055,0.009834,-0.001245,0.009938,-0.005158,-85.253740,0.009940,
1360,280,-0.229085,-18.420346,0.999997,0.000187,-0.001923,0.007350,-0.000032,0.007351,-0.001923,-89.801385,0.007624,
740,180,0.903171,-18.785620,0.999997,0.000197,-0.003219,0.009466,0.001715,0.009694,-0.003446,82.432707,0.009828,
1060,650,0.563008,-15.384073,0.999995,0.000266,-0.004855,0.008800,-0.002563,0.009265,-0.005320,-79.713135,0.009299,
560,750,3.731536,-12.463569,0.999811,0.000000,-0.006397,0.010825,-0.000180,0.010827,-0.006399,-89.400880,0.010887,
930,1720,0.758910,-2.436426,0.999998,0.000203,-0.003180,0.008880,-0.000056,0.008881,-0.003180,-89.734294,0.008999,
1030,1400,0.721858,-4.996622,0.999995,0.000280,-0.005478,0.009516,0.002400,0.009891,-0.005853,81.125228,0.009946,
1250,1410,-0.041227,-4.133838,0.999998,0.000158,-0.002244,0.005365,-0.000540,0.005403,-0.002282,-85.958949,0.005425,
1240,320,-0.017072,-18.201939,0.999998,0.000178,-0.001963,0.007034,0.000060,0.007034,-0.001964,89.615573,0.007259,
600,1530,2.784004,-5.280017,0.999996,0.000230,-0.005066,0.010149,0.000058,0.010149,-0.005066,89.781834,0.010149,
1500,1050,-2.669381,-9.795092,0.999995,0.000256,-0.003963,0.013061,0.000422,0.013072,-0.003974,88.582055,0.013402,
1520,1080,-2.662236,-9.442888,0.999995,0.000250,-0.004221,0.012301,0.000960,0.012357,-0.004277,86.685598,0.012551,
1100,800,0.534195,-14.389409,0.999993,0.000325,-0.006225,0.008932,-0.004483,0.010158,-0.007452,-74.698011,0.010521,
1410,230,-0.263072,-18.748034,0.999997,0.000207,-0.001913,0.007324,-0.000197,0.007328,-0.001917,-88.777497,0.007600,
1890,220,-1.860679,-17.814452,0.999997,0.000185,-0.004892,0.009718,-0.000293,0.009723,-0.004898,-88.852651,0.009724,
1030,1670,0.511092,-2.652777,0.999995,0.000247,-0.003060,0.008146,0.000445,0.008163,-0.003077,87.731692,0.008245,
1160,190,0.077427,-19.082670,0.999998,0.000176,-0.001012,0.006682,0.000159,0.006685,-0.001015,88.816708,0.007205,
690,1720,1.762084,-3.058347,0.999996,0.000224,-0.004811,0.010028,-0.000027,0.010028,-0.004811,-89.894746,0.010030,
590,1280,3.654522,-7.829128,0.999995,0.000265,-0.004832,0.009665,-0.000344,0.009673,-0.004840,-88.639880,0.009673,
1660,1640,-1.460931,-3.513912,0.999996,0.000249,-0.004708,0.009900,-0.000216,0.009903,-0.004712,-89.153831,0.009907,
580,1780,2.074231,-2.852132,0.999995,0.000254,-0.004683,0.009656,-0.000051,0.009656,-0.004683,-89.797463,0.009658,
950,1660,0.796192,-2.919779,0.999996,0.000220,-0.003707,0.008769,0.000419,0.008783,-0.003721,88.077693,0.008817,
1790,510,-2.367888,-15.264651,0.999995,0.000247,-0.005147,0.010245,0.000134,0.010246,-0.005148,89.501085,0.010246,
1080,820,0.742245,-13.928156,0.999993,0.000308,-0.006968,0.010484,-0.004053,0.011379,-0.007863,-77.544494,0.011652,
920,1120,2.590368,-8.994947,0.999995,0.000281,-0.004956,0.012065,-0.001442,0.012186,-0.005077,-85.190942,0.012243,
1630,860,-2.711192,-11.891581,0.999992,0.000331,-0.005634,0.011344,-0.001360,0.011452,-0.005743,-85.448047,0.011452,
1240,250,-0.013617,-18.688165,0.999998,0.000173,-0.001554,0.006842,0.000035,0.006842,-0.001554,89.762971,0.007174,
750,1610,1.797302,-3.980316,0.999996,0.000236,-0.004988,0.010085,0.000214,0.010088,-0.004991,89.188005,0.010088,
990,1470,0.861038,-4.532936,0.999996,0.000231,-0.005076,0.009580,0.001673,0.009768,-0.005265,83.569026,0.009778,
650,1950,0.754363,-0.812573,0.999995,0.000266,-0.003268,0.010196,-0.002823,0.010764,-0.003836,-78.626624,0.010911,
1330,840,-0.545481,-14.544093,0.999988,0.000436,-0.004578,0.005790,0.003676,0.006961,-0.005749,72.331157,0.007437,
1180,1540,0.129764,-3.354259,0.999998,0.000177,-0.002601,0.006895,0.000479,0.006919,-0.002626,87.118593,0.006986,
1110,1340,0.353294,-4.988939,0.999995,0.000282,-0.004561,0.007494,0.003501,0.008437,-0.005504,74.926031,0.008566,
1480,700,-1.071740,-14.411874,0.999996,0.000280,-0.006602,0.011106,0.001893,0.011307,-0.006802,83.965174,0.011384,
1160,570,0.187173,-16.395697,0.999997,0.000180,-0.002882,0.006759,-0.001228,0.006913,-0.003036,-82.853346,0.006930,
1360,260,-0.213227,-18.566473,0.999997,0.000186,-0.001748,0.007167,-0.000056,0.007167,-0.001749,-89.639638,0.007474,
1880,560,-2.975061,-14.469134,0.999996,0.000255,-0.005078,0.010225,-0.000008,0.010225,-0.005078,-89.969395,0.010225,
790,1910,0.586190,-0.988057,0.999996,0.000248,-0.002824,0.008620,-0.001681,0.008862,-0.003066,-81.814842,0.009001,
560,740,3.718466,-12.576109,0.999837,0.000000,-0.007067,0.012450,-0.000139,0.012451,-0.007068,-89.591819,0.012489,
1340,820,-0.476108,-14.528813,0.999992,0.000362,-0.005431,0.006993,0.004353,0.008367,-0.006805,72.489884,0.008897,
1330,60,-0.023505,-19.914923,0.999999,0.000137,-0.000344,0.006114,-0.000252,0.006124,-0.000354,-87.765515,0.006876,
1410,320,-0.373317,-18.066959,0.999996,0.000239,-0.002635,0.007692,0.000189,0.007696,-0.002639,88.954366,0.007821,
700,1830,1.283885,-1.916993,0.999996,0.000237,-0.004638,0.009925,-0.000845,0.009973,-0.004687,-86.691144,0.009979,
670,60,0.333582,-19.811766,0.999996,0.000275,-0.001016,0.009186,0.003920,0.010518,-0.002349,71.229700,0.011042,
700,120,0.702970,-19.271192,0.999995,0.000239,-0.003591,0.009529,0.002307,0.009922,-0.003985,80.312732,0.009986,
880,1120,2.788587,-9.061760,0.999996,0.000252,-0.004718,0.011384,-0.001424,0.011509,-0.004843,-84.984451,0.011557,
1080,1470,0.453576,-4.131587,0.999997,0.000201,-0.003866,0.008007,0.001848,0.008288,-0.004147,81.352971,0.008288,
740,160,0.795794,-18.975089,0.999997,0.000210,-0.002906,0.009366,0.002007,0.009686,-0.003226,80.941969,0.009864,
910,1720,0.822374,-2.473348,0.999997,0.000219,-0.003425,0.008960,-0.000038,0.008960,-0.003425,-89.824642,0.009043,
1360,570,-0.365714,-16.229543,0.999997,0.000187,-0.003599,0.007584,0.001739,0.007849,-0.003863,81.359862,0.007849,
1080,1590,0.410097,-3.179343,0.999996,0.000235,-0.003328,0.007890,0.001026,0.007983,-0.003421,84.814929,0.008010,
840,360,1.155902,-17.283362,0.999997,0.000214,-0.003980,0.009475,0.000118,0.009476,-0.003981,89.496542,0.009516,
1030,1650,0.530789,-2.815505,0.999995,0.000241,-0.003126,0.008122,0.000556,0.008150,-0.003154,87.176024,0.008219,
1100,780,0.476861,-14.558540,0.999994,0.000315,-0.005888,0.008594,-0.004329,0.009789,-0.007084,-74.562855,0.010111,
790,640,2.120634,-14.265916,0.999996,0.000231,-0.005794,0.010811,0.000006,0.010811,-0.005794,89.978968,0.010820,
1730,1310,-2.815606,-7.187000,0.999995,0.000265,-0.005529,0.010623,0.000779,0.010660,-0.005567,87.245346,0.010664,
1030,1380,0.742489,-5.192052,0.999992,0.000327,-0.005718,0.009787,0.002528,0.010189,-0.006120,80.970208,0.010258,
1410,250,-0.291725,-18.598630,0.999997,0.000212,-0.002062,0.007415,-0.000115,0.007416,-0.002063,-89.302286,0.007655,
1800,1750,-1.790413,-2.844701,0.999997,0.000205,-0.004799,0.010046,0.000226,0.010049,-0.004802,89.126949,0.010053,
1250,1390,-0.040088,-4.239016,0.999998,0.000157,-0.002190,0.005021,-0.000620,0.005074,-0.002243,-85.121062,0.005085,
1240,300,-0.014327,-18.341648,0.999998,0.000190,-0.001868,0.006969,0.000065,0.006969,-0.001869,89.579846,0.007215,
1520,1060,-2.727535,-9.690261,0.999996,0.000240,-0.003857,0.012350,0.000665,0.012377,-0.003884,87.653158,0.012660,
580,1280,3.702512,-7.858321,0.999996,0.000264,-0.005082,0.009603,-0.000257,0.009608,-0.005086,-88.998886,0.009613,
1830,40,-0.227138,-19.943721,0.999996,0.000232,-0.003290,0.009008,-0.003215,0.009797,-0.004079,-76.198591,0.009843,
1760,330,-1.682487,-17.194130,0.999996,0.000241,-0.004805,0.010056,-0.000058,0.010056,-0.004805,-89.775480,0.010059,
1380,190,-0.172290,-19.051481,0.999998,0.000166,-0.001166,0.006945,-0.000333,0.006958,-0.001180,-87.653538,0.007448,
590,1530,2.835004,-5.310855,0.999997,0.000179,-0.005068,0.010152,0.000047,0.010152,-0.005068,89.822304,0.010152,
770,1700,1.449771,-3.018755,0.999997,0.000185,-0.004453,0.009773,-0.000116,0.009774,-0.004454,-89.532418,0.009787,
1790,530,-2.426122,-15.059053,0.999995,0.000262,-0.005172,0.010208,0.000078,0.010209,-0.005173,89.708875,0.010209,
750,1590,1.849212,-4.185059,0.999996,0.000228,-0.005056,0.010148,0.000251,0.010152,-0.005060,89.053210,0.010152,
1080,840,0.870454,-13.705944,0.999993,0.000309,-0.007034,0.010644,-0.003884,0.011460,-0.007849,-78.140263,0.011718,
1180,1520,0.129904,-3.491842,0.999998,0.000169,-0.002634,0.006780,0.000591,0.006817,-0.002671,86.420800,0.006870,
710,1340,2.832246,-6.924407,0.999996,0.000254,-0.005460,0.010463,-0.000615,0.010486,-0.005484,-87.790035,0.010490,
1660,1620,-1.510167,-3.713584,0.999996,0.000230,-0.004773,0.009943,-0.000276,0.009949,-0.004779,-88.924434,0.009951,
1480,660,-0.996303,-14.846393,0.999995,0.000253,-0.006004,0.010450,0.001880,0.010662,-0.006216,83.564972,0.010711,
650,1910,1.046463,-1.231777,0.999997,0.000264,-0.003969,0.010309,-0.001976,0.010577,-0.004237,-82.263749,0.010647,
1360,240,-0.194262,-18.709574,0.999997,0.000196,-0.001627,0.007128,-0.000136,0.007130,-0.001629,-89.107757,0.007472,
1310,820,-0.336002,-14.923323,0.999995,0.000256,-0.004478,0.004619,0.003568,0.005851,-0.005711,70.944823,0.006677,
1310,1660,-0.178899,-2.526398,0.999997,0.000196,-0.002444,0.007236,-0.000361,0.007250,-0.002457,-87.868410,0.007374,
610,1410,3.108043,-6.476055,0.999997,0.000224,-0.005050,0.010127,-0.000175,0.010129,-0.005052,-89.340173,0.010129,
670,50,0.261194,-19.896796,0.999994,0.000293,-0.000695,0.008696,0.003828,0.010059,-0.002058,70.403548,0.010628,
1610,740,-2.077115,-13.341401,0.999996,0.000230,-0.006464,0.011655,-0.000293,0.011660,-0.006469,-89.074565,0.011683,
990,1450,0.882913,-4.722306,0.999996,0.000214,-0.005250,0.009740,0.001720,0.009935,-0.005444,83.536408,0.009950,
1580,260,-0.733786,-18.295650,0.999997,0.000201,-0.003294,0.008620,-0.000463,0.008638,-0.003312,-87.775580,0.008716,
920,1100,2.688581,-9.237907,0.999994,0.000297,-0.004486,0.011856,-0.001280,0.011956,-0.004586,-85.549804,0.012064,
1860,250,-1.854052,-17.651937,0.999997,0.000222,-0.004858,0.009905,-0.000167,0.009907,-0.004860,-89.353882,0.009907,
840,340,1.104256,-17.473613,0.999997,0.000214,-0.003863,0.009508,0.000176,0.009510,-0.003865,89.246592,0.009565,
880,1100,2.860086,-9.286841,0.999996,0.000255,-0.004399,0.011132,-0.001139,0.011216,-0.004482,-85.827433,0.011291,
1340,800,-0.398087,-14.670245,0.999993,0.000346,-0.005261,0.007182,0.004492,0.008634,-0.006713,72.083893,0.009067,
1220,250,0.017630,-18.688135,0.999998,0.000151,-0.001575,0.006850,-0.000044,0.006850,-0.001576,-89.703401,0.007176,
1360,550,-0.361893,-16.380892,0.999997,0.000192,-0.003516,0.007603,0.001578,0.007823,-0.003735,82.075636,0.007825,
560,730,3.697199,-12.730533,0.999734,0.000000,-0.007147,0.011852,0.000667,0.011876,-0.007171,87.992172,0.011961,
1100,760,0.439900,-14.731353,0.999993,0.000322,-0.005541,0.008370,-0.004100,0.009489,-0.006659,-74.739725,0.009743,
1240,280,-0.016227,-18.481801,0.999998,0.000180,-0.001754,0.006971,0.000039,0.006971,-0.001754,89.744006,0.007252,
1250,1810,-0.031109,-1.441552,0.999998,0.000181,-0.001494,0.006842,-0.000030,0.006842,-0.001494,-89.790824,0.007195,
1890,1020,-4.252103,-10.143277,0.999998,0.000178,-0.004044,0.008387,-0.000120,0.008388,-0.004045,-89.445942,0.008390,
1780,330,-1.779324,-17.129202,0.999996,0.000246,-0.004827,0.010011,-0.000028,0.010011,-0.004827,-89.892388,0.010014,
950,1780,0.577023,-1.885740,0.999995,0.000252,-0.002920,0.008269,-0.000239,0.008274,-0.002925,-88.778581,0.008391,
1520,1040,-2.757578,-9.932643,0.999996,0.000239,-0.003655,0.011946,0.000264,0.011951,-0.003660,89.031403,0.012246,
740,140,0.690965,-19.160010,0.999996,0.000210,-0.002549,0.009028,0.002237,0.009446,-0.002966,79.435853,0.009661,
1330,1720,-0.202581,-2.112565,0.999998,0.000196,-0.002302,0.007227,-0.000295,0.007236,-0.002312,-88.227035,0.007392,
1360,190,-0.148153,-19.060884,0.999997,0.000192,-0.001227,0.006874,-0.000255,0.006882,-0.001235,-88.197901,0.007338,
570,1280,3.754352,-7.888204,0.999944,0.000962,-0.005227,0.009551,-0.000224,0.009555,-0.005230,-89.132959,0.009569,
1090,320,0.287330,-18.112637,0.999996,0.000236,-0.002128,0.007492,-0.000072,0.007493,-0.002129,-89.570346,0.007722,
580,1530,2.884839,-5.341703,0.999996,0.000225,-0.005064,0.010165,0.000018,0.010165,-0.005064,89.930982,0.010165,
1410,270,-0.316131,-18.450990,0.999997,0.000214,-0.002247,0.007479,-0.000025,0.007479,-0.002247,-89.850447,0.007675,
980,830,1.577257,-12.801747,0.999992,0.000350,-0.007778,0.013255,-0.000540,0.013269,-0.007791,-88.530933,0.013336,
750,1700,1.537510,-3.073941,0.999994,0.000250,-0.004581,0.009889,-0.000134,0.009890,-0.004583,-89.469278,0.009899,
700,1810,1.374068,-2.118213,0.999996,0.000229,-0.004704,0.010008,-0.000659,0.010037,-0.004734,-87.438436,0.010043,
740,1590,1.899364,-4.216472,0.999997,0.000211,-0.005062,0.010176,0.000242,0.010180,-0.005066,89.091838,0.010180,
1310,60,-0.016783,-19.915313,0.999998,0.000150,-0.000242,0.006086,-0.000198,0.006092,-0.000248,-88.206107,0.006896,
1690,1360,-2.403674,-6.546764,0.999995,0.000280,-0.005869,0.010947,0.000412,0.010957,-0.005879,88.597090,0.010967,
1790,550,-2.485514,-14.853128,0.999995,0.000272,-0.005212,0.010268,0.000046,0.010269,-0.005212,89.830026,0.010269,
650,1890,1.174153,-1.442194,0.999997,0.000246,-0.004198,0.010432,-0.001628,0.010611,-0.004377,-83.727026,0.010665,
560,720,3.700743,-12.881365,0.999718,0.000000,-0.007239,0.009994,0.001396,0.010106,-0.007351,85.399653,0.010449,
1730,1290,-2.891303,-7.401458,0.999995,0.000286,-0.005467,0.010702,0.000876,0.010750,-0.005514,86.908039,0.010751,
910,1660,0.946039,-3.016388,0.999996,0.000222,-0.004027,0.009116,0.000368,0.009126,-0.004037,88.399334,0.009146,
1580,240,-0.678952,-18.468141,0.999997,0.000198,-0.003116,0.008636,-0.000644,0.008671,-0.003151,-86.873307,0.008779,
790,1890,0.677844,-1.169377,0.999996,0.000235,-0.003088,0.008826,-0.001521,0.009017,-0.003279,-82.837686,0.009128,
1360,220,-0.177719,-18.849891,0.999998,0.000186,-0.001466,0.006957,-0.000151,0.006960,-0.001469,-88.974375,0.007337,
750,1570,1.901325,-4.389254,0.999997,0.000220,-0.005113,0.010222,0.000265,0.010226,-0.005118,89.010905,0.010226,
1200,530,0.079812,-16.719376,0.999998,0.000144,-0.002548,0.006699,-0.000412,0.006718,-0.002567,-87.451610,0.006780,
610,1390,3.176158,-6.677470,0.999997,0.000210,-0.005039,0.010073,-0.000235,0.010076,-0.005042,-89.110884,0.010076,
1030,1630,0.549331,-2.980105,0.999997,0.000201,-0.003212,0.008172,0.000640,0.008208,-0.003248,86.792978,0.008267,
1080,860,1.005408,-13.485285,0.999989,0.000388,-0.006629,0.010600,-0.004094,0.011523,-0.007553,-77.289177,0.011707,
990,1430,0.904606,-4.917626,0.999996,0.000224,-0.005497,0.009877,0.001806,0.010086,-0.005706,83.387865,0.010115,
1060,550,0.517554,-16.235257,0.999996,0.000236,-0.003934,0.008292,-0.001565,0.008489,-0.004131,-82.818829,0.008490,
1660,1600,-1.557874,-3.911854,0.999997,0.000195,-0.004887,0.010015,-0.000336,0.010023,-0.004895,-88.708279,0.010024,
1340,780,-0.348430,-14.816947,0.999994,0.000306,-0.005103,0.007131,0.004356,0.008524,-0.006495,72.272573,0.008906,
1100,740,0.412997,-14.897191,0.999994,0.000313,-0.005234,0.008127,-0.003822,0.009143,-0.006251,-75.112926,0.009346,
1240,260,-0.012632,-18.619334,0.999998,0.000165,-0.001628,0.006888,0.000045,0.006888,-0.001629,89.695236,0.007200,
1120,1790,0.184133,-1.616160,0.999997,0.000174,-0.001880,0.007131,0.000042,0.007131,-0.001881,89.730057,0.007392,
1180,1500,0.130566,-3.624724,0.999998,0.000188,-0.002657,0.006648,0.000716,0.006703,-0.002712,85.626291,0.006743,
1310,1720,-0.156325,-2.091570,0.999997,0.000195,-0.002105,0.007150,-0.000124,0.007151,-0.002107,-89.233922,0.007350,
1280,1530,-0.122153,-3.421843,0.999998,0.000178,-0.002594,0.006792,-0.000486,0.006817,-0.002619,-87.046086,0.006878,
1880,1020,-4.212156,-10.143601,0.999998,0.000164,-0.004069,0.008511,-0.000116,0.008513,-0.004070,-89.471868,0.008515,
1410,290,-0.339515,-18.299056,0.999997,0.000211,-0.002392,0.007607,0.000073,0.007607,-0.002393,89.579263,0.007780,
1880,80,-0.822384,-19.336793,0.999996,0.000254,-0.004412,0.012119,-0.002951,0.012630,-0.004923,-80.176435,0.012732,
1520,1020,-2.761870,-10.168109,0.999996,0.000236,-0.003640,0.011828,-0.000146,0.011830,-0.003641,-89.459995,0.012117,
1250,1830,-0.023711,-1.304309,0.999998,0.000161,-0.001386,0.006775,-0.000034,0.006775,-0.001386,-89.759160,0.007159,
880,1080,2.918057,-9.510108,0.999997,0.000217,-0.004045,0.011029,-0.000975,0.011092,-0.004108,-86.315299,0.011215,
720,1590,2.001871,-4.281671,0.999996,0.000252,-0.005046,0.010192,0.000226,0.010196,-0.005050,89.149469,0.010196,
800,570,1.864229,-15.048528,0.999996,0.000211,-0.005466,0.010507,-0.000320,0.010513,-0.005473,-88.852910,0.010516,
1090,840,0.800369,-13.866411,0.999992,0.000338,-0.006695,0.009945,-0.004301,0.010990,-0.007741,-76.332082,0.011292,
1300,190,-0.073256,-19.082894,0.999998,0.000210,-0.001056,0.006653,-0.000161,0.006657,-0.001059,-88.803478,0.007154,
690,1340,2.940731,-6.973676,0.999996,0.000248,-0.005283,0.010324,-0.000623,0.010349,-0.005308,-87.718839,0.010350,
1700,1250,-2.879377,-7.778137,0.999996,0.000226,-0.005527,0.010773,0.001059,0.010842,-0.005596,86.299013,0.010844,
930,1800,0.591621,-1.753947,0.999997,0.000213,-0.002657,0.008256,-0.000480,0.008277,-0.002678,-87.487891,0.008447,
650,1870,1.302436,-1.652781,0.999995,0.000276,-0.004367,0.010300,-0.001315,0.010417,-0.004484,-84.917112,0.010450,
1550,820,-2.019438,-12.583140,0.999993,0.000293,-0.006953,0.012584,-0.000597,0.012602,-0.006971,-88.250127,0.012626,
1610,720,-2.002020,-13.575499,0.999996,0.000243,-0.006421,0.011528,-0.000104,0.011529,-0.006421,-89.666528,0.011554,
740,120,0.572158,-19.343295,0.999996,0.000224,-0.002158,0.008985,0.002495,0.009518,-0.002692,77.937990,0.009813,
1790,990,-3.807467,-10.435069,0.999997,0.000192,-0.004321,0.009391,-0.000245,0.009396,-0.004326,-88.977567,0.009405,
1180,250,0.080749,-18.677082,0.999997,0.000188,-0.001449,0.006912,0.000050,0.006912,-0.001449,89.654903,0.007290,
1730,1270,-2.968888,-7.619114,0.999996,0.000281,-0.005401,0.010598,0.000953,0.010655,-0.005457,86.601958,0.010656,
660,630,2.802709,-13.985821,0.999996,0.000244,-0.005233,0.010225,0.000218,0.010228,-0.005236,89.193406,0.010229,
1360,200,-0.159253,-18.989735,0.999998,0.000172,-0.001324,0.006941,-0.000248,0.006948,-0.001331,-88.283241,0.007376,
840,320,1.053868,-17.665702,0.999997,0.000230,-0.003755,0.009307,0.000201,0.009310,-0.003758,89.119586,0.009367,
1480,640,-0.965262,-15.055347,0.999995,0.000253,-0.005776,0.010124,0.001843,0.010335,-0.005987,83.474120,0.010378,
890,1660,1.029578,-3.072659,0.999996,0.000259,-0.004193,0.009310,0.000324,0.009317,-0.004201,88.625892,0.009332,
1340,760,-0.324617,-14.951768,0.999996,0.000253,-0.004771,0.006982,0.004113,0.008279,-0.006067,72.506060,0.008573,
1670,1360,-2.286071,-6.488666,0.999995,0.000290,-0.005981,0.011078,0.000309,0.011084,-0.005987,88.963146,0.011096,
870,1900,0.449648,-1.001137,0.999996,0.000222,-0.002235,0.008048,-0.001240,0.008195,-0.002382,-83.222711,0.008431,
1470,400,-0.643624,-17.309362,0.999996,0.000224,-0.003486,0.008497,0.000565,0.008523,-0.003512,87.307414,0.008567,
1680,1250,-2.768718,-7.740983,0.999996,0.000232,-0.005686,0.011027,0.001081,0.011097,-0.005756,86.316302,0.011099,
1060,450,0.468952,-17.046600,0.999996,0.000235,-0.003349,0.008015,-0.000909,0.008087,-0.003421,-85.456716,0.008119,
1010,60,0.061941,-19.901793,0.999998,0.000185,-0.000266,0.006434,0.000737,0.006514,-0.000346,83.798121,0.007330,
1100,1790,0.221805,-1.632778,0.999998,0.000177,-0.001774,0.007205,-0.000046,0.007205,-0.001774,-89.706411,0.007508,
1240,240,-0.013761,-18.757030,0.999998,0.000173,-0.001501,0.006802,0.000018,0.006802,-0.001501,89.879033,0.007147,
750,1550,1.957779,-4.594715,0.999995,0.000244,-0.005169,0.010302,0.000258,0.010307,-0.005173,89.046526,0.010307,
670,380,2.004693,-16.581183,0.999997,0.000177,-0.004932,0.010087,-0.000055,0.010087,-0.004932,-89.790503,0.010088,
560,710,3.600101,-12.915850,0.999469,0.000000,-0.007417,0.008054,0.001478,0.008194,-0.007557,84.590559,0.009116,
1090,820,0.677212,-14.065685,0.999991,0.000367,-0.006711,0.009780,-0.004293,0.010830,-0.007761,-76.249268,0.011164,
1400,980,-1.977317,-11.407734,0.999970,0.000000,-0.008707,0.024172,0.006098,0.025266,-0.009802,79.823866,0.025477,
1660,1950,-0.374935,-0.641121,0.999997,0.000239,-0.001830,0.008084,0.001897,0.008435,-0.002181,79.530867,0.008756,
1250,1850,-0.026080,-1.169212,0.999998,0.000164,-0.001238,0.006705,-0.000026,0.006705,-0.001238,-89.815485,0.007136,
1790,970,-3.790615,-10.621943,0.999997,0.000208,-0.004381,0.009318,-0.000311,0.009325,-0.004388,-88.702068,0.009331,
1780,1670,-1.956383,-3.587143,0.999997,0.000182,-0.004899,0.010117,-0.000076,0.010118,-0.004899,-89.708239,0.010119,
690,520,2.310177,-15.215733,0.999996,0.000247,-0.005180,0.010304,-0.000120,0.010305,-0.005181,-89.554894,0.010305,
1870,1020,-4.171554,-10.145001,0.999997,0.000196,-0.004108,0.008632,-0.000123,0.008633,-0.004109,-89.446613,0.008637,
1520,1000,-2.739743,-10.408742,0.999996,0.000253,-0.003797,0.012295,-0.000579,0.012316,-0.003818,-87.942213,0.012608,
600,1150,3.988033,-9.007206,0.999998,0.000174,-0.004321,0.008845,-0.000368,0.008855,-0.004332,-88.399007,0.008856,
630,1340,3.248576,-7.125577,0.999997,0.000214,-0.005027,0.010059,-0.000430,0.010071,-0.005039,-88.368927,0.010071,
1180,1530,0.130045,-3.424444,0.999998,0.000165,-0.002619,0.006842,0.000534,0.006872,-0.002649,86.781034,0.006932,
1410,730,-0.674637,-14.588781,0.999994,0.000283,-0.006270,0.010032,0.003227,0.010648,-0.006885,79.199166,0.010799,
970,1400,1.067428,-5.328642,0.999996,0.000235,-0.006065,0.010562,0.001705,0.010735,-0.006238,84.204415,0.010782,
1560,1240,-2.061373,-7.549648,0.999995,0.000261,-0.006851,0.012446,0.000637,0.012467,-0.006872,88.111768,0.012489,
920,1080,2.754285,-9.469915,0.999996,0.000256,-0.004079,0.011697,-0.001036,0.011764,-0.004147,-86.258601,0.011934,
1640,1880,-0.625394,-1.211956,0.999996,0.000223,-0.002394,0.008561,0.001413,0.008741,-0.002574,82.768392,0.008983,
1840,1560,-2.580591,-4.902962,0.999996,0.000251,-0.005049,0.010116,-0.000082,0.010116,-0.005049,-89.689108,0.010116,
620,70,0.558657,-19.603923,0.999994,0.000285,-0.004496,0.010793,0.002680,0.011250,-0.004953,80.339159,0.011276,
1040,130,0.147585,-19.444137,0.999997,0.000210,-0.001073,0.006788,0.000525,0.006823,-0.001107,86.196828,0.007324,
1840,330,-2.072446,-16.927737,0.999996,0.000271,-0.004880,0.009952,0.000090,0.009953,-0.004880,89.653413,0.009953,
1100,720,0.402825,-15.056340,0.999994,0.000306,-0.004940,0.007995,-0.003559,0.008910,-0.005854,-75.588912,0.009055,
870,1880,0.514831,-1.161008,0.999997,0.000225,-0.002480,0.008096,-0.001061,0.008202,-0.002586,-84.325404,0.008386,
1210,1660,0.049267,-2.495509,0.999998,0.000171,-0.002284,0.007101,0.000219,0.007106,-0.002289,88.665069,0.007255,
1280,1470,-0.119620,-3.815798,0.999998,0.000191,-0.002635,0.006378,-0.000819,0.006452,-0.002708,-84.846692,0.006479,
1610,1780,-0.878538,-2.053068,0.999997,0.000204,-0.003476,0.009032,0.000533,0.009055,-0.003499,87.562317,0.009132,
1590,740,-1.944864,-13.412253,0.999996,0.000245,-0.006645,0.011790,-0.000108,0.011791,-0.006646,-89.664097,0.011823,
1670,860,-2.932582,-11.829709,0.999995,0.000305,-0.005332,0.010914,-0.001281,0.011015,-0.005432,-85.518012,0.011015,
1060,430,0.455504,-17.209366,0.999997,0.000222,-0.003278,0.008010,-0.000816,0.008069,-0.003337,-85.887841,0.008109,
790,1870,0.761843,-1.341627,0.999996,0.000228,-0.003380,0.008993,-0.001304,0.009129,-0.003516,-84.050699,0.009209,
610,1370,3.243382,-6.880515,0.999996,0.000251,-0.005008,0.010055,-0.000259,0.010060,-0.005013,-89.013592,0.010060,
750,1530,2.011123,-4.804290,0.999995,0.000274,-0.005247,0.010354,0.000216,0.010357,-0.005250,89.205919,0.010357,
650,380,2.102911,-16.515713,0.999997,0.000203,-0.004966,0.010101,-0.000073,0.010101,-0.004966,-89.723164,0.010102,
880,1060,2.961044,-9.728962,0.999997,0.000212,-0.003830,0.010808,-0.000569,0.010830,-0.003852,-87.777066,0.010979,
1400,970,-1.939766,-11.635422,0.999980,0.000000,-0.007627,0.022267,0.006822,0.023750,-0.009110,77.733916,0.023964,
740,100,0.455315,-19.521200,0.999996,0.000225,-0.001772,0.008446,0.002435,0.008997,-0.002323,77.257526,0.009341,
1620,2010,-0.097518,-0.180519,0.999997,0.000192,-0.000230,0.006969,0.001613,0.007314,-0.000575,77.929801,0.008134,
1170,520,0.157194,-16.760132,0.999997,0.000225,-0.002699,0.006961,-0.000705,0.007012,-0.002750,-85.847262,0.007066,
1790,950,-3.764001,-10.808665,0.999997,0.000203,-0.004488,0.009477,-0.000646,0.009507,-0.004518,-87.355797,0.009511,
1070,840,0.938567,-13.574271,0.999995,0.000250,-0.007279,0.011251,-0.003387,0.011851,-0.007879,-79.960282,0.012063,
1200,1790,0.051272,-1.580719,0.999997,0.000202,-0.001603,0.006926,0.000047,0.006926,-0.001603,89.685551,0.007251,
1480,620,-0.936484,-15.257779,0.999996,0.000232,-0.005516,0.009955,0.001754,0.010151,-0.005713,83.612236,0.010178,
610,1340,3.347474,-7.182246,0.999996,0.000232,-0.004943,0.009940,-0.000350,0.009948,-0.004951,-88.655117,0.009948,
590,1150,4.031013,-9.023740,0.999998,0.000170,-0.004212,0.008743,-0.000311,0.008750,-0.004220,-88.627749,0.008752,
640,1210,3.644863,-8.383792,0.999992,0.000316,-0.004745,0.009598,-0.000751,0.009637,-0.004785,-87.012729,0.009637,
560,700,3.569127,-12.987438,0.999151,0.000000,-0.006965,0.007281,0.001499,0.007437,-0.007121,84.058028,0.008411,
580,320,2.246511,-16.867146,0.999996,0.000228,-0.004752,0.009706,-0.000001,0.009706,-0.004752,-89.996593,0.009707,
1770,1610,-2.080880,-4.163904,0.999996,0.000237,-0.005023,0.010162,-0.000166,0.010164,-0.005024,-89.372090,0.010164,
1250,1870,-0.020185,-1.034461,0.999998,0.000165,-0.001111,0.006544,0.000003,0.006544,-0.001111,89.979715,0.007003,
1760,1670,-1.858680,-3.521929,0.999996,0.000255,-0.004911,0.010133,-0.000087,0.010133,-0.004911,-89.666842,0.010135,
1060,1590,0.479171,-3.232002,0.999997,0.000223,-0.003431,0.008070,0.000995,0.008155,-0.003517,85.093111,0.008181,
1360,180,-0.139258,-19.128724,0.999997,0.000199,-0.001135,0.006785,-0.000264,0.006794,-0.001144,-88.095039,0.007275,
730,1020,3.585256,-10.152870,0.999996,0.000251,-0.004309,0.009791,0.000162,0.009793,-0.004311,89.339931,0.009816,
650,1850,1.410250,-1.860594,0.999994,0.000281,-0.004528,0.010255,-0.001036,0.010327,-0.004600,-86.009814,0.010348,
660,1090,3.843807,-9.498960,0.999998,0.000178,-0.004413,0.009234,-0.000330,0.009242,-0.004421,-88.614683,0.009245,
1080,880,1.169197,-13.283549,0.999989,0.000373,-0.005635,0.010198,-0.004492,0.011383,-0.006821,-75.214854,0.011458,
1520,980,-2.680055,-10.658163,0.999996,0.000248,-0.004117,0.012365,-0.000903,0.012414,-0.004167,-86.872095,0.012636,
950,1400,1.188488,-5.430319,0.999995,0.000269,-0.006144,0.010770,0.001425,0.010889,-0.006263,85.218381,0.010930,
1580,220,-0.618642,-18.642726,0.999996,0.000225,-0.002923,0.008392,-0.000743,0.008441,-0.002972,-86.259360,0.008563,
1410,710,-0.647520,-14.784810,0.999994,0.000268,-0.005901,0.009695,0.003041,0.010267,-0.006473,79.348975,0.010382,
1220,1530,0.028436,-3.392088,0.999998,0.000196,-0.002538,0.006664,0.000266,0.006671,-0.002546,88.347605,0.006733,
1530,1980,-0.131819,-0.372208,0.999997,0.000204,-0.000618,0.006892,0.001127,0.007058,-0.000783,81.646980,0.007737,
1020,130,0.169252,-19.435612,0.999997,0.000189,-0.001006,0.006879,0.000635,0.006930,-0.001057,85.425525,0.007467,
1430,320,-0.428381,-18.036300,0.999998,0.000250,-0.002740,0.007861,0.000177,0.007864,-0.002743,89.045968,0.007983,
850,1900,0.490620,-1.016881,0.999996,0.000240,-0.002079,0.008230,-0.001437,0.008427,-0.002275,-82.211351,0.008719,
1560,1260,-1.971387,-7.304266,0.999996,0.000246,-0.006941,0.012349,0.000399,0.012358,-0.006949,88.815761,0.012390,
1890,170,-1.579302,-18.309717,0.999996,0.000225,-0.004907,0.010107,-0.000726,0.010142,-0.004943,-87.238473,0.010143,
1650,860,-2.822735,-11.859608,0.999994,0.000290,-0.005485,0.011139,-0.001330,0.011245,-0.005590,-85.454370,0.011245,
700,1450,2.512084,-5.796264,0.999995,0.000254,-0.005363,0.010401,-0.000081,0.010401,-0.005363,-89.707206,0.010403,
990,1410,0.932757,-5.117327,0.999995,0.000240,-0.005766,0.010076,0.001892,0.010299,-0.005989,83.282537,0.010345,
1760,270,-1.465722,-17.800056,0.999994,0.000284,-0.004772,0.010011,-0.000457,0.010025,-0.004786,-88.231884,0.010028,
610,1350,3.312261,-7.082325,0.999996,0.000238,-0.004959,0.009995,-0.000316,0.010002,-0.004966,-88.789517,0.010002,
1400,30,-0.010795,-20.094781,0.999998,0.000000,-0.000156,0.006103,-0.000493,0.006142,-0.000195,-85.519982,0.006982,
1500,1630,-0.791351,-3.151618,0.999998,0.000198,-0.003787,0.008814,-0.000624,0.008844,-0.003818,-87.170538,0.008872,
790,1850,0.849190,-1.531082,0.999997,0.000211,-0.003588,0.009160,-0.001135,0.009260,-0.003688,-84.953040,0.009324,
750,1510,2.064276,-5.010783,0.999995,0.000287,-0.005336,0.010339,0.000183,0.010341,-0.005338,89.331457,0.010343,
1460,1770,-0.454676,-1.890552,0.999998,0.000188,-0.002349,0.007926,0.000186,0.007929,-0.002353,88.965913,0.008145,
560,690,3.565294,-13.074687,0.999092,0.000000,-0.005813,0.008888,0.000841,0.008936,-0.005861,86.735717,0.009079,
1610,1760,-0.940106,-2.238707,0.999998,0.000185,-0.003630,0.009084,0.000361,0.009095,-0.003640,88.375811,0.009155,
1360,610,-0.369662,-15.922780,0.999996,0.000208,-0.003747,0.007550,0.002020,0.007901,-0.004098,80.159940,0.007903,
1680,610,-2.069299,-14.569325,0.999997,0.000172,-0.005657,0.010713,0.000110,0.010714,-0.005658,89.616095,0.010720,
1640,1860,-0.699620,-1.381176,0.999997,0.000216,-0.002630,0.008816,0.001303,0.008963,-0.002777,83.588378,0.009176,
1150,580,0.214871,-16.299124,0.999998,0.000202,-0.002919,0.006838,-0.001332,0.007017,-0.003097,-82.363416,0.007033,
1030,1610,0.565147,-3.141602,0.999997,0.000204,-0.003345,0.008266,0.000761,0.008316,-0.003395,86.263950,0.008363,
1480,600,-0.913008,-15.453365,0.999996,0.000225,-0.005241,0.009808,0.001650,0.009986,-0.005420,83.815675,0.009998,
580,1150,4.072718,-9.038384,0.999998,0.000170,-0.004016,0.008672,-0.000237,0.008676,-0.004021,-88.929116,0.008684,
930,1340,1.471570,-6.208162,0.999995,0.000295,-0.006882,0.011670,0.000868,0.011710,-0.006923,87.328263,0.011775,
1620,2000,-0.128220,-0.249245,0.999997,0.000209,-0.000412,0.007108,0.001678,0.007465,-0.000769,77.976699,0.008212,
1180,1700,0.108266,-2.225916,0.999998,0.000170,-0.002084,0.007112,0.000113,0.007113,-0.002085,89.293608,0.007313,
600,70,0.648686,-19.526297,0.999996,0.000209,-0.004351,0.011481,0.002973,0.012021,-0.004891,79.708402,0.012090,
580,330,2.280797,-16.767555,0.999996,0.000239,-0.004739,0.009763,-0.000048,0.009763,-0.004739,-89.809246,0.009765,
1530,880,-2.214407,-11.890910,0.999993,0.000295,-0.006407,0.012803,-0.001175,0.012874,-0.006478,-86.513169,0.012874,
1790,930,-3.718328,-11.000967,0.999997,0.000206,-0.004553,0.009530,-0.000731,0.009568,-0.004591,-87.037616,0.009571,
1540,1690,-0.841362,-2.718437,0.999997,0.000198,-0.003401,0.008822,-0.000102,0.008823,-0.003402,-89.522061,0.008900,
880,1040,2.981817,-9.943666,0.999997,0.000230,-0.003674,0.010811,-0.000299,0.010817,-0.003680,-88.817337,0.011000,
1770,1570,-2.193464,-4.573591,0.999998,0.000178,-0.005140,0.010223,-0.000192,0.010225,-0.005143,-89.285391,0.010225,
1570,1180,-2.435669,-8.325741,0.999994,0.000298,-0.006041,0.012114,0.001351,0.012214,-0.006142,85.766091,0.012214,
1100,700,0.393750,-15.213966,0.999994,0.000287,-0.004680,0.007864,-0.003287,0.008673,-0.005489,-76.171717,0.008775,
920,1060,2.811638,-9.709937,0.999996,0.000238,-0.003791,0.011651,-0.000701,0.011682,-0.003823,-87.407030,0.011912,
740,80,0.346116,-19.680347,0.999996,0.000234,-0.001426,0.008024,0.002487,0.008639,-0.002040,76.122166,0.009031,
1840,1540,-2.639866,-5.104474,0.999996,0.000265,-0.005051,0.010178,-0.000067,0.010178,-0.005051,-89.747778,0.010178,
1410,690,-0.629164,-14.972951,0.999994,0.000267,-0.005581,0.009366,0.002922,0.009917,-0.006132,79.323590,0.010009,
1200,1530,0.080245,-3.408435,0.999998,0.000152,-0.002537,0.006708,0.000404,0.006725,-0.002554,87.501707,0.006790,
1260,360,-0.062226,-17.910607,0.999998,0.000163,-0.002151,0.007036,0.000184,0.007040,-0.002155,88.854905,0.007215,
1390,2020,-0.015994,-0.095909,0.999998,0.000000,-0.000049,0.006128,0.000439,0.006159,-0.000080,85.950903,0.007066,
1090,1400,0.426430,-4.647295,0.999997,0.000216,-0.004409,0.008006,0.002697,0.008567,-0.004970,78.256375,0.008603,
1520,960,-2.605912,-10.901912,0.999994,0.000298,-0.004532,0.012355,-0.001179,0.012437,-0.004614,-86.024975,0.012574,
640,1090,3.928627,-9.510329,0.999997,0.000202,-0.004318,0.009042,-0.000233,0.009046,-0.004322,-89.001580,0.009049,
1130,1920,0.074369,-0.721472,0.999998,0.000142,-0.000902,0.006475,-0.000209,0.006481,-0.000907,-88.382122,0.007019,
790,1830,0.926248,-1.710542,0.999997,0.000219,-0.003801,0.009267,-0.000923,0.009332,-0.003866,-85.980376,0.009378,
1850,1440,-2.995495,-6.159062,0.999995,0.000261,-0.005075,0.010182,0.000112,0.010183,-0.005075,89.580295,0.010183,
1760,250,-1.380761,-18.000557,0.999996,0.000269,-0.004721,0.009984,-0.000601,0.010009,-0.004746,-87.662090,0.010013,
610,1330,3.383016,-7.280507,0.999997,0.000223,-0.004937,0.009878,-0.000384,0.009888,-0.004947,-88.515344,0.009888,
990,1390,0.966181,-5.327675,0.999994,0.000271,-0.006043,0.010456,0.001981,0.010691,-0.006277,83.248009,0.010745,
1150,600,0.213910,-16.163870,0.999998,0.000217,-0.002940,0.006680,-0.001442,0.006892,-0.003151,-81.653385,0.006900,
980,810,1.472389,-13.065971,0.999991,0.000355,-0.007800,0.012967,-0.000878,0.013004,-0.007837,-87.583884,0.013095,
750,1490,2.121444,-5.218562,0.999995,0.000277,-0.005397,0.010424,0.000139,0.010425,-0.005398,89.496544,0.010427,
560,790,3.865434,-12.089833,0.999966,0.000000,-0.005481,0.008889,-0.000318,0.008896,-0.005488,-88.732009,0.008977,
1030,1590,0.578997,-3.306697,0.999997,0.000222,-0.003526,0.008379,0.000947,0.008454,-0.003601,85.478970,0.008485,
1800,470,-2.304106,-15.643862,0.999996,0.000251,-0.005074,0.010196,0.000162,0.010198,-0.005076,89.391105,0.010198,
810,2010,0.105561,-0.181334,0.999998,0.000164,-0.000618,0.007119,-0.001873,0.007549,-0.001047,-77.084550,0.008179,
1350,1660,-0.284456,-2.585770,0.999997,0.000224,-0.002608,0.007437,-0.000482,0.007460,-0.002631,-87.257450,0.007567,
1190,1410,0.094812,-4.162853,0.999998,0.000194,-0.002492,0.005658,0.001097,0.005803,-0.002637,82.468199,0.005811,
570,1150,4.113555,-9.056326,0.999987,0.000416,-0.003913,0.008594,-0.000202,0.008597,-0.003916,-89.076803,0.008608,
1660,610,-1.957736,-14.633596,0.999997,0.000207,-0.005704,0.010743,0.000190,0.010746,-0.005706,89.339776,0.010752,
1210,740,0.041014,-15.598696,0.999998,0.000163,-0.002059,0.003477,-0.001084,0.003682,-0.002263,-79.309801,0.003714,
930,1320,1.535145,-6.446721,0.999995,0.000340,-0.007069,0.011932,0.000732,0.011961,-0.007097,87.797117,0.012030,
1480,1770,-0.501761,-1.916137,0.999998,0.000175,-0.002556,0.008045,0.000186,0.008048,-0.002560,88.994731,0.008224,
1520,1690,-0.773396,-2.673383,0.999997,0.000200,-0.003504,0.008659,-0.000263,0.008665,-0.003510,-88.764214,0.008717,
1770,1550,-2.252545,-4.781656,0.999997,0.000218,-0.005183,0.010241,-0.000154,0.010242,-0.005185,-89.429863,0.010243,
1590,1760,-0.864102,-2.194326,0.999998,0.000168,-0.003716,0.008904,0.000228,0.008909,-0.003720,88.964283,0.008949,
1480,580,-0.891711,-15.647122,0.999996,0.000251,-0.005038,0.009608,0.001560,0.009772,-0.005202,83.987645,0.009779,
1790,910,-3.673794,-11.194255,0.999996,0.000218,-0.004579,0.009494,-0.000677,0.009527,-0.004612,-87.251786,0.009528,
570,260,2.057287,-17.412607,0.999992,0.000326,-0.004683,0.009646,0.000027,0.009646,-0.004683,89.890775,0.009647,
1550,1180,-2.313641,-8.275778,0.999994,0.000265,-0.006221,0.012473,0.001263,0.012558,-0.006306,86.152006,0.012558,
1530,860,-2.097207,-12.149837,0.999995,0.000285,-0.006757,0.012858,-0.000922,0.012901,-0.006800,-87.315303,0.012908,
1260,1530,-0.072242,-3.405484,0.999998,0.000147,-0.002527,0.006671,-0.000409,0.006689,-0.002545,-87.458860,0.006753,
1070,1400,0.517756,-4.764334,0.999995,0.000250,-0.004727,0.008553,0.002635,0.009057,-0.005230,79.177740,0.009093,
1410,670,-0.607887,-15.161714,0.999995,0.000280,-0.005310,0.009133,0.002744,0.009636,-0.005814,79.596399,0.009705,
610,1530,2.733018,-5.248817,0.999996,0.000231,-0.005057,0.010158,0.000059,0.010158,-0.005058,89.775966,0.010158,
1510,1880,-0.348349,-1.086651,0.999997,0.000229,-0.001899,0.007514,0.000715,0.007568,-0.001953,85.680631,0.007858,
790,1810,1.006518,-1.901923,0.999997,0.000199,-0.003948,0.009409,-0.000775,0.009454,-0.003993,-86.689697,0.009492,
730,50,0.186039,-19.917209,0.999997,0.000217,-0.000971,0.007931,0.002836,0.008757,-0.001798,73.750420,0.009250,
1160,1470,0.184149,-3.869122,0.999997,0.000202,-0.002898,0.006638,0.001296,0.006811,-0.003071,82.398514,0.006822,
1520,940,-2.502898,-11.150952,0.999992,0.000340,-0.005080,0.012553,-0.001323,0.012651,-0.005179,-85.733047,0.012721,
1000,1050,2.512351,-9.734835,0.999988,0.000402,-0.005047,0.015787,0.000089,0.015787,-0.005047,89.755562,0.016126,
880,1020,2.986457,-10.161697,0.999996,0.000247,-0.003677,0.010845,0.000179,0.010847,-0.003679,89.293904,0.011032,
1390,1110,-1.767016,-7.825853,0.999983,0.000000,-0.005485,0.017205,-0.008184,0.019849,-0.008129,-72.096149,0.019957,
920,1040,2.839506,-9.941706,0.999996,0.000224,-0.003589,0.011360,-0.000295,0.011366,-0.003595,-88.869803,0.011619,
1840,1520,-2.698190,-5.310722,0.999995,0.000273,-0.005080,0.010168,-0.000068,0.010168,-0.005080,-89.743690,0.010168,
1260,340,-0.059193,-18.050370,0.999998,0.000170,-0.002047,0.007046,0.000151,0.007048,-0.002049,89.051081,0.007251,
1100,680,0.386795,-15.372540,0.999995,0.000279,-0.004429,0.007751,-0.003008,0.008453,-0.005132,-76.857814,0.008517,
1150,620,0.209895,-16.031988,0.999997,0.000229,-0.002964,0.006524,-0.001631,0.006796,-0.003237,-80.515824,0.006799,
740,500,1.994069,-15.585184,0.999997,0.000201,-0.005173,0.010260,-0.000246,0.010264,-0.005177,-89.087394,0.010264,
790,2000,0.164113,-0.260657,0.999997,0.000196,-0.001044,0.007368,-0.002002,0.007820,-0.001497,-77.272254,0.008302,
560,910,4.164535,-11.036490,0.999988,0.000000,-0.004045,0.008471,0.000083,0.008471,-0.004046,89.617953,0.008474,
1860,70,-0.636023,-19.537909,0.999995,0.000275,-0.004352,0.011412,-0.002941,0.011943,-0.004883,-79.768439,0.012009,
1580,1310,-1.896799,-6.771297,0.999996,0.000237,-0.006734,0.011869,0.000045,0.011870,-0.006734,89.860545,0.011905,
1360,810,-0.550574,-14.335702,0.999988,0.000418,-0.006158,0.008715,0.004497,0.009969,-0.007413,74.418093,0.010356,
1610,700,-1.932479,-13.805168,0.999996,0.000275,-0.006352,0.011397,0.000046,0.011397,-0.006352,89.851005,0.011422,
750,1470,2.179666,-5.429486,0.999996,0.000236,-0.005448,0.010546,0.000079,0.010546,-0.005448,89.717737,0.010548,
1230,740,0.002797,-15.624339,0.999997,0.000195,-0.001967,0.003289,-0.000078,0.003291,-0.001969,-89.147210,0.003312,
1640,1590,-1.485381,-3.950261,0.999996,0.000218,-0.004890,0.009961,-0.000411,0.009972,-0.004901,-88.414651,0.009973,
1010,1020,2.480402,-10.195554,0.999992,0.000356,-0.005662,0.016448,-0.000150,0.016449,-0.005663,-89.611974,0.016713,
1320,1810,-0.130034,-1.458560,0.999998,0.000175,-0.001610,0.006978,0.000014,0.006978,-0.001610,89.904033,0.007307,
1770,1530,-2.307070,-4.984683,0.999996,0.000234,-0.005213,0.010281,-0.000107,0.010281,-0.005213,-89.605602,0.010282,
1080,1600,0.403716,-3.097177,0.999996,0.000231,-0.003265,0.007840,0.000945,0.007920,-0.003345,85.169057,0.007952,
1070,1720,0.345908,-2.182235,0.999997,0.000193,-0.002421,0.007621,0.000160,0.007624,-0.002423,89.089507,0.007790,
1580,200,-0.560593,-18.806761,0.999996,0.000240,-0.002692,0.008307,-0.000896,0.008379,-0.002764,-85.374810,0.008539,
1510,1980,-0.118982,-0.367996,0.999998,0.000184,-0.000743,0.006793,0.000986,0.006920,-0.000870,82.668846,0.007538,
570,250,2.015090,-17.510473,0.999995,0.000233,-0.004809,0.009695,0.000056,0.009695,-0.004810,89.779873,0.009695,
1530,840,-1.983750,-12.408292,0.999995,0.000265,-0.007027,0.012882,-0.000624,0.012902,-0.007046,-88.207130,0.012920,
1790,890,-3.628829,-11.383897,0.999995,0.000257,-0.004684,0.009690,-0.000809,0.009735,-0.004730,-86.787558,0.009736,
1530,1180,-2.183805,-8.202251,0.999995,0.000278,-0.006516,0.012846,0.001112,0.012910,-0.006579,86.724211,0.012911,
1240,1530,-0.021499,-3.389372,0.999998,0.000172,-0.002515,0.006643,-0.000200,0.006648,-0.002519,-88.748089,0.006712,
990,1370,0.996154,-5.541015,0.999995,0.000287,-0.006316,0.010764,0.002018,0.010999,-0.006552,83.353429,0.011066,
1380,1350,-0.478199,-5.105815,0.999993,0.000300,-0.005170,0.008563,-0.003272,0.009303,-0.005910,-77.261205,0.009416,
1410,650,-0.594403,-15.344428,0.999994,0.000273,-0.005005,0.008950,0.002514,0.009389,-0.005444,80.093338,0.009429,
1140,1470,0.243146,-3.920506,0.999997,0.000215,-0.003017,0.006911,0.001370,0.007096,-0.003202,82.285418,0.007107,
790,1790,1.075627,-2.087083,0.999998,0.000176,-0.004101,0.009450,-0.000580,0.009475,-0.004126,-87.553011,0.009501,
1640,1840,-0.777441,-1.562709,0.999997,0.000224,-0.002925,0.008888,0.001143,0.008997,-0.003035,84.525977,0.009154,
840,1790,0.895014,-1.986747,0.999997,0.000171,-0.003307,0.009000,-0.000664,0.009036,-0.003342,-86.920255,0.009137,
1480,560,-0.869414,-15.839786,0.999996,0.000245,-0.004880,0.009468,0.001464,0.009616,-0.005028,84.231858,0.009619,
1390,1100,-1.819165,-7.996253,0.999977,0.000000,-0.006199,0.019022,-0.008234,0.021472,-0.008649,-73.429029,0.021607,
1260,320,-0.055822,-18.193507,0.999998,0.000192,-0.001973,0.007063,0.000100,0.007064,-0.001974,89.367350,0.007290,
1610,1880,-0.557708,-1.180429,0.999997,0.000223,-0.002387,0.008266,0.001224,0.008405,-0.002526,83.530161,0.008625,
730,40,0.125059,-19.994921,0.999997,0.000190,-0.000675,0.007843,0.002907,0.008740,-0.001573,72.841986,0.009318,
1260,510,-0.072264,-16.855402,0.999998,0.000168,-0.002522,0.006747,0.000371,0.006762,-0.002536,87.713935,0.006832,
1450,840,-1.377664,-12.931843,0.999993,0.000313,-0.007933,0.013325,0.001558,0.013439,-0.008047,85.830724,0.013526,
600,680,3.278549,-13.303269,0.999996,0.000244,-0.004979,0.010054,0.000215,0.010057,-0.004982,89.180618,0.010057,
1520,920,-2.393787,-11.407342,0.999993,0.000316,-0.005564,0.012779,-0.001333,0.012876,-0.005661,-85.864367,0.012907,
800,2000,0.153609,-0.256470,0.999997,0.000220,-0.000992,0.007305,-0.001945,0.007738,-0.001426,-77.441233,0.008237,
1380,910,-1.467412,-13.067781,0.999986,0.000442,-0.003891,0.010876,0.006562,0.013370,-0.006385,69.185758,0.013374,
600,1350,3.361448,-7.111012,0.999997,0.000231,-0.004949,0.009946,-0.000278,0.009951,-0.004955,-88.931580,0.009951,
1030,1790,0.362229,-1.700383,0.999997,0.000230,-0.002276,0.007578,-0.000106,0.007579,-0.002277,-89.385944,0.007778,
1840,70,-0.546155,-19.613224,0.999991,0.000336,-0.004448,0.010713,-0.002694,0.011178,-0.004913,-80.217404,0.011205,
750,1450,2.239325,-5.645196,0.999996,0.000226,-0.005504,0.010572,0.000001,0.010572,-0.005504,89.996572,0.010575,
1170,110,0.032544,-19.607474,0.999998,0.000191,-0.000484,0.006338,0.000177,0.006342,-0.000489,88.513975,0.007058,
950,360,0.739542,-17.546684,0.999997,0.000236,-0.003539,0.008610,-0.000292,0.008617,-0.003546,-88.622850,0.008662,
1260,130,-0.021446,-19.480180,0.999998,0.000192,-0.000724,0.006376,-0.000048,0.006376,-0.000724,-89.610915,0.006982,
1500,1690,-0.700332,-2.624043,0.999997,0.000199,-0.003610,0.008589,-0.000407,0.008603,-0.003624,-88.090620,0.008638,
1680,630,-2.130763,-14.351757,0.999996,0.000227,-0.005736,0.010834,0.000006,0.010834,-0.005736,89.978307,0.010840,
1330,1660,-0.230677,-2.554404,0.999997,0.000193,-0.002611,0.007340,-0.000556,0.007371,-0.002642,-86.811575,0.007469,
1560,1280,-1.880789,-7.056345,0.999994,0.000260,-0.006976,0.012206,0.000137,0.012207,-0.006977,89.590833,0.012249,
1830,1720,-2.041113,-3.247563,0.999997,0.000192,-0.004870,0.010006,-0.000042,0.010007,-0.004870,-89.836533,0.010008,
1250,740,-0.036287,-15.604853,0.999998,0.000172,-0.002045,0.003432,0.000945,0.003591,-0.002203,80.481165,0.003621,
560,420,2.715625,-15.801370,0.999874,0.000000,-0.007984,0.010932,-0.000642,0.010954,-0.008006,-88.057521,0.011337,
1770,2010,-0.201368,-0.216301,0.999996,0.000245,-0.001019,0.008326,0.003286,0.009366,-0.002059,72.440353,0.009844,
570,240,1.972833,-17.607004,0.999997,0.000194,-0.004929,0.009754,0.000094,0.009754,-0.004930,89.632623,0.009755,
960,790,1.532171,-13.193769,0.999993,0.000313,-0.007561,0.012693,-0.000664,0.012715,-0.007582,-88.123730,0.012794,
1890,550,-2.995282,-14.541467,0.999996,0.000222,-0.005077,0.010240,-0.000011,0.010240,-0.005077,-89.960532,0.010240,
1790,870,-3.567282,-11.582160,0.999995,0.000275,-0.004793,0.009850,-0.000937,0.009910,-0.004853,-86.351907,0.009911,
1530,820,-1.879113,-12.665826,0.999994,0.000269,-0.007207,0.012816,-0.000314,0.012821,-0.007212,-89.102118,0.012854,
840,190,0.637742,-18.838983,0.999996,0.000218,-0.002463,0.008566,0.001239,0.008703,-0.002601,83.669512,0.008935,
790,1770,1.146398,-2.283916,0.999997,0.000195,-0.004247,0.009572,-0.000452,0.009587,-0.004262,-88.129380,0.009607,
1080,1580,0.415187,-3.260187,0.999996,0.000234,-0.003381,0.007918,0.001108,0.008025,-0.003488,84.450539,0.008048,
1390,1090,-1.857776,-8.192020,0.999974,0.000000,-0.006737,0.020694,-0.008277,0.022998,-0.009041,-74.444244,0.023172,
1480,540,-0.842035,-16.028320,0.999996,0.000250,-0.004702,0.009321,0.001387,0.009457,-0.004838,84.404910,0.009458,
820,1790,0.960646,-2.023167,0.999997,0.000184,-0.003480,0.009199,-0.000685,0.009236,-0.003517,-86.915804,0.009323,
1770,1510,-2.366294,-5.193094,0.999995,0.000234,-0.005235,0.010307,-0.000069,0.010308,-0.005236,-89.746561,0.010308,
1580,180,-0.495821,-18.975458,0.999997,0.000224,-0.002493,0.008043,-0.000980,0.008133,-0.002583,-84.732331,0.008311,
840,300,1.000448,-17.848630,0.999997,0.000212,-0.003612,0.009172,0.000385,0.009183,-0.003623,88.275524,0.009251,
1660,1580,-1.608494,-4.115806,0.999995,0.000244,-0.005042,0.010084,-0.000398,0.010095,-0.005052,-88.495185,0.010095,
880,1000,2.965176,-10.377776,0.999996,0.000245,-0.003779,0.010801,0.000488,0.010817,-0.003795,88.086810,0.010977,
1240,220,-0.010633,-18.892443,0.999998,0.000188,-0.001390,0.006697,0.000029,0.006697,-0.001390,89.792266,0.007068,
1830,1440,-2.894525,-6.099030,0.999997,0.000190,-0.005131,0.010201,0.000140,0.010202,-0.005132,89.477136,0.010202,
1100,660,0.380682,-15.533606,0.999995,0.000272,-0.004197,0.007724,-0.002692,0.008303,-0.004777,-77.848688,0.008335,
740,520,2.049146,-15.378802,0.999996,0.000214,-0.005207,0.010329,-0.000215,0.010332,-0.005210,-89.207347,0.010332,
920,1020,2.843800,-10.164468,0.999996,0.000225,-0.003556,0.011314,0.000211,0.011317,-0.003559,89.186963,0.011574,
1830,870,-3.757375,-11.522428,0.999996,0.000259,-0.004629,0.009517,-0.000700,0.009551,-0.004663,-87.174329,0.009552,
1260,300,-0.053636,-18.333988,0.999997,0.000199,-0.001854,0.006996,0.000105,0.006998,-0.001855,89.320713,0.007251,
1410,630,-0.585312,-15.515982,0.999996,0.000245,-0.004741,0.008718,0.002292,0.009097,-0.005121,80.595521,0.009121,
1590,1180,-2.551491,-8.371172,0.999994,0.000305,-0.005783,0.011793,0.001391,0.011903,-0.005893,85.502355,0.011903,
1320,1530,-0.233728,-3.491858,0.999997,0.000198,-0.002913,0.007143,-0.001041,0.007249,-0.003019,-84.151623,0.007283,
1150,1200,0.624163,-5.419117,0.999994,0.000287,-0.004342,0.003642,0.001672,0.003978,-0.004678,78.636455,0.005047,
1340,740,-0.303987,-15.094313,0.999996,0.000252,-0.004479,0.006907,0.003813,0.008066,-0.005638,73.094693,0.008276,
1430,840,-1.218380,-13.128199,0.999992,0.000331,-0.007745,0.012900,0.002190,0.013130,-0.007975,84.011201,0.013230,
750,340,1.492818,-17.236475,0.999996,0.000234,-0.004493,0.009943,0.000203,0.009946,-0.004496,89.195475,0.009961,
890,1860,0.525290,-1.300186,0.999995,0.000268,-0.002494,0.008231,-0.000923,0.008309,-0.002573,-85.116482,0.008508,
710,1380,2.689238,-6.501657,0.999995,0.000250,-0.005478,0.010520,-0.000411,0.010530,-0.005488,-88.529177,0.010533,
1240,510,-0.021619,-16.871347,0.999998,0.000181,-0.002543,0.006731,0.000179,0.006734,-0.002546,88.891742,0.006800,
600,660,3.211327,-13.504169,0.999995,0.000262,-0.005016,0.010077,0.000190,0.010080,-0.005018,89.277656,0.010080,
1090,1320,0.465050,-5.307159,0.999995,0.000302,-0.005440,0.008555,0.003753,0.009498,-0.006383,75.898572,0.009684,
1520,900,-2.273303,-11.664580,0.999994,0.000295,-0.006121,0.012884,-0.001235,0.012964,-0.006201,-86.298151,0.012968,
1360,160,-0.123231,-19.262701,0.999997,0.000198,-0.000996,0.006752,-0.000316,0.006765,-0.001009,-87.668111,0.007299,
1040,1590,0.546932,-3.283341,0.999997,0.000201,-0.003393,0.008235,0.000917,0.008307,-0.003465,85.520770,0.008345,
900,1690,0.922514,-2.766298,0.999996,0.000217,-0.003925,0.009098,0.000145,0.009100,-0.003927,89.360829,0.009128,
1370,910,-1.437126,-13.301414,0.999981,0.000556,-0.003298,0.009909,0.006739,0.012740,-0.006130,67.209163,0.012743,
570,1630,2.654539,-4.367538,0.999868,0.001558,-0.007324,0.009338,0.001541,0.009479,-0.007466,84.759699,0.009988,
1720,990,-3.502647,-10.450634,0.999996,0.000231,-0.004276,0.009796,-0.000329,0.009803,-0.004283,-88.659343,0.009829,
560,400,2.727936,-16.054027,0.999788,0.000000,-0.009417,0.010633,-0.000504,0.010645,-0.009429,-88.559784,0.011654,
750,1430,2.300954,-5.855948,0.999995,0.000242,-0.005581,0.010609,-0.000072,0.010609,-0.005582,-89.744295,0.010614,
1740,310,-1.519580,-17.460480,0.999996,0.000258,-0.004649,0.010002,-0.000258,0.010006,-0.004654,-88.992817,0.010014,
1290,420,-0.138096,-17.465765,0.999998,0.000150,-0.002320,0.007128,0.000231,0.007133,-0.002326,88.602827,0.007276,
1000,640,0.868568,-15.142676,0.999996,0.000238,-0.005588,0.009821,-0.001990,0.010074,-0.005841,-82.758929,0.010117,
1810,200,-1.369349,-18.359883,0.999994,0.000296,-0.004435,0.010293,-0.001122,0.010378,-0.004520,-85.669382,0.010406,
1080,1810,0.236553,-1.502150,0.999997,0.000194,-0.001634,0.007239,-0.000219,0.007244,-0.001639,-88.588335,0.007598,
1520,1630,-0.866226,-3.201822,0.999998,0.000192,-0.003900,0.008986,-0.000572,0.009011,-0.003926,-87.464544,0.009036,
1790,850,-3.503333,-11.780011,0.999994,0.000278,-0.004824,0.009787,-0.000879,0.009840,-0.004876,-86.568255,0.009840,
1170,70,0.017229,-19.854315,0.999998,0.000165,-0.000207,0.006126,0.000196,0.006132,-0.000213,88.226473,0.006961,
1040,810,1.003947,-13.577999,0.999993,0.000312,-0.007744,0.011990,-0.002703,0.012354,-0.008108,-82.339228,0.012553,
1630,880,-2.799221,-11.662365,0.999995,0.000258,-0.005361,0.011246,-0.001389,0.011362,-0.005476,-85.250295,0.011364,
1770,1490,-2.425517,-5.399844,0.999996,0.000237,-0.005270,0.010339,-0.000035,0.010339,-0.005270,-89.870302,0.010339,
990,1350,1.036943,-5.759144,0.999996,0.000289,-0.006646,0.011062,0.001998,0.011285,-0.006868,83.641181,0.011373,
1390,1080,-1.900639,-8.398580,0.999974,0.000000,-0.007461,0.023407,-0.007740,0.025239,-0.009293,-76.682477,0.025530,
1480,520,-0.821639,-16.217745,0.999996,0.000242,-0.004447,0.009156,0.001235,0.009267,-0.004558,84.855663,0.009268,
880,980,2.932527,-10.596696,0.999996,0.000267,-0.003963,0.010983,0.000870,0.011034,-0.004014,86.680085,0.011169,
790,1750,1.209934,-2.471693,0.999997,0.000211,-0.004358,0.009592,-0.000271,0.009598,-0.004363,-88.887039,0.009611,
1810,1440,-2.791428,-6.038316,0.999997,0.000218,-0.005191,0.010229,0.000142,0.010231,-0.005192,89.472354,0.010231,
1640,1820,-0.847280,-1.739685,0.999997,0.000224,-0.003118,0.009048,0.000980,0.009126,-0.003196,85.426096,0.009262,
1220,1790,0.018469,-1.576079,0.999998,0.000190,-0.001699,0.006894,0.000060,0.006894,-0.001699,89.601813,0.007183,
970,1980,0.106121,-0.361605,0.999998,0.000135,-0.000684,0.006738,-0.000869,0.006838,-0.000784,-83.409452,0.007485,
1410,610,-0.577237,-15.690848,0.999996,0.000243,-0.004539,0.008723,0.002152,0.009063,-0.004879,81.009830,0.009072,
1160,130,0.049661,-19.476657,0.999998,0.000155,-0.000641,0.006430,0.000180,0.006434,-0.000646,88.543457,0.007086,
1300,1530,-0.176258,-3.448083,0.999998,0.000180,-0.002818,0.006979,-0.000863,0.007054,-0.002893,-85.005936,0.007092,
860,1210,2.487427,-8.044144,0.999993,0.000325,-0.006060,0.011764,-0.001251,0.011851,-0.006148,-86.004264,0.011854,
1660,630,-2.015173,-14.415522,0.999996,0.000223,-0.005799,0.010850,0.000121,0.010851,-0.005800,89.584746,0.010860,
1470,320,-0.533349,-17.975046,0.999997,0.000211,-0.002686,0.008173,0.000004,0.008173,-0.002686,89.978878,0.008331,
1030,740,0.844234,-14.294940,0.999996,0.000217,-0.006800,0.010897,-0.002820,0.011335,-0.007238,-81.160051,0.011480,
1590,520,-1.355100,-15.820889,0.999995,0.000244,-0.005099,0.010086,0.000689,0.010117,-0.005131,87.408172,0.010117,
1280,630,-0.115468,-16.067864,0.999997,0.000208,-0.002651,0.005902,0.001177,0.006061,-0.002810,82.302169,0.006066,
890,1380,1.617734,-5.926540,0.999995,0.000253,-0.006399,0.011273,0.000575,0.011291,-0.006418,88.138436,0.011326,
1590,1880,-0.506000,-1.157495,0.999997,0.000209,-0.002473,0.008098,0.001064,0.008204,-0.002579,84.308714,0.008390,
1460,1110,-2.208689,-8.814275,0.999993,0.000316,-0.005914,0.014846,-0.000078,0.014846,-0.005914,-89.783640,0.014948,
600,640,3.141643,-13.705834,0.999996,0.000259,-0.005008,0.010118,0.000141,0.010119,-0.005009,89.467349,0.010119,
1050,1320,0.703473,-5.651028,0.999995,0.000251,-0.006415,0.010232,0.003207,0.010828,-0.007011,79.465075,0.010984,
1520,1100,-2.582490,-9.195321,0.999994,0.000282,-0.004647,0.012426,0.001222,0.012513,-0.004734,85.926236,0.012636,
1420,890,-1.516311,-12.575157,0.999991,0.000334,-0.006906,0.013811,0.002526,0.014114,-0.007209,83.146489,0.014115,
700,140,0.825054,-19.088154,0.999997,0.000205,-0.003896,0.009540,0.001941,0.009815,-0.004171,81.941783,0.009851,
650,1830,1.513654,-2.065934,0.999995,0.000272,-0.004615,0.010150,-0.000824,0.010196,-0.004661,-86.816725,0.010208,
990,60,0.066189,-19.900906,0.999998,0.000196,-0.000288,0.006490,0.000815,0.006587,-0.000385,83.238601,0.007393,
1560,1720,-0.844736,-2.485694,0.999997,0.000193,-0.003560,0.009002,0.000009,0.009002,-0.003560,89.961193,0.009067,
1000,850,1.542805,-12.678674,0.999994,0.000322,-0.007778,0.013597,-0.000888,0.013634,-0.007814,-87.625019,0.013682,
1240,440,-0.020015,-17.353918,0.999997,0.000214,-0.002416,0.007031,0.000142,0.007033,-0.002418,89.137567,0.007146,
900,1710,0.878701,-2.584362,0.999997,0.000246,-0.003775,0.009023,0.000071,0.009024,-0.003776,89.682665,0.009064,
1160,250,0.107813,-18.672492,0.999998,0.000166,-0.001492,0.006945,0.000089,0.006946,-0.001493,89.395658,0.007312,
840,280,0.939524,-18.035337,0.999996,0.000237,-0.003448,0.009171,0.000591,0.009198,-0.003476,87.323933,0.009289,
580,1630,2.586863,-4.329374,0.999996,0.000271,-0.006575,0.009651,0.000894,0.009700,-0.006625,86.857360,0.009914,
1730,1250,-3.041263,-7.828691,0.999996,0.000249,-0.005334,0.010488,0.001018,0.010553,-0.005399,86.332040,0.010554,
560,130,1.360133,-18.657392,0.999943,0.000000,-0.004715,0.010879,0.001901,0.011108,-0.004944,83.148845,0.011130,
1890,100,-1.059268,-19.053430,0.999995,0.000264,-0.004584,0.011586,-0.002347,0.011920,-0.004918,-81.906896,0.011981,
1560,1630,-1.032810,-3.317737,0.999997,0.000220,-0.004333,0.009393,-0.000509,0.009412,-0.004351,-87.881041,0.009421,
1370,540,-0.395820,-16.425046,0.999997,0.000198,-0.003579,0.007782,0.001556,0.007992,-0.003788,82.342138,0.007995,
1100,640,0.380552,-15.682992,0.999995,0.000257,-0.003979,0.007710,-0.002397,0.008182,-0.004451,-78.849238,0.008193,
1260,280,-0.050078,-18.474965,0.999997,0.000197,-0.001737,0.007003,0.000044,0.007003,-0.001737,89.709389,0.007294,
740,540,2.103815,-15.168580,0.999995,0.000243,-0.005299,0.010362,-0.000179,0.010364,-0.005301,-89.346322,0.010365,
950,1020,2.736548,-10.167419,0.999997,0.000224,-0.003692,0.012157,0.000143,0.012159,-0.003694,89.481714,0.012467,
1180,1790,0.082926,-1.584817,0.999998,0.000158,-0.001544,0.006961,-0.000014,0.006961,-0.001544,-89.909018,0.007311,
750,1410,2.366137,-6.068988,0.999994,0.000295,-0.005614,0.010666,-0.000169,0.010668,-0.005615,-89.406688,0.010673,
1830,850,-3.693140,-11.718210,0.999995,0.000257,-0.004710,0.009568,-0.000697,0.009602,-0.004744,-87.212355,0.009602,
660,1930,0.871796,-1.009208,0.999997,0.000213,-0.003429,0.010252,-0.002631,0.010740,-0.003917,-79.481976,0.010870,
1880,1250,-3.784986,-8.129398,0.999996,0.000235,-0.004608,0.009213,0.000263,0.009218,-0.004613,88.908745,0.009218,
1390,970,-1.890982,-11.863303,0.999971,0.000000,-0.006995,0.023330,0.008012,0.025317,-0.008982,76.073589,0.025670,
580,400,2.510863,-16.078430,0.999995,0.000256,-0.007004,0.010098,-0.000111,0.010099,-0.007005,-89.627074,0.010349,
1020,840,1.322125,-12.999490,0.999993,0.000307,-0.007886,0.013240,-0.001751,0.013384,-0.008030,-85.294519,0.013473,
1410,590,-0.567605,-15.868684,0.999996,0.000232,-0.004403,0.008557,0.001997,0.008858,-0.004703,81.434753,0.008864,
1610,360,-1.104881,-17.313536,0.999998,0.000132,-0.003959,0.009351,-0.000016,0.009351,-0.003960,-89.932108,0.009387,
1020,830,1.264445,-13.132761,0.999993,0.000315,-0.007875,0.012955,-0.001893,0.013126,-0.008045,-84.849491,0.013237,
1430,1980,-0.076206,-0.352864,0.999998,0.000200,-0.000528,0.006487,0.000604,0.006538,-0.000579,85.117412,0.007239,
1510,270,-0.557658,-18.321572,0.999996,0.000236,-0.002908,0.008214,-0.000223,0.008218,-0.002912,-88.851009,0.008334,
1360,1510,-0.361052,-3.738532,0.999995,0.000257,-0.003493,0.007604,-0.001554,0.007818,-0.003706,-82.177659,0.007821,
1590,500,-1.315803,-16.021389,0.999996,0.000244,-0.004990,0.009939,0.000660,0.009968,-0.005020,87.473116,0.009969,
1770,1470,-2.487700,-5.608078,0.999996,0.000241,-0.005310,0.010360,0.000039,0.010360,-0.005310,89.857702,0.010361,
590,1950,1.024224,-1.080993,0.999996,0.000229,-0.004610,0.010922,-0.002049,0.011188,-0.004875,-82.608474,0.011219,
870,1380,1.746039,-6.006582,0.999995,0.000250,-0.006321,0.011243,0.000389,0.011251,-0.006330,88.730725,0.011281,
1360,140,-0.100727,-19.397232,0.999998,0.000168,-0.000827,0.006599,-0.000320,0.006613,-0.000841,-87.537704,0.007199,
650,1810,1.606780,-2.269595,0.999995,0.000252,-0.004706,0.010192,-0.000609,0.010217,-0.004731,-87.661808,0.010226,
1420,870,-1.353030,-12.848511,0.999994,0.000284,-0.007165,0.013440,0.002518,0.013743,-0.007468,83.132027,0.013760,
1430,940,-1.991974,-11.704835,0.999993,0.000316,-0.006611,0.015459,0.002329,0.015702,-0.006854,84.040427,0.015744,
1280,130,-0.034902,-19.478490,0.999998,0.000169,-0.000634,0.006397,-0.000121,0.006399,-0.000636,-89.014818,0.007051,
700,160,0.948826,-18.886892,0.999996,0.000222,-0.004130,0.009869,0.001654,0.010062,-0.004322,83.353624,0.010095,
1700,290,-1.277798,-17.762627,0.999996,0.000236,-0.004206,0.009755,-0.000505,0.009773,-0.004224,-87.930847,0.009803,
1340,720,-0.297028,-15.237682,0.999995,0.000269,-0.004208,0.006970,0.003492,0.007972,-0.005209,74.001921,0.008096,
880,1180,2.512366,-8.357463,0.999994,0.000290,-0.005882,0.011927,-0.001373,0.012032,-0.005987,-85.616055,0.012032,
1000,830,1.420922,-12.945515,0.999991,0.000382,-0.007872,0.013184,-0.001200,0.013252,-0.007940,-86.749987,0.013338,
1730,1230,-3.115823,-8.037221,0.999996,0.000267,-0.005253,0.010485,0.001105,0.010562,-0.005330,86.002159,0.010562,
1080,1560,0.425127,-3.417868,0.999996,0.000215,-0.003477,0.007932,0.001249,0.008067,-0.003612,83.825852,0.008082,
1540,1630,-0.947099,-3.257776,0.999997,0.000188,-0.004182,0.009215,-0.000567,0.009239,-0.004206,-87.580820,0.009251,
1560,1700,-0.886175,-2.668234,0.999997,0.000209,-0.003737,0.009047,-0.000080,0.009048,-0.003738,-89.641382,0.009093,
1240,200,-0.011085,-19.025709,0.999998,0.000177,-0.001256,0.006633,0.000016,0.006633,-0.001256,89.881152,0.007046,
1450,320,-0.480901,-18.005820,0.999997,0.000225,-0.002638,0.008020,0.000070,0.008021,-0.002638,89.621621,0.008176,
920,650,1.363681,-14.641514,0.999994,0.000296,-0.006196,0.010955,-0.001063,0.011020,-0.006262,-86.465166,0.011054,
1750,1440,-2.473080,-5.859998,0.999996,0.000236,-0.005412,0.010446,0.000116,0.010447,-0.005413,89.579952,0.010449,
1140,250,0.139069,-18.665386,0.999998,0.000163,-0.001670,0.007001,-0.000010,0.007001,-0.001670,-89.936374,0.007314,
1250,420,-0.042712,-17.489425,0.999997,0.000215,-0.002370,0.007069,0.000233,0.007075,-0.002376,88.589590,0.007201,
840,260,0.881259,-18.215496,0.999996,0.000227,-0.003256,0.008996,0.000705,0.009037,-0.003297,86.719433,0.009146,
1280,610,-0.118474,-16.187092,0.999997,0.000236,-0.002662,0.006108,0.001010,0.006222,-0.002777,83.516372,0.006234,
1060,1810,0.270159,-1.516655,0.999997,0.000205,-0.001916,0.007325,-0.000135,0.007327,-0.001918,-89.165044,0.007600,
1410,570,-0.557160,-16.037768,0.999996,0.000231,-0.004244,0.008419,0.001840,0.008681,-0.004506,81.897768,0.008683,
1740,990,-3.590407,-10.445744,0.999997,0.000203,-0.004337,0.009667,-0.000331,0.009675,-0.004345,-88.647414,0.009692,
1790,830,-3.438976,-11.974458,0.999995,0.000261,-0.004889,0.009836,-0.000853,0.009885,-0.004939,-86.696670,0.009885,
1160,1790,0.114619,-1.591867,0.999998,0.000156,-0.001570,0.007012,-0.000040,0.007013,-0.001571,-89.735533,0.007360,
580,1950,1.071184,-1.131151,0.999996,0.000237,-0.004488,0.011191,-0.002099,0.011467,-0.004764,-82.507165,0.011521,
1180,1200,0.472759,-5.058384,0.999981,0.000511,-0.006415,0.002683,0.000167,0.002686,-0.006418,88.947747,0.006447,
560,120,1.267402,-18.771021,0.999943,0.000000,-0.004419,0.011128,0.002003,0.011382,-0.004673,82.774144,0.011443,
1150,650,0.203068,-15.843131,0.999997,0.000203,-0.003047,0.006343,-0.001943,0.006729,-0.003434,-78.759012,0.006730,
1740,1670,-1.758595,-3.457368,0.999997,0.000268,-0.004910,0.010118,-0.000074,0.010119,-0.004911,-89.717996,0.010120,
1510,250,-0.519462,-18.480743,0.999996,0.000237,-0.002690,0.008093,-0.000362,0.008106,-0.002702,-88.077120,0.008254,
870,1580,1.278950,-3.900815,0.999995,0.000241,-0.004891,0.009832,0.000592,0.009856,-0.004915,87.699887,0.009856,
720,350,1.666514,-17.046388,0.999995,0.000268,-0.004837,0.010008,0.000039,0.010008,-0.004837,89.848717,0.010010,
1380,1490,-0.438369,-3.965237,0.999997,0.000199,-0.003690,0.007853,-0.001670,0.008090,-0.003927,-81.933142,0.008091,
1050,1980,0.066507,-0.349308,0.999998,0.000164,-0.000543,0.006420,-0.000532,0.006460,-0.000583,-85.658734,0.007146,
1570,760,-1.889529,-13.243825,0.999993,0.000311,-0.006846,0.012038,-0.000086,0.012038,-0.006846,-89.739811,0.012076,
1660,1560,-1.658020,-4.320647,0.999995,0.000224,-0.005147,0.010191,-0.000420,0.010202,-0.005159,-88.432954,0.010202,
1750,500,-2.132933,-15.495352,0.999995,0.000267,-0.005154,0.010284,0.000188,0.010287,-0.005156,89.301568,0.010287,
1200,210,0.042205,-18.954537,0.999998,0.000201,-0.001256,0.006687,0.000009,0.006687,-0.001256,89.934662,0.007108,
950,1360,1.279528,-5.876783,0.999996,0.000228,-0.006657,0.011311,0.001315,0.011407,-0.006753,85.836969,0.011471,
1830,830,-3.630615,-11.906222,0.999995,0.000253,-0.004740,0.009483,-0.000648,0.009513,-0.004770,-87.396497,0.009513,
650,1790,1.695741,-2.478586,0.999996,0.000231,-0.004756,0.010170,-0.000472,0.010185,-0.004771,-88.189003,0.010192,
1550,860,-2.230900,-12.074954,0.999995,0.000276,-0.006502,0.012505,-0.001112,0.012570,-0.006567,-86.664009,0.012574,
1360,120,-0.086665,-19.528648,0.999998,0.000165,-0.000679,0.006522,-0.000359,0.006540,-0.000697,-87.150763,0.007183,
750,1390,2.431660,-6.284111,0.999995,0.000289,-0.005656,0.010711,-0.000283,0.010716,-0.005660,-89.010595,0.010722,
1340,700,-0.292892,-15.373219,0.999996,0.000237,-0.003976,0.006975,0.003099,0.007791,-0.004792,75.246777,0.007860,
1090,1660,0.342651,-2.616708,0.999996,0.000219,-0.002587,0.007603,0.000406,0.007619,-0.002603,87.724354,0.007745,
670,900,3.666278,-11.284193,0.999995,0.000260,-0.004641,0.009517,0.000681,0.009549,-0.004674,87.253428,0.009550,
1240,160,-0.009398,-19.289664,0.999998,0.000160,-0.000963,0.006497,0.000017,0.006497,-0.000963,89.869621,0.007013,
1580,160,-0.437131,-19.132035,0.999997,0.000220,-0.002228,0.007926,-0.001141,0.008052,-0.002355,-83.667372,0.008281,
700,600,2.497338,-14.417344,0.999995,0.000252,-0.005348,0.010425,0.000071,0.010425,-0.005348,89.743282,0.010426,
1180,1470,0.128083,-3.820231,0.999996,0.000251,-0.002678,0.006412,0.000897,0.006500,-0.002765,84.419973,0.006524,
1730,1450,-2.334111,-5.696989,0.999996,0.000248,-0.005469,0.010525,0.000045,0.010526,-0.005469,89.839676,0.010528,
1150,1190,0.751231,-5.451991,0.999993,0.000355,-0.004185,0.003275,0.001532,0.003577,-0.004488,78.835824,0.004744,
1770,1450,-2.550873,-5.817202,0.999995,0.000270,-0.005331,0.010358,0.000089,0.010359,-0.005331,89.673631,0.010360,
1330,890,-1.125659,-14.326382,0.999996,0.000000,-0.002263,0.004055,0.003748,0.005798,-0.004005,65.064986,0.005937,
1830,1760,-1.895860,-2.843659,0.999998,0.000187,-0.004826,0.010065,0.000103,0.010066,-0.004827,89.602861,0.010069,
1620,990,-3.094646,-10.472518,0.999994,0.000283,-0.003989,0.010455,-0.000541,0.010476,-0.004010,-87.857213,0.010571,
1550,1760,-0.730685,-2.117390,0.999997,0.000192,-0.002974,0.008643,0.000336,0.008653,-0.002984,88.344002,0.008791,
1330,1180,-0.937886,-5.772618,0.999992,0.000354,-0.003044,0.004374,-0.002939,0.005397,-0.004067,-70.801165,0.005624,
1730,1460,-2.302637,-5.589665,0.999995,0.000276,-0.005431,0.010516,-0.000002,0.010516,-0.005431,-89.991321,0.010518,
760,490,1.864647,-15.751664,0.999997,0.000229,-0.005114,0.010216,-0.000283,0.010222,-0.005120,-88.941432,0.010222,
1030,1980,0.077355,-0.353285,0.999998,0.000165,-0.000511,0.006509,-0.000639,0.006567,-0.000569,-84.839252,0.007277,
1510,230,-0.471661,-18.647324,0.999996,0.000225,-0.002517,0.007967,-0.000465,0.007988,-0.002537,-87.463743,0.008163,
1380,1510,-0.432717,-3.808629,0.999997,0.000210,-0.003623,0.007873,-0.001550,0.008078,-0.003828,-82.454530,0.008082,
590,1930,1.185647,-1.298722,0.999997,0.000227,-0.004741,0.010678,-0.001525,0.010827,-0.004890,-84.403793,0.010844,
1100,250,0.210381,-18.634004,0.999998,0.000158,-0.001707,0.007199,0.000106,0.007200,-0.001709,89.317603,0.007524,
840,240,0.814701,-18.399055,0.999996,0.000241,-0.003044,0.009000,0.000867,0.009062,-0.003106,85.902936,0.009211,
560,110,1.195193,-18.884358,0.999974,0.000000,-0.004124,0.011517,0.001963,0.011759,-0.004366,82.955927,0.011888,
1410,550,-0.545089,-16.212076,0.999996,0.000241,-0.004053,0.008385,0.001641,0.008598,-0.004266,82.610531,0.008598,
1160,210,0.089069,-18.947450,0.999998,0.000172,-0.001209,0.006748,0.000146,0.006751,-0.001212,88.951558,0.007198,
1370,580,-0.403888,-16.114436,0.999997,0.000204,-0.003705,0.007751,0.001795,0.008026,-0.003980,81.299533,0.008026,
1570,1060,-2.912662,-9.720668,0.999997,0.000217,-0.003778,0.011058,0.000621,0.011084,-0.003804,87.608487,0.011264,
1780,1330,-3.011860,-7.091867,0.999996,0.000205,-0.005265,0.010279,0.000632,0.010304,-0.005290,87.676757,0.010305,
1440,1050,-2.380180,-9.658747,0.999990,0.000378,-0.006910,0.018601,-0.000771,0.018624,-0.006933,-88.271181,0.018825,
1240,130,-0.005872,-19.483639,0.999999,0.000131,-0.000740,0.006376,-0.000023,0.006376,-0.000740,-89.811318,0.006975,
1550,840,-2.122507,-12.327712,0.999992,0.000346,-0.006754,0.012554,-0.000857,0.012592,-0.006792,-87.462830,0.012605,
880,1420,1.570901,-5.520575,0.999995,0.000261,-0.006080,0.010962,0.000665,0.010988,-0.006106,87.767672,0.011011,
1560,1680,-0.931359,-2.849670,0.999997,0.000201,-0.003929,0.009096,-0.000182,0.009098,-0.003932,-89.198385,0.009126,
1360,100,-0.064360,-19.661062,0.999998,0.000171,-0.000493,0.006400,-0.000342,0.006417,-0.000510,-87.168997,0.007133,
1080,1540,0.433342,-3.579243,0.999996,0.000220,-0.003535,0.007931,0.001368,0.008092,-0.003696,83.289975,0.008102,
1750,600,-2.426110,-14.458600,0.999995,0.000261,-0.005400,0.010435,-0.000050,0.010435,-0.005401,-89.819511,0.010437,
650,1770,1.776907,-2.682422,0.999996,0.000241,-0.004783,0.010115,-0.000296,0.010121,-0.004789,-88.860274,0.010126,
1260,650,-0.063854,-15.987523,0.999998,0.000159,-0.002319,0.005369,0.000775,0.005446,-0.002396,84.299101,0.005459,
640,550,2.654520,-14.749323,0.999994,0.000265,-0.005107,0.010200,-0.000056,0.010200,-0.005107,-89.790429,0.010200,
1470,380,-0.617786,-17.477410,0.999997,0.000224,-0.003251,0.008450,0.000405,0.008464,-0.003265,88.019788,0.008538,
1130,1660,0.238905,-2.559254,0.999997,0.000206,-0.002612,0.007368,0.000548,0.007398,-0.002642,86.867828,0.007498,
700,580,2.435643,-14.627357,0.999995,0.000249,-0.005323,0.010384,0.000010,0.010384,-0.005323,89.961795,0.010385,
1390,960,-1.844194,-12.063097,0.999971,0.000000,-0.005952,0.020135,0.008286,0.022545,-0.008361,73.786226,0.022794,
1240,140,-0.006683,-19.419874,0.999998,0.000155,-0.000823,0.006414,-0.000017,0.006414,-0.000823,-89.862209,0.006980,
1060,850,1.081286,-13.331883,0.999991,0.000362,-0.007370,0.011892,-0.003037,0.012360,-0.007838,-81.248321,0.012507,
640,510,2.538110,-15.158829,0.999997,0.000268,-0.005103,0.010183,-0.000096,0.010184,-0.005104,-89.640439,0.010184,
1770,1430,-2.612618,-6.024718,0.999995,0.000266,-0.005365,0.010368,0.000179,0.010370,-0.005367,89.348496,0.010372,
790,1730,1.272271,-2.667636,0.999996,0.000234,-0.004423,0.009761,-0.000149,0.009763,-0.004425,-89.399194,0.009777,
1640,1800,-0.917052,-1.927203,0.999997,0.000234,-0.003335,0.009147,0.000800,0.009198,-0.003386,86.347576,0.009304,
1680,990,-3.334923,-10.457493,0.999997,0.000212,-0.004214,0.010036,-0.000394,0.010047,-0.004225,-88.416259,0.010089,
1690,200,-0.887485,-18.646673,0.999995,0.000240,-0.003464,0.009357,-0.001318,0.009491,-0.003598,-84.191712,0.009583,
1730,1210,-3.191273,-8.251967,0.999995,0.000259,-0.005134,0.010363,0.001094,0.010440,-0.005211,85.980852,0.010440,
1260,260,-0.046896,-18.614961,0.999998,0.000181,-0.001587,0.006887,0.000053,0.006887,-0.001588,89.639427,0.007213,
1100,840,0.734102,-14.036336,0.999993,0.000340,-0.006200,0.009095,-0.004474,0.010308,-0.007412,-74.834619,0.010632,
740,560,2.162129,-14.961029,0.999995,0.000257,-0.005387,0.010412,-0.000144,0.010413,-0.005389,-89.476147,0.010415,
1830,810,-3.568395,-12.097135,0.999995,0.000275,-0.004829,0.009595,-0.000646,0.009624,-0.004858,-87.439556,0.009624,
1580,140,-0.369438,-19.291305,0.999996,0.000218,-0.001986,0.007778,-0.001207,0.007925,-0.002132,-83.057164,0.008201,
1530,540,-1.083689,-15.838970,0.999995,0.000257,-0.005008,0.009807,0.001077,0.009884,-0.005086,85.865030,0.009886,
760,510,1.917933,-15.544635,0.999997,0.000208,-0.005217,0.010311,-0.000256,0.010315,-0.005221,-89.056684,0.010315,
1400,890,-1.373886,-12.864918,0.999989,0.000370,-0.006376,0.012233,0.003935,0.013031,-0.007173,78.538691,0.013053,
1190,1980,0.016110,-0.335115,0.999999,0.000132,-0.000331,0.006148,-0.000118,0.006150,-0.000333,-88.952490,0.006917,
1300,1790,-0.109848,-1.590232,0.999998,0.000162,-0.001539,0.006978,0.000066,0.006978,-0.001540,89.554688,0.007332,
1320,1450,-0.234036,-4.047697,0.999998,0.000196,-0.003047,0.006777,-0.001550,0.007016,-0.003286,-81.245869,0.007020,
1490,1510,-0.898708,-4.219551,0.999996,0.000228,-0.004843,0.009470,-0.001356,0.009598,-0.004970,-84.633906,0.009600,
1460,1090,-2.334991,-9.116741,0.999995,0.000269,-0.005577,0.015055,-0.000133,0.015056,-0.005578,-89.631212,0.015223,
920,130,0.288869,-19.387918,0.999998,0.000196,-0.001235,0.007426,0.001122,0.007569,-0.001378,82.734751,0.008063,
1120,230,0.158087,-18.791423,0.999998,0.000189,-0.001598,0.006975,0.000069,0.006975,-0.001598,89.538395,0.007308,
1310,1190,-0.736514,-5.408276,0.999971,0.000678,-0.004347,0.003224,-0.001324,0.003448,-0.004572,-80.360618,0.004765,
1400,1720,-0.360000,-2.190801,0.999997,0.000220,-0.002575,0.007670,-0.000235,0.007675,-0.002580,-88.687443,0.007812,
710,1280,3.054427,-7.556406,0.999997,0.000238,-0.005250,0.010392,-0.000880,0.010441,-0.005300,-86.789758,0.010442,
920,890,2.354445,-11.720572,0.999997,0.000204,-0.006094,0.012498,0.001337,0.012594,-0.006190,85.907672,0.012594,
700,1990,0.328065,-0.383915,0.999996,0.000264,-0.001884,0.008886,-0.003263,0.009797,-0.002795,-74.390775,0.010094,
1370,560,-0.400615,-16.268877,0.999997,0.000183,-0.003636,0.007724,0.001681,0.007968,-0.003879,81.756785,0.007969,
750,1370,2.501036,-6.500127,0.999993,0.000304,-0.005692,0.010785,-0.000413,0.010796,-0.005702,-88.564696,0.010801,
1660,1540,-1.708038,-4.525734,0.999996,0.000226,-0.005221,0.010290,-0.000394,0.010300,-0.005231,-88.545844,0.010300,
1550,760,-1.749216,-13.329871,0.999994,0.000290,-0.007066,0.012160,0.000171,0.012161,-0.007067,89.491595,0.012215,
840,220,0.748784,-18.574794,0.999997,0.000226,-0.002825,0.008765,0.001031,0.008856,-0.002916,84.953790,0.009027,
1340,680,-0.295460,-15.510084,0.999996,0.000227,-0.003788,0.006996,0.002826,0.007692,-0.004484,76.169047,0.007727,
1360,80,-0.051664,-19.785672,0.999998,0.000169,-0.000373,0.006305,-0.000367,0.006325,-0.000393,-86.866217,0.007088,
820,1610,1.454782,-3.761071,0.999997,0.000237,-0.004790,0.009902,0.000344,0.009910,-0.004798,88.658404,0.009911,
870,1720,0.976759,-2.569784,0.999996,0.000230,-0.003909,0.009325,-0.000040,0.009325,-0.003909,-89.826477,0.009366,
1010,1360,0.890665,-5.524069,0.999996,0.000267,-0.006283,0.010538,0.002352,0.010860,-0.006605,82.188363,0.010945,
650,1750,1.852747,-2.886025,0.999995,0.000276,-0.004825,0.010056,-0.000191,0.010059,-0.004828,-89.265966,0.010061,
1590,600,-1.528214,-14.988417,0.999994,0.000277,-0.005744,0.010539,0.000692,0.010568,-0.005773,87.572201,0.010583,
1800,430,-2.187014,-16.050430,0.999997,0.000218,-0.005002,0.010114,0.000160,0.010116,-0.005004,89.395414,0.010116,
1240,650,-0.019053,-16.010977,0.999998,0.000174,-0.002223,0.005243,0.000312,0.005256,-0.002236,87.608277,0.005275,
880,440,1.161804,-16.633099,0.999997,0.000222,-0.004481,0.009566,-0.000466,0.009582,-0.004496,-88.102270,0.009588,
1390,30,-0.009820,-20.093698,0.999999,0.000000,-0.000027,0.006095,-0.000475,0.006131,-0.000064,-85.588788,0.007043,
700,560,2.373910,-14.832836,0.999995,0.000249,-0.005280,0.010304,-0.000053,0.010304,-0.005280,-89.804674,0.010305,
1470,460,-0.718119,-16.783949,0.999996,0.000237,-0.003981,0.008769,0.000949,0.008839,-0.004051,85.767628,0.008849,
1080,1520,0.440462,-3.737928,0.999996,0.000235,-0.003590,0.007939,0.001455,0.008120,-0.003771,82.917668,0.008127,
1560,1660,-0.974259,-3.036875,0.999997,0.000195,-0.004127,0.009205,-0.000372,0.009216,-0.004138,-88.401223,0.009232,
1040,850,1.227951,-13.069684,0.999992,0.000310,-0.007571,0.012924,-0.002359,0.013192,-0.007839,-83.519334,0.013270,
1240,120,-0.005196,-19.546968,0.999998,0.000144,-0.000659,0.006335,-0.000021,0.006335,-0.000659,-89.825730,0.006966,
1110,1660,0.291392,-2.589175,0.999998,0.000182,-0.002586,0.007462,0.000472,0.007484,-0.002608,87.318414,0.007597,
1860,890,-3.941794,-11.289504,0.999997,0.000204,-0.004356,0.008876,-0.000336,0.008885,-0.004365,-88.545348,0.008885,
1730,1170,-3.322487,-8.661620,0.999996,0.000245,-0.004909,0.010262,0.001111,0.010342,-0.004990,85.834532,0.010345,
1710,240,-1.127415,-18.227757,0.999997,0.000190,-0.003821,0.009732,-0.001042,0.009812,-0.003901,-85.627680,0.009880,
1770,1410,-2.679653,-6.232983,0.999995,0.000279,-0.005363,0.010405,0.000285,0.010410,-0.005368,88.965257,0.010412,
780,510,1.812757,-15.611350,0.999996,0.000222,-0.005194,0.010277,-0.000308,0.010283,-0.005200,-88.859986,0.010283,
1580,120,-0.309197,-19.443744,0.999997,0.000197,-0.001653,0.007645,-0.001297,0.007823,-0.001831,-82.207366,0.008183,
560,100,1.109621,-18.998381,0.999989,0.000000,-0.004206,0.012019,0.002178,0.012306,-0.004493,82.483968,0.012454,
760,1590,1.799917,-4.151889,0.999996,0.000237,-0.005032,0.010134,0.000263,0.010138,-0.005037,89.006508,0.010139,
690,1280,3.157447,-7.595339,0.999997,0.000235,-0.005172,0.010206,-0.000832,0.010251,-0.005217,-86.913334,0.010251,
1830,1740,-1.971107,-3.046855,0.999997,0.000201,-0.004841,0.010023,0.000025,0.010023,-0.004841,89.904495,0.010025,
1340,1790,-0.178608,-1.615697,0.999997,0.000186,-0.001907,0.007133,-0.000058,0.007134,-0.001907,-89.631928,0.007387,
1490,1490,-0.922590,-4.410821,0.999997,0.000233,-0.004968,0.009620,-0.001427,0.009758,-0.005106,-84.463465,0.009761,
1410,530,-0.536373,-16.380566,0.999996,0.000256,-0.003826,0.008325,0.001408,0.008486,-0.003987,83.476977,0.008491,
1490,1980,-0.103173,-0.361754,0.999998,0.000181,-0.000632,0.006695,0.000884,0.006800,-0.000737,83.217381,0.007463,
1300,1450,-0.174855,-3.991533,0.999997,0.000196,-0.002900,0.006442,-0.001405,0.006649,-0.003107,-81.631773,0.006654,
1100,230,0.189154,-18.780495,0.999997,0.000198,-0.001552,0.007041,0.000148,0.007043,-0.001554,89.015677,0.007401,
640,1950,0.789089,-0.843758,0.999992,0.000303,-0.003894,0.010374,-0.002411,0.010770,-0.004290,-80.664771,0.010844,
930,260,0.602269,-18.366600,0.999997,0.000204,-0.002656,0.008262,0.000419,0.008278,-0.002672,87.804356,0.008450,
1830,790,-3.494928,-12.293398,0.999996,0.000258,-0.004910,0.009868,-0.000639,0.009896,-0.004938,-87.529853,0.009896,
900,890,2.471085,-11.669514,0.999994,0.000297,-0.005795,0.012148,0.001411,0.012258,-0.005906,85.530952,0.012261,
940,130,0.261861,-19.397532,0.999997,0.000219,-0.001300,0.007285,0.000944,0.007387,-0.001402,83.796356,0.007847,
1440,1090,-2.212983,-8.971005,0.999988,0.000426,-0.006314,0.016654,-0.001507,0.016752,-0.006412,-86.260864,0.016905,
990,1060,2.531298,-9.604093,0.999995,0.000268,-0.004671,0.014723,-0.000186,0.014725,-0.004673,-89.449493,0.015048,
1360,60,-0.030204,-19.913796,0.999998,0.000164,-0.000228,0.006167,-0.000360,0.006187,-0.000249,-86.784419,0.007005,
1430,1460,-0.660196,-4.427232,0.999997,0.000214,-0.004613,0.008956,-0.001887,0.009214,-0.004870,-82.227399,0.009219,
990,1360,1.014702,-5.648933,0.999995,0.000296,-0.006486,0.010905,0.002013,0.011135,-0.006716,83.483214,0.011214,
1290,1220,-0.324091,-5.066667,0.999985,0.000482,-0.004748,0.003404,-0.001630,0.003718,-0.005062,-79.102553,0.005244,
1030,660,0.726053,-15.114426,0.999997,0.000224,-0.005495,0.009609,-0.002425,0.009989,-0.005874,-81.099137,0.010041,
1380,2020,-0.016415,-0.095668,0.999998,0.000000,0.000000,0.006105,0.000403,0.006132,-0.000026,86.242413,0.007065,
650,1730,1.923899,-3.087261,0.999995,0.000267,-0.004902,0.010031,-0.000054,0.010031,-0.004902,-89.794272,0.010032,
1220,510,0.028717,-16.868654,0.999998,0.000152,-0.002543,0.006733,-0.000242,0.006739,-0.002550,-88.503928,0.006805,
1560,1640,-1.013130,-3.223020,0.999997,0.000208,-0.004279,0.009354,-0.000482,0.009371,-0.004296,-87.979688,0.009382,
620,550,2.758623,-14.687329,0.999995,0.000240,-0.005095,0.010204,-0.000043,0.010204,-0.005096,-89.837932,0.010204,
1550,740,-1.671791,-13.574148,0.999996,0.000291,-0.007016,0.011996,0.000407,0.012004,-0.007025,88.772697,0.012062,
1660,1520,-1.755911,-4.731737,0.999995,0.000253,-0.005343,0.010389,-0.000388,0.010399,-0.005353,-88.587448,0.010400,
880,400,1.083555,-17.012009,0.999997,0.000224,-0.004257,0.009356,-0.000308,0.009363,-0.004264,-88.703534,0.009375,
1150,420,0.194715,-17.446970,0.999997,0.000227,-0.002580,0.007285,-0.000476,0.007308,-0.002603,-87.242053,0.007408,
840,200,0.673600,-18.752695,0.999997,0.000211,-0.002607,0.008687,0.001216,0.008816,-0.002737,83.922901,0.009025,
700,540,2.315450,-15.038274,0.999995,0.000233,-0.005243,0.010292,-0.000086,0.010292,-0.005243,-89.683953,0.010293,
1080,1500,0.446350,-3.898613,0.999996,0.000220,-0.003646,0.007892,0.001554,0.008097,-0.003852,82.463638,0.008101,
1860,870,-3.893997,-11.468962,0.999997,0.000215,-0.004477,0.009158,-0.000441,0.009172,-0.004491,-88.148834,0.009173,
1650,880,-2.905444,-11.634889,0.999994,0.000294,-0.005248,0.010981,-0.001300,0.011085,-0.005352,-85.450120,0.011087,
1430,1700,-0.467764,-2.400521,0.999997,0.000244,-0.002962,0.007995,-0.000370,0.008008,-0.002975,-88.070350,0.008095,
1340,660,-0.293849,-15.648018,0.999996,0.000255,-0.003685,0.007039,0.002593,0.007633,-0.004279,77.098249,0.007652,
1630,1540,-1.551069,-4.425270,0.999995,0.000263,-0.005221,0.010246,-0.000511,0.010263,-0.005238,-88.108351,0.010264,
750,1350,2.572853,-6.717882,0.999995,0.000282,-0.005701,0.010800,-0.000522,0.010816,-0.005718,-88.191260,0.010822,
1470,620,-0.883561,-15.304541,0.999996,0.000218,-0.005381,0.009800,0.001814,0.010014,-0.005595,83.279902,0.010037,
1290,1660,-0.132768,-2.514083,0.999998,0.000182,-0.002269,0.007156,-0.000160,0.007158,-0.002271,-89.027312,0.007316,
1730,1150,-3.386752,-8.868518,0.999996,0.000240,-0.004742,0.010059,0.000989,0.010125,-0.004808,86.193634,0.010129,
990,1330,1.085542,-5.984833,0.999995,0.000274,-0.006946,0.011392,0.001935,0.011594,-0.007148,84.041992,0.011698,
840,1210,2.607397,-8.086617,0.999994,0.000279,-0.005857,0.011464,-0.001272,0.011557,-0.005950,-85.822042,0.011558,
1480,500,-0.799874,-16.398923,0.999996,0.000232,-0.004241,0.009036,0.001072,0.009122,-0.004327,85.412101,0.009126,
570,1830,1.900891,-2.408694,0.999991,0.000347,-0.004902,0.009845,-0.000276,0.009850,-0.004908,-88.928515,0.009850,
1410,60,-0.044533,-19.908162,0.999999,0.000130,-0.000419,0.006283,-0.000497,0.006320,-0.000456,-85.782498,0.007049,
1690,140,-0.606642,-19.195487,0.999996,0.000237,-0.002564,0.008690,-0.001878,0.008995,-0.002869,-80.771943,0.009189,
920,1000,2.822940,-10.390293,0.999997,0.000216,-0.003706,0.011580,0.000628,0.011606,-0.003732,87.650335,0.011849,
1490,1470,-0.945625,-4.603168,0.999997,0.000231,-0.005133,0.009772,-0.001479,0.009918,-0.005278,-84.386407,0.009924,
1400,1570,-0.479410,-3.387615,0.999994,0.000280,-0.003447,0.008111,-0.001082,0.008211,-0.003547,-84.697149,0.008236,
1410,490,-0.517678,-16.706027,0.999995,0.000243,-0.003498,0.008181,0.001085,0.008281,-0.003598,84.737387,0.008305,
1800,1270,-3.332139,-7.750942,0.999995,0.000267,-0.005058,0.010072,0.000793,0.010113,-0.005100,87.009625,0.010114,
620,1950,0.881834,-0.936294,0.999996,0.000226,-0.004711,0.010567,-0.001862,0.010791,-0.004935,-83.152376,0.010804,
1320,1790,-0.141340,-1.598128,0.999998,0.000170,-0.001755,0.007062,-0.000031,0.007062,-0.001755,-89.799208,0.007353,
1450,1980,-0.083845,-0.355388,0.999999,0.000166,-0.000457,0.006564,0.000714,0.006636,-0.000528,84.251431,0.007376,
560,90,1.020517,-19.123359,0.999992,0.000000,-0.004687,0.012621,0.002368,0.012939,-0.005006,82.347857,0.013049,
1510,1500,-1.008948,-4.392004,0.999996,0.000246,-0.004969,0.009754,-0.001247,0.009859,-0.005074,-85.191533,0.009860,
860,310,0.950870,-17.803569,0.999997,0.000190,-0.003758,0.009091,0.000197,0.009094,-0.003761,89.121633,0.009139,
980,790,1.378722,-13.322372,0.999995,0.000281,-0.007682,0.012621,-0.001171,0.012689,-0.007749,-86.710615,0.012792,
1350,1990,-0.031489,-0.278527,0.999998,0.000158,-0.000322,0.006200,0.000338,0.006218,-0.000340,87.038311,0.006992,
1770,1390,-2.748217,-6.443737,0.999996,0.000267,-0.005346,0.010454,0.000357,0.010462,-0.005354,88.705867,0.010463,
700,520,2.259373,-15.246674,0.999996,0.000242,-0.005207,0.010316,-0.000142,0.010317,-0.005208,-89.476123,0.010317,
1660,990,-3.253823,-10.463563,0.999997,0.000202,-0.004097,0.010165,-0.000429,0.010178,-0.004110,-88.278456,0.010240,
1830,770,-3.428131,-12.493756,0.999996,0.000253,-0.004955,0.009912,-0.000604,0.009936,-0.004979,-87.675991,0.009936,
650,1930,0.903361,-1.023014,0.999996,0.000246,-0.003746,0.010404,-0.002356,0.010786,-0.004128,-80.790922,0.010884,
630,1720,2.055215,-3.257059,0.999997,0.000238,-0.004847,0.010015,0.000056,0.010015,-0.004847,89.783987,0.010017,
1340,860,-0.777613,-14.268500,0.999989,0.000415,-0.003923,0.005749,0.003454,0.006856,-0.005030,72.232061,0.007101,
630,1860,1.450662,-1.835747,0.999996,0.000255,-0.004792,0.010235,-0.000681,0.010266,-0.004823,-87.410314,0.010272,
1580,100,-0.238943,-19.598747,0.999998,0.000190,-0.001405,0.007356,-0.001336,0.007555,-0.001604,-81.520644,0.007961,
1270,1660,-0.087976,-2.504157,0.999997,0.000202,-0.002262,0.007125,-0.000200,0.007129,-0.002266,-88.777856,0.007285,
1220,1470,0.028186,-3.779506,0.999998,0.000174,-0.002447,0.006171,0.000334,0.006184,-0.002460,87.781349,0.006227,
1730,1130,-3.433280,-9.067263,0.999994,0.000262,-0.004591,0.009898,0.000830,0.009946,-0.004639,86.730795,0.009953,
1510,260,-0.538266,-18.401483,0.999996,0.000247,-0.002803,0.008112,-0.000283,0.008119,-0.002810,-88.517316,0.008246,
1240,100,-0.004595,-19.673507,0.999998,0.000166,-0.000548,0.006184,-0.000011,0.006184,-0.000548,-89.902913,0.006847,
1170,1360,0.140778,-4.503342,0.999998,0.000197,-0.002747,0.005356,0.002161,0.005896,-0.003288,75.960666,0.005909,
1470,1240,-1.395755,-7.068346,0.999992,0.000367,-0.007842,0.012942,-0.001122,0.013003,-0.007902,-86.918627,0.013103,
1440,1070,-2.316764,-9.304336,0.999989,0.000382,-0.006581,0.017297,-0.001262,0.017364,-0.006648,-86.984063,0.017522,
750,1330,2.646225,-6.935797,0.999996,0.000255,-0.005687,0.010768,-0.000647,0.010793,-0.005712,-87.753354,0.010799,
1410,470,-0.506443,-16.868097,0.999996,0.000242,-0.003394,0.008108,0.000963,0.008188,-0.003474,85.248847,0.008219,
1660,760,-2.468981,-12.966902,0.999993,0.000330,-0.006040,0.011247,-0.000752,0.011280,-0.006073,-87.513760,0.011291,
1560,1620,-1.052513,-3.412535,0.999997,0.000215,-0.004370,0.009435,-0.000547,0.009457,-0.004391,-87.733996,0.009465,
560,80,0.932751,-19.256511,0.999986,0.000000,-0.005149,0.013815,0.002747,0.014205,-0.005539,81.920478,0.014319,
1630,740,-2.204176,-13.276421,0.999996,0.000258,-0.006352,0.011486,-0.000455,0.011497,-0.006364,-88.539548,0.011519,
1260,1790,-0.046214,-1.580637,0.999998,0.000155,-0.001607,0.006895,-0.000064,0.006895,-0.001607,-89.566189,0.007216,
1380,1130,-1.611330,-7.258707,0.999995,0.000000,-0.003644,0.012929,-0.007702,0.015956,-0.006670,-68.546748,0.016027,
1490,1450,-0.971815,-4.799209,0.999996,0.000246,-0.005395,0.009958,-0.001594,0.010122,-0.005559,-84.133435,0.010138,
1740,290,-1.446987,-17.660995,0.999995,0.000264,-0.004578,0.009991,-0.000412,0.010003,-0.004589,-88.380741,0.010014,
1280,590,-0.120172,-16.310946,0.999997,0.000257,-0.002666,0.006361,0.000855,0.006441,-0.002746,84.635753,0.006465,
670,2010,0.218734,-0.219004,0.999997,0.000219,-0.000530,0.008549,-0.003766,0.009908,-0.001889,-70.161138,0.010521,
1080,1480,0.450788,-4.051751,0.999996,0.000217,-0.003780,0.007912,0.001724,0.008161,-0.004029,81.785271,0.008161,
1130,1980,0.035996,-0.338008,0.999998,0.000152,-0.000426,0.006237,-0.000275,0.006249,-0.000438,-87.637441,0.006977,
1590,880,-2.575675,-11.729976,0.999994,0.000308,-0.005694,0.011783,-0.001424,0.011898,-0.005810,-85.371769,0.011899,
1320,50,-0.015012,-19.975943,0.999998,0.000157,-0.000249,0.006008,-0.000200,0.006015,-0.000255,-88.171260,0.006803,
960,890,2.099022,-11.873922,0.999996,0.000249,-0.006568,0.013330,0.000893,0.013370,-0.006608,87.434826,0.013371,
810,1500,1.769692,-4.918167,0.999998,0.000184,-0.005425,0.010426,0.000387,0.010435,-0.005434,88.603820,0.010438,
860,290,0.901251,-17.979468,0.999998,0.000148,-0.003615,0.009026,0.000381,0.009037,-0.003627,88.276080,0.009095,
1350,1970,-0.051508,-0.403790,0.999998,0.000166,-0.000463,0.006294,0.000319,0.006309,-0.000478,87.304129,0.007026,
1190,1660,0.094950,-2.505644,0.999997,0.000216,-0.002287,0.007142,0.000190,0.007146,-0.002291,88.847215,0.007297,
1320,870,-0.840926,-14.580335,0.999975,0.000665,-0.003681,0.003602,0.002083,0.004156,-0.004235,75.112067,0.004845,
1640,990,-3.174576,-10.467910,0.999996,0.000207,-0.004045,0.010311,-0.000498,0.010328,-0.004063,-88.017315,0.010406,
790,1360,2.302604,-6.499652,0.999995,0.000276,-0.005966,0.011040,-0.000327,0.011046,-0.005973,-88.897690,0.011058,
1150,630,0.207755,-15.967451,0.999997,0.000217,-0.002985,0.006468,-0.001731,0.006775,-0.003292,-79.941404,0.006776,
570,690,3.467399,-13.107900,0.999092,0.003390,-0.005475,0.009425,0.000518,0.009443,-0.005493,88.010000,0.009485,
1480,690,-1.051646,-14.524385,0.999995,0.000295,-0.006441,0.010926,0.001897,0.011131,-0.006646,83.837946,0.011201,
870,1440,1.580540,-5.340838,0.999995,0.000278,-0.005885,0.010680,0.000628,0.010704,-0.005909,87.830410,0.010723,
680,1210,3.452326,-8.320527,0.999995,0.000285,-0.004889,0.009838,-0.000905,0.009894,-0.004944,-86.498068,0.009894,
1420,1810,-0.307935,-1.536022,0.999998,0.000184,-0.002131,0.007454,0.000121,0.007456,-0.002133,89.277782,0.007680,
1200,1470,0.077946,-3.799449,0.999998,0.000196,-0.002502,0.006234,0.000543,0.006268,-0.002536,86.459398,0.006306,
840,180,0.605645,-18.923015,0.999997,0.000215,-0.002317,0.008423,0.001282,0.008574,-0.002468,83.285360,0.008827,
610,200,1.576410,-18.183152,0.999994,0.000280,-0.004886,0.010055,0.000453,0.010069,-0.004900,88.263085,0.010070,
1580,80,-0.183565,-19.738324,0.999998,0.000168,-0.001078,0.007128,-0.001371,0.007351,-0.001301,-80.761446,0.007846,
990,260,0.441249,-18.451905,0.999995,0.000247,-0.002211,0.007881,0.000314,0.007891,-0.002221,88.219778,0.008138,
760,190,0.883805,-18.723095,0.999997,0.000189,-0.003263,0.009387,0.001534,0.009571,-0.003446,83.183670,0.009695,
1010,1980,0.085598,-0.356538,0.999998,0.000169,-0.000455,0.006593,-0.000764,0.006675,-0.000537,-83.885945,0.007417,
920,980,2.769919,-10.632370,0.999996,0.000267,-0.003981,0.011706,0.000965,0.011765,-0.004040,86.493524,0.011956,
730,140,0.714311,-19.151967,0.999996,0.000219,-0.003011,0.009169,0.002153,0.009539,-0.003380,80.267057,0.009673,
1240,80,-0.003176,-19.794534,0.999998,0.000159,-0.000427,0.006092,-0.000007,0.006092,-0.000427,-89.934907,0.006802,
960,1270,1.510581,-6.902658,0.999992,0.000327,-0.007535,0.012583,0.000739,0.012610,-0.007562,87.898479,0.012693,
610,1720,2.151482,-3.329698,0.999998,0.000199,-0.004812,0.009928,0.000132,0.009929,-0.004813,89.488427,0.009930,
990,1550,0.777225,-3.785907,0.999996,0.000229,-0.004171,0.008964,0.001107,0.009056,-0.004264,85.216144,0.009061,
1790,810,-3.370954,-12.175171,0.999996,0.000250,-0.005002,0.010046,-0.000888,0.010099,-0.005055,-86.633306,0.010099,
1730,1110,-3.478351,-9.266407,0.999995,0.000262,-0.004516,0.009993,0.000858,0.010044,-0.004567,86.626886,0.010057,
700,500,2.198547,-15.454772,0.999997,0.000220,-0.005149,0.010274,-0.000165,0.010276,-0.005151,-89.386638,0.010276,
1240,1790,-0.014383,-1.575273,0.999999,0.000129,-0.001685,0.006879,-0.000047,0.006879,-0.001685,-89.686132,0.007171,
1630,720,-2.129383,-13.508979,0.999995,0.000301,-0.006304,0.011407,-0.000269,0.011411,-0.006308,-89.130037,0.011432,
1700,1270,-2.801793,-7.557963,0.999997,0.000203,-0.005639,0.010929,0.000980,0.010986,-0.005697,86.626966,0.010989,
1830,750,-3.357021,-12.691617,0.999996,0.000236,-0.004962,0.009892,-0.000570,0.009914,-0.004984,-87.804954,0.009914,
1380,1120,-1.668137,-7.410556,0.999981,0.000000,-0.003863,0.014458,-0.008460,0.017767,-0.007172,-68.639039,0.017877,
1020,800,1.109658,-13.504397,0.999994,0.000282,-0.007744,0.012305,-0.002231,0.012550,-0.007989,-83.725973,0.012705,
560,70,0.860628,-19.390281,0.999960,0.000000,-0.005043,0.014264,0.004005,0.015062,-0.005841,78.733153,0.015188,
1350,1950,-0.063337,-0.531279,0.999998,0.000156,-0.000632,0.006417,0.000320,0.006431,-0.000646,87.404591,0.007083,
1090,420,0.354616,-17.353812,0.999997,0.000206,-0.002818,0.007660,-0.000600,0.007694,-0.002852,-86.732765,0.007780,
1430,920,-1.830321,-12.007865,0.999992,0.000355,-0.006588,0.014691,0.002042,0.014885,-0.006782,84.568715,0.014905,
1250,1660,-0.043138,-2.494088,0.999998,0.000198,-0.002298,0.007095,-0.000207,0.007100,-0.002303,-88.740379,0.007244,
640,490,2.479147,-15.363592,0.999996,0.000255,-0.005082,0.010182,-0.000116,0.010183,-0.005083,-89.564167,0.010183,
1750,220,-1.201070,-18.330910,0.999996,0.000252,-0.004450,0.009895,-0.000913,0.009953,-0.004508,-86.372808,0.009968,
870,1810,0.737259,-1.760073,0.999997,0.000203,-0.003256,0.008731,-0.000619,0.008763,-0.003288,-87.051019,0.008853,
1560,1600,-1.087847,-3.603395,0.999997,0.000203,-0.004443,0.009479,-0.000621,0.009507,-0.004470,-87.452101,0.009512,
790,1500,1.877929,-4.986713,0.999997,0.000243,-0.005414,0.010414,0.000306,0.010420,-0.005420,88.892447,0.010423,
790,1710,1.331059,-2.865741,0.999995,0.000252,-0.004498,0.009699,-0.000053,0.009699,-0.004498,-89.788040,0.009708,
670,2000,0.294719,-0.304275,0.999997,0.000237,-0.000894,0.008936,-0.003850,0.010265,-0.002223,-70.962087,0.010800,
1100,1380,0.383543,-4.747471,0.999996,0.000246,-0.004382,0.007735,0.002944,0.008412,-0.005059,77.039669,0.008470,
1770,1590,-2.136206,-4.371178,0.999997,0.000198,-0.005075,0.010187,-0.000199,0.010189,-0.005077,-89.251695,0.010189,
1640,1780,-0.982727,-2.109047,0.999997,0.000241,-0.003473,0.009257,0.000641,0.009289,-0.003506,87.123562,0.009382,
1320,860,-0.715308,-14.615372,0.999997,0.000209,-0.003960,0.003929,0.002012,0.004412,-0.004443,76.485441,0.005113,
1260,240,-0.043386,-18.752641,0.999998,0.000167,-0.001476,0.006824,0.000015,0.006824,-0.001476,89.896101,0.007181,
910,1860,0.480232,-1.279608,0.999996,0.000221,-0.002029,0.008060,-0.000936,0.008146,-0.002116,-84.742464,0.008454,
740,1000,3.524929,-10.351449,0.999996,0.000241,-0.004278,0.009782,0.000349,0.009790,-0.004287,88.578233,0.009816,
660,1240,3.453887,-8.057443,0.999996,0.000243,-0.004924,0.009870,-0.000806,0.009913,-0.004968,-86.891794,0.009913,
1670,500,-1.721519,-15.756344,0.999995,0.000245,-0.005147,0.010236,0.000363,0.010245,-0.005156,88.649122,0.010245,
1410,450,-0.492441,-17.029406,0.999996,0.000248,-0.003330,0.008063,0.000869,0.008129,-0.003396,85.663431,0.008165,
940,890,2.230791,-11.785334,0.999993,0.000289,-0.006316,0.012883,0.001182,0.012955,-0.006388,86.490833,0.012955,
1550,1320,-1.654827,-6.525827,0.999992,0.000318,-0.006966,0.011931,-0.000449,0.011942,-0.006976,-88.638877,0.011998,
1080,1190,1.043073,-6.719059,0.999987,0.000408,-0.006444,0.010503,0.004127,0.011455,-0.007396,77.016308,0.011616,
1260,230,-0.039625,-18.821480,0.999998,0.000174,-0.001411,0.006782,0.000019,0.006782,-0.001411,89.864923,0.007157,
840,160,0.531115,-19.089093,0.999997,0.000220,-0.002056,0.008350,0.001481,0.008557,-0.002263,82.057591,0.008868,
870,1360,1.807711,-6.234863,0.999997,0.000214,-0.006430,0.011433,0.000266,0.011437,-0.006434,89.145889,0.011467,
1420,1790,-0.331426,-1.684394,0.999997,0.000203,-0.002304,0.007511,0.000027,0.007511,-0.002304,89.839981,0.007696,
1320,1620,-0.217789,-2.834922,0.999998,0.000191,-0.002721,0.007312,-0.000626,0.007351,-0.002760,-86.442423,0.007427,
720,70,0.325989,-19.745613,0.999992,0.000322,-0.001937,0.008354,0.002733,0.009035,-0.002618,76.012203,0.009297,
760,210,0.977977,-18.529018,0.999996,0.000228,-0.003518,0.009534,0.001347,0.009671,-0.003655,84.170200,0.009767,
1150,610,0.213577,-16.097542,0.999997,0.000220,-0.002941,0.006605,-0.001535,0.006846,-0.003182,-81.085552,0.006851,
710,1020,3.670982,-10.150900,0.999997,0.000198,-0.004294,0.009670,0.000152,0.009672,-0.004296,89.378282,0.009692,
630,1840,1.556630,-2.041253,0.999996,0.000250,-0.004841,0.010209,-0.000522,0.010228,-0.004859,-88.016555,0.010232,
990,1980,0.093605,-0.357379,0.999999,0.000112,-0.000451,0.006666,-0.000828,0.006761,-0.000546,-83.448297,0.007511,
1570,880,-2.459580,-11.772988,0.999995,0.000254,-0.005928,0.012083,-0.001391,0.012190,-0.006035,-85.608618,0.012191,
890,640,1.524374,-14.624945,0.999995,0.000258,-0.006116,0.010980,-0.000774,0.011015,-0.006151,-87.412364,0.011040,
1260,1470,-0.070305,-3.795489,0.999998,0.000149,-0.002476,0.006206,-0.000524,0.006238,-0.002507,-86.556220,0.006278,
1750,100,-0.522574,-19.487309,0.999995,0.000296,-0.003091,0.008786,-0.002298,0.009215,-0.003520,-79.422415,0.009301,
990,1310,1.136603,-6.215868,0.999995,0.000311,-0.007231,0.011729,0.001843,0.011907,-0.007408,84.499820,0.012025,
1780,1980,-0.444419,-0.492817,0.999994,0.000279,-0.001911,0.009359,0.003578,0.010399,-0.002951,73.792819,0.010718,
700,480,2.144380,-15.659443,0.999998,0.000189,-0.005076,0.010215,-0.000187,0.010217,-0.005078,-89.298874,0.010217,
970,260,0.488591,-18.427862,0.999996,0.000238,-0.002680,0.008011,0.000274,0.008018,-0.002687,88.533438,0.008162,
1580,60,-0.117781,-19.884593,0.999997,0.000187,-0.000786,0.006991,-0.001393,0.007233,-0.001028,-80.144107,0.007826,
1140,1270,0.284637,-5.199211,0.999994,0.000275,-0.004454,0.005944,0.004213,0.007437,-0.005947,70.488236,0.007870,
1680,1270,-2.687416,-7.519112,0.999996,0.000240,-0.005802,0.011093,0.000980,0.011150,-0.005859,86.690311,0.011155,
1200,510,0.080468,-16.853788,0.999998,0.000174,-0.002535,0.006770,-0.000366,0.006784,-0.002549,-87.751759,0.006853,
1490,1740,-0.583153,-2.176251,0.999996,0.000214,-0.003034,0.008307,-0.000027,0.008307,-0.003034,-89.864165,0.008407,
560,60,0.767164,-19.559168,0.999813,0.000000,-0.004242,0.014423,0.006216,0.016304,-0.006123,73.166136,0.016471,
1730,1090,-3.523547,-9.469913,0.999995,0.000261,-0.004395,0.009887,0.000631,0.009915,-0.004423,87.475277,0.009934,
1780,1610,-2.131548,-4.196062,0.999996,0.000250,-0.005023,0.010166,-0.000171,0.010168,-0.005025,-89.353717,0.010169,
610,1700,2.217326,-3.529027,0.999997,0.000212,-0.004841,0.009950,0.000089,0.009950,-0.004841,89.654473,0.009951,
870,1790,0.790975,-1.930505,0.999997,0.000192,-0.003465,0.008769,-0.000451,0.008786,-0.003481,-87.892408,0.008849,
920,960,2.707016,-10.862450,0.999995,0.000277,-0.004399,0.011781,0.001211,0.011871,-0.004489,85.742441,0.011988,
1600,510,-1.384924,-15.886702,0.999995,0.000274,-0.005044,0.010045,0.000613,0.010070,-0.005069,87.675923,0.010070,
1240,60,-0.001459,-19.916829,0.999998,0.000158,-0.000318,0.006055,-0.000013,0.006055,-0.000318,-89.879575,0.006815,
1380,1110,-1.739825,-7.560132,0.999981,0.000000,-0.004663,0.016794,-0.009114,0.020142,-0.008012,-69.825959,0.020282,
1400,1140,-1.597973,-7.607328,0.999986,0.000429,-0.005468,0.013279,-0.005473,0.014760,-0.006949,-74.861507,0.014768,
1560,1580,-1.122809,-3.793550,0.999997,0.000219,-0.004566,0.009567,-0.000681,0.009600,-0.004598,-87.247223,0.009603,
1350,1930,-0.082594,-0.662942,0.999998,0.000143,-0.000765,0.006519,0.000289,0.006530,-0.000776,87.728665,0.007135,
1190,740,0.086948,-15.534851,0.999997,0.000186,-0.002423,0.003899,-0.002001,0.004479,-0.003003,-73.832465,0.004565,
1830,730,-3.284984,-12.889264,0.999997,0.000196,-0.004995,0.009970,-0.000488,0.009986,-0.005011,-88.135090,0.009986,
1870,1500,-2.909048,-5.608573,0.999996,0.000215,-0.005074,0.010198,-0.000001,0.010198,-0.005074,-89.997318,0.010198,
920,1870,0.433433,-1.190827,0.999995,0.000251,-0.001821,0.007839,-0.000915,0.007925,-0.001906,-84.638405,0.008273,
640,1080,3.937193,-9.598936,0.999997,0.000207,-0.004298,0.009013,-0.000183,0.009015,-0.004301,-89.211915,0.009019,
1640,1760,-1.045213,-2.298471,0.999997,0.000216,-0.003669,0.009392,0.000484,0.009410,-0.003687,87.879862,0.009483,
1050,1220,1.054948,-6.779888,0.999992,0.000354,-0.007675,0.012152,0.002841,0.012550,-0.008074,82.005393,0.012721,
880,890,2.587583,-11.623900,0.999995,0.000302,-0.005556,0.011854,0.001467,0.011977,-0.005679,85.216166,0.011982,
790,1690,1.390074,-3.056529,0.999995,0.000266,-0.004578,0.009756,0.000049,0.009756,-0.004579,89.804581,0.009762,
700,90,0.504945,-19.551098,0.999997,0.000177,-0.002836,0.008735,0.002580,0.009284,-0.003385,77.982101,0.009397,
1320,1600,-0.222845,-2.981704,0.999998,0.000195,-0.002839,0.007251,-0.000700,0.007299,-0.002888,-86.050712,0.007352,
1820,1890,-1.206367,-1.467804,0.999994,0.000273,-0.004413,0.010429,0.001408,0.010562,-0.004545,84.629547,0.010596,
1400,1810,-0.263909,-1.513808,0.999996,0.000214,-0.001872,0.007333,0.000152,0.007336,-0.001875,89.055668,0.007622,
1320,850,-0.591578,-14.651368,0.999991,0.000343,-0.004262,0.004439,0.002436,0.005075,-0.004897,75.378762,0.005760,
840,130,0.418035,-19.336732,0.999997,0.000213,-0.001623,0.007990,0.001607,0.008251,-0.001885,80.756451,0.008648,
1410,430,-0.477074,-17.193912,0.999995,0.000260,-0.003278,0.008060,0.000795,0.008116,-0.003334,86.009336,0.008159,
700,460,2.087575,-15.865518,0.999997,0.000217,-0.005026,0.010152,-0.000180,0.010154,-0.005028,-89.320271,0.010154,
740,980,3.510454,-10.546006,0.999996,0.000246,-0.004332,0.009810,0.000401,0.009821,-0.004343,88.376427,0.009843,
1010,170,0.248947,-19.146769,0.999997,0.000207,-0.001322,0.007167,0.000587,0.007208,-0.001362,86.066213,0.007658,
1800,70,-0.423449,-19.712435,0.999997,0.000236,-0.001447,0.009735,-0.003987,0.011011,-0.002723,-72.253855,0.011471,
1410,920,-1.700247,-12.290210,0.999987,0.000396,-0.006203,0.014102,0.004438,0.015029,-0.007131,78.194908,0.015036,
1790,790,-3.297534,-12.379501,0.999997,0.000242,-0.005097,0.010099,-0.000830,0.010145,-0.005142,-86.881181,0.010145,
1490,1240,-1.552784,-7.208366,0.999992,0.000319,-0.007783,0.013036,-0.000641,0.013056,-0.007803,-88.239338,0.013138,
1180,510,0.130493,-16.838419,0.999998,0.000138,-0.002569,0.006892,-0.000474,0.006916,-0.002592,-87.141001,0.006987,
1260,220,-0.038990,-18.888907,0.999998,0.000181,-0.001332,0.006723,0.000026,0.006723,-0.001332,89.812111,0.007120,
890,440,1.117706,-16.662094,0.999997,0.000212,-0.004428,0.009495,-0.000507,0.009513,-0.004447,-87.915900,0.009520,
1100,100,0.065760,-19.659523,0.999998,0.000165,-0.000504,0.006397,0.000363,0.006416,-0.000523,86.998928,0.007126,
710,1300,2.978121,-7.346825,0.999996,0.000271,-0.005334,0.010498,-0.000807,0.010539,-0.005375,-87.090658,0.010540,
560,50,0.597200,-19.688174,0.999670,0.000000,-0.003222,0.014596,0.008376,0.017915,-0.006541,68.383764,0.018131,
670,1740,1.792634,-2.922470,0.999996,0.000231,-0.004800,0.010036,-0.000139,0.010038,-0.004802,-89.463854,0.010041,
1570,1990,-0.127321,-0.307457,0.999998,0.000179,-0.000714,0.006963,0.001329,0.007187,-0.000937,80.454612,0.007814,
1700,1590,-1.784531,-4.143329,0.999996,0.000237,-0.005045,0.010134,-0.000274,0.010139,-0.005050,-88.964568,0.010139,
1290,1980,-0.020226,-0.335165,0.999998,0.000190,-0.000279,0.006150,0.000193,0.006155,-0.000285,88.279055,0.006949,
1580,1610,-1.158095,-3.566650,0.999997,0.000240,-0.004447,0.009570,-0.000511,0.009589,-0.004465,-87.915940,0.009596,
1880,270,-2.041077,-17.368641,0.999997,0.000204,-0.004843,0.009763,-0.000048,0.009763,-0.004843,-89.812283,0.009763,
1530,1340,-1.452181,-6.196697,0.999995,0.000273,-0.006870,0.011654,-0.000889,0.011697,-0.006913,-87.259432,0.011761,
1230,840,0.014286,-15.384801,0.999980,0.000549,-0.007968,0.003128,-0.000097,0.003128,-0.007969,-89.496646,0.008030,
1560,1560,-1.154745,-3.984591,0.999997,0.000219,-0.004786,0.009706,-0.000781,0.009748,-0.004828,-86.924594,0.009749,
1380,950,-1.767448,-12.520213,0.999980,0.000000,-0.004373,0.017501,0.009088,0.020784,-0.007656,70.138004,0.021023,
870,1770,0.849820,-2.112536,0.999997,0.000211,-0.003647,0.008957,-0.000358,0.008967,-0.003657,-88.374076,0.009018,
1350,1910,-0.095337,-0.790918,0.999998,0.000154,-0.000926,0.006620,0.000281,0.006630,-0.000936,87.870913,0.007176,
840,140,0.454317,-19.260488,0.999997,0.000218,-0.001740,0.008074,0.001558,0.008315,-0.001982,81.195137,0.008686,
1040,1070,2.197776,-9.177096,0.999983,0.000513,-0.008297,0.020177,0.003019,0.020494,-0.008614,84.013569,0.020580,
920,1190,2.212848,-8.123372,0.999995,0.000284,-0.006518,0.012666,-0.001114,0.012731,-0.006583,-86.687631,0.012733,
1600,490,-1.343537,-16.087258,0.999995,0.000270,-0.004937,0.009915,0.000605,0.009939,-0.004962,87.670668,0.009939,
600,730,3.449587,-12.801322,0.999993,0.000299,-0.004921,0.009799,0.000334,0.009806,-0.004929,88.701750,0.009806,
1320,1580,-0.227375,-3.129366,0.999998,0.000187,-0.002881,0.007260,-0.000797,0.007322,-0.002944,-85.533653,0.007369,
710,1840,1.190233,-1.789364,0.999997,0.000240,-0.004499,0.009880,-0.000946,0.009942,-0.004561,-86.251291,0.009953,
1460,1910,-0.210745,-0.837373,0.999997,0.000195,-0.001048,0.007046,0.000697,0.007105,-0.001108,85.112365,0.007646,
1170,740,0.135295,-15.438507,0.999995,0.000305,-0.002913,0.004671,-0.002825,0.005608,-0.003849,-71.657045,0.005736,
640,1040,3.971878,-9.964727,0.999997,0.000234,-0.004319,0.009103,-0.000211,0.009106,-0.004322,-89.100639,0.009110,
1220,830,0.067811,-15.404950,0.999995,0.000274,-0.006057,0.002760,-0.000156,0.002762,-0.006059,-88.988716,0.006067,
1530,480,-0.996114,-16.414925,0.999995,0.000254,-0.004564,0.009457,0.000886,0.009513,-0.004619,86.397078,0.009515,
560,40,0.372753,-19.833359,0.999762,0.000000,-0.001343,0.014196,0.009864,0.018983,-0.006130,64.113182,0.019376,
1230,1990,0.000598,-0.272379,0.999999,0.000140,-0.000341,0.006085,-0.000008,0.006085,-0.000341,-89.924816,0.006839,
920,940,2.614714,-11.103430,0.999995,0.000278,-0.004831,0.012014,0.001433,0.012135,-0.004952,85.173680,0.012203,
1830,710,-3.215878,-13.094033,0.999997,0.000195,-0.005026,0.010066,-0.000421,0.010078,-0.005038,-88.402340,0.010078,
1570,1970,-0.182854,-0.450759,0.999998,0.000171,-0.001008,0.007118,0.001294,0.007319,-0.001209,81.165599,0.007847,
1000,1590,0.695948,-3.398334,0.999996,0.000235,-0.003983,0.008756,0.000996,0.008833,-0.004060,85.556167,0.008843,
1590,1240,-2.263505,-7.652687,0.999995,0.000285,-0.006490,0.012015,0.000917,0.012060,-0.006535,87.169557,0.012075,
970,1080,2.547403,-9.385018,0.999994,0.000339,-0.004550,0.013168,-0.000820,0.013206,-0.004588,-87.355962,0.013410,
1480,480,-0.779252,-16.578228,0.999997,0.000191,-0.004082,0.008905,0.000965,0.008977,-0.004153,85.775478,0.008985,
1700,1570,-1.835099,-4.346837,0.999997,0.000224,-0.005104,0.010202,-0.000275,0.010207,-0.005109,-88.970524,0.010207,
1890,1270,-3.769172,-7.973338,0.999995,0.000269,-0.004690,0.009321,0.000193,0.009323,-0.004693,89.210733,0.009324,
1850,1500,-2.807456,-5.545858,0.999996,0.000235,-0.005075,0.010197,-0.000031,0.010197,-0.005075,-89.881823,0.010197,
790,1670,1.441332,-3.257856,0.999995,0.000273,-0.004652,0.009867,0.000118,0.009868,-0.004653,89.533657,0.009874,
1010,150,0.210387,-19.292807,0.999997,0.000183,-0.001145,0.007109,0.000640,0.007159,-0.001194,85.590195,0.007670,
740,960,3.483067,-10.745714,0.999995,0.000257,-0.004430,0.009970,0.000740,0.010008,-0.004468,87.064246,0.010027,
1560,1610,-1.071546,-3.507276,0.999997,0.000221,-0.004395,0.009457,-0.000591,0.009482,-0.004421,-87.559954,0.009489,
650,1740,1.889386,-2.987442,0.999995,0.000272,-0.004862,0.010028,-0.000118,0.010028,-0.004863,-89.547070,0.010030,
1000,1810,0.395714,-1.579895,0.999997,0.000199,-0.001986,0.007757,-0.000377,0.007772,-0.002001,-87.784872,0.008071,
1010,1140,1.943730,-8.318011,0.999993,0.000300,-0.006644,0.014463,0.000367,0.014469,-0.006651,89.004951,0.014485,
1100,60,0.030557,-19.912686,0.999998,0.000167,-0.000269,0.006199,0.000365,0.006219,-0.000289,86.776190,0.007020,
1270,1980,-0.015370,-0.335554,0.999998,0.000209,-0.000310,0.006143,0.000137,0.006146,-0.000313,88.784394,0.006923,
1560,1540,-1.192038,-4.182805,0.999997,0.000243,-0.005020,0.009873,-0.000866,0.009924,-0.005070,-86.684912,0.009924,
1380,940,-1.699185,-12.675119,0.999980,0.000000,-0.004046,0.015148,0.008696,0.018502,-0.007400,68.910147,0.018625,
1180,530,0.130796,-16.702036,0.999998,0.000184,-0.002612,0.006838,-0.000586,0.006874,-0.002649,-86.465538,0.006934,
1260,200,-0.036810,-19.022137,0.999998,0.000172,-0.001193,0.006654,-0.000023,0.006654,-0.001193,-89.832630,0.007095,
1220,840,0.090317,-15.373350,0.999986,0.000469,-0.007767,0.003057,0.000026,0.003057,-0.007767,89.864612,0.007825,
1780,50,-0.245397,-19.901099,0.999998,0.000211,-0.000862,0.008497,-0.003551,0.009692,-0.002057,-71.401749,0.010213,
1360,380,-0.301271,-17.674258,0.999998,0.000179,-0.002484,0.007583,0.000318,0.007593,-0.002494,88.192013,0.007740,
1640,1310,-2.287941,-6.968128,0.999993,0.000324,-0.006277,0.011396,0.000560,0.011413,-0.006295,88.185793,0.011433,
1870,270,-1.992372,-17.409086,0.999995,0.000247,-0.004849,0.009832,-0.000077,0.009832,-0.004849,-89.699947,0.009833,
1830,1160,-3.820802,-8.870812,0.999995,0.000272,-0.004486,0.009174,0.000519,0.009193,-0.004506,87.826252,0.009194,
590,730,3.498404,-12.772952,0.999994,0.000292,-0.005175,0.009892,0.000310,0.009898,-0.005181,88.823552,0.009902,
640,270,1.763609,-17.595852,0.999996,0.000240,-0.004795,0.010129,0.000327,0.010136,-0.004802,88.745273,0.010141,
840,120,0.378924,-19.416384,0.999997,0.000213,-0.001495,0.007960,0.001657,0.008242,-0.001777,80.341352,0.008675,
1890,1860,-1.728927,-2.103347,0.999997,0.000190,-0.004884,0.009834,0.000439,0.009847,-0.004897,88.293565,0.009847,
870,1750,0.901054,-2.290445,0.999997,0.000217,-0.003778,0.009000,-0.000171,0.009002,-0.003780,-89.234465,0.009040,
630,410,2.293836,-16.144522,0.999996,0.000241,-0.004966,0.010043,-0.000142,0.010044,-0.004968,-89.458450,0.010044,
1230,420,0.003177,-17.497425,0.999998,0.000169,-0.002354,0.007064,-0.000016,0.007064,-0.002354,-89.903418,0.007193,
790,1650,1.497900,-3.453559,0.999995,0.000271,-0.004709,0.009889,0.000143,0.009891,-0.004711,89.437363,0.009894,
1570,1950,-0.242317,-0.594014,0.999997,0.000207,-0.001280,0.007374,0.001294,0.007563,-0.001469,81.676724,0.008021,
1830,690,-3.146546,-13.295431,0.999997,0.000218,-0.005073,0.010102,-0.000385,0.010112,-0.005083,-88.546568,0.010112,
690,1840,1.283333,-1.848904,0.999996,0.000226,-0.004551,0.009975,-0.000990,0.010042,-0.004618,-86.119050,0.010053,
1110,840,0.673072,-14.186803,0.999994,0.000331,-0.005566,0.008074,-0.004418,0.009380,-0.006872,-73.532112,0.009713,
1880,1270,-3.721676,-7.945697,0.999996,0.000251,-0.004709,0.009441,0.000256,0.009445,-0.004714,88.965637,0.009445,
1120,1270,0.379958,-5.413385,0.999991,0.000390,-0.005269,0.007327,0.004469,0.008751,-0.006693,72.319053,0.009151,
920,920,2.521892,-11.343028,0.999994,0.000291,-0.005357,0.012247,0.001460,0.012367,-0.005477,85.289877,0.012394,
560,30,0.183655,-19.991096,0.999762,0.000000,0.000681,0.014872,0.010330,0.020309,-0.004756,62.242000,0.021244,
1010,130,0.180763,-19.431900,0.999997,0.000194,-0.000973,0.006927,0.000673,0.006984,-0.001030,85.164352,0.007540,
1490,1430,-1.002490,-5.005146,0.999995,0.000264,-0.005688,0.010102,-0.001704,0.010284,-0.005870,-83.909918,0.010319,
1230,1970,0.000063,-0.395973,0.999998,0.000158,-0.000481,0.006155,-0.000006,0.006155,-0.000481,-89.944685,0.006846,
1530,300,-0.681775,-18.032483,0.999996,0.000234,-0.003035,0.008454,-0.000152,0.008456,-0.003037,-89.243650,0.008567,
1680,1570,-1.735801,-4.283623,0.999997,0.000207,-0.005078,0.010183,-0.000323,0.010190,-0.005085,-88.788662,0.010190,
980,1810,0.435415,-1.600382,0.999996,0.000235,-0.002289,0.007900,-0.000381,0.007915,-0.002303,-87.858881,0.008142,
1040,1060,2.223569,-9.375739,0.999975,0.000667,-0.008744,0.021271,0.002449,0.021470,-0.008943,85.365338,0.021569,
1380,900,-1.372835,-13.168046,0.999987,0.000413,-0.004252,0.010200,0.005791,0.012234,-0.006286,70.643673,0.012236,
1810,1500,-2.603811,-5.420991,0.999996,0.000226,-0.005137,0.010245,-0.000025,0.010245,-0.005137,-89.906597,0.010245,
1090,1470,0.416254,-4.092843,0.999996,0.000212,-0.003728,0.007802,0.001807,0.008079,-0.004005,81.298808,0.008079,
1170,1980,0.021177,-0.336412,0.999998,0.000162,-0.000234,0.006156,-0.000190,0.006162,-0.000240,-88.298926,0.006981,
1560,1760,-0.757841,-2.133184,0.999998,0.000193,-0.003131,0.008714,0.000328,0.008723,-0.003140,88.416165,0.008836,
1540,1610,-0.982305,-3.446004,0.999998,0.000187,-0.004389,0.009363,-0.000691,0.009397,-0.004424,-87.130856,0.009403,
1650,1660,-1.364055,-3.286642,0.999995,0.000246,-0.004622,0.009786,-0.000191,0.009788,-0.004624,-89.239064,0.009793,
740,940,3.437103,-10.946516,0.999995,0.000258,-0.004522,0.009956,0.000870,0.010008,-0.004574,86.574103,0.010020,
1210,840,0.158718,-15.345394,0.999987,0.000433,-0.006850,0.002869,0.000038,0.002869,-0.006851,89.774430,0.006881,
750,1310,2.719219,-7.150491,0.999996,0.000240,-0.005679,0.010725,-0.000792,0.010763,-0.005718,-87.241494,0.010770,
1780,40,-0.176297,-19.981928,0.999998,0.000212,-0.000447,0.008203,-0.003521,0.009455,-0.001699,-70.426484,0.010081,
1380,930,-1.642804,-12.828870,0.999987,0.000000,-0.003851,0.013530,0.008076,0.016703,-0.007024,68.548813,0.016774,
1660,1500,-1.808561,-4.942625,0.999996,0.000242,-0.005443,0.010459,-0.000355,0.010467,-0.005451,-88.722226,0.010470,
1390,320,-0.323750,-18.094923,0.999996,0.000229,-0.002210,0.007567,0.000091,0.007568,-0.002211,89.466389,0.007783,
880,1170,2.560457,-8.476064,0.999994,0.000298,-0.005686,0.011870,-0.001450,0.011989,-0.005805,-85.310319,0.011991,
800,510,1.710604,-15.675287,0.999996,0.000222,-0.005179,0.010248,-0.000368,0.010257,-0.005188,-88.633497,0.010257,
1880,550,-2.944834,-14.572635,0.999997,0.000214,-0.005068,0.010233,-0.000003,0.010233,-0.005068,-89.989140,0.010233,
1360,400,-0.313242,-17.522541,0.999997,0.000214,-0.002599,0.007503,0.000443,0.007523,-0.002619,87.494766,0.007638,
1080,1460,0.455006,-4.208709,0.999996,0.000208,-0.003960,0.008081,0.001993,0.008402,-0.004281,80.839652,0.008403,
1740,540,-2.194337,-15.115146,0.999996,0.000255,-0.005279,0.010331,0.000144,0.010332,-0.005280,89.471526,0.010333,
1260,180,-0.029757,-19.154508,0.999998,0.000162,-0.001043,0.006583,-0.000002,0.006583,-0.001043,-89.984780,0.007077,
1850,280,-1.936851,-17.390931,0.999996,0.000239,-0.004836,0.009940,-0.000093,0.009940,-0.004837,-89.639630,0.009942,
1570,1440,-1.447717,-5.251967,0.999994,0.000273,-0.005896,0.010671,-0.000894,0.010719,-0.005944,-86.920049,0.010740,
840,100,0.299386,-19.576736,0.999997,0.000211,-0.001149,0.007651,0.001674,0.007959,-0.001457,79.584636,0.008475,
1860,1980,-0.685978,-0.689965,0.999995,0.000238,-0.004498,0.011469,0.002833,0.011957,-0.004986,80.230239,0.012011,
1830,670,-3.076641,-13.497496,0.999996,0.000228,-0.005091,0.010144,-0.000317,0.010151,-0.005098,-88.806733,0.010151,
1870,1270,-3.673371,-7.918144,0.999996,0.000246,-0.004753,0.009537,0.000347,0.009545,-0.004761,88.611256,0.009545,
1480,1050,-2.587184,-9.770376,0.999991,0.000363,-0.004323,0.014244,0.000305,0.014249,-0.004328,89.060293,0.014611,
790,1630,1.546846,-3.653379,0.999995,0.000254,-0.004803,0.009969,0.000229,0.009972,-0.004806,89.113303,0.009974,
1800,1690,-1.989992,-3.449607,0.999997,0.000187,-0.004923,0.010063,-0.000011,0.010063,-0.004923,-89.956629,0.010064,
1450,1040,-2.456764,-9.879225,0.999985,0.000492,-0.005927,0.017076,-0.000240,0.017079,-0.005929,-89.402678,0.017342,
1010,110,0.140125,-19.571428,0.999998,0.000195,-0.000782,0.006804,0.000714,0.006871,-0.000849,84.666687,0.007492,
1230,1950,-0.000298,-0.518873,0.999998,0.000153,-0.000617,0.006244,-0.000011,0.006244,-0.000617,-89.906695,0.006881,
1100,1270,0.490715,-5.643074,0.999995,0.000271,-0.005989,0.008661,0.004371,0.009866,-0.007195,74.586324,0.010206,
1570,1930,-0.303933,-0.746505,0.999997,0.000209,-0.001522,0.007593,0.001246,0.007760,-0.001689,82.353384,0.008162,
920,900,2.407724,-11.595557,0.999996,0.000229,-0.005838,0.012472,0.001416,0.012581,-0.005947,85.603081,0.012588,
1790,1500,-2.501377,-5.358560,0.999995,0.000241,-0.005215,0.010273,-0.000032,0.010273,-0.005215,-89.882806,0.010273,
990,1780,0.467453,-1.827203,0.999997,0.000216,-0.002342,0.007944,-0.000234,0.007950,-0.002348,-88.695791,0.008169,
1350,1620,-0.298993,-2.883047,0.999998,0.000228,-0.002708,0.007480,-0.000568,0.007512,-0.002739,-86.820386,0.007603,
1310,210,-0.095669,-18.947692,0.999998,0.000202,-0.001288,0.006754,-0.000133,0.006756,-0.001291,-89.056211,0.007174,
1090,1450,0.416541,-4.252648,0.999997,0.000200,-0.003859,0.007883,0.002037,0.008226,-0.004202,80.434069,0.008227,
1610,680,-1.867704,-14.033388,0.999993,0.000312,-0.006284,0.011249,0.000168,0.011250,-0.006285,89.450987,0.011276,
1380,30,-0.011350,-20.093088,0.999999,0.000000,0.000043,0.006056,-0.000438,0.006088,0.000011,-85.858092,0.007036,
1530,280,-0.637034,-18.205082,0.999996,0.000240,-0.002885,0.008452,-0.000317,0.008461,-0.002894,-88.397677,0.008601,
910,1800,0.642507,-1.779933,0.999997,0.000220,-0.002660,0.008434,-0.000582,0.008464,-0.002691,-87.005990,0.008649,
1560,1520,-1.230849,-4.385174,0.999996,0.000245,-0.005180,0.010042,-0.000906,0.010096,-0.005234,-86.606601,0.010098,
1360,420,-0.322069,-17.374714,0.999997,0.000221,-0.002693,0.007509,0.000537,0.007538,-0.002721,86.993447,0.007634,
730,60,0.246891,-19.838653,0.999994,0.000300,-0.001243,0.008058,0.002742,0.008807,-0.001991,74.737071,0.009236,
1150,1980,0.025101,-0.335449,0.999998,0.000159,-0.000341,0.006197,-0.000237,0.006205,-0.000350,-87.925324,0.006972,
740,920,3.390784,-11.146682,0.999995,0.000244,-0.004622,0.009978,0.000884,0.010031,-0.004676,86.546944,0.010039,
570,600,3.161023,-14.020343,0.999979,0.000530,-0.004720,0.010078,0.000118,0.010079,-0.004721,89.544818,0.010086,
860,1170,2.671983,-8.513433,0.999996,0.000305,-0.005479,0.011603,-0.001438,0.011724,-0.005600,-85.221442,0.011728,
600,530,2.799100,-14.829905,0.999996,0.000222,-0.005046,0.010165,-0.000026,0.010165,-0.005046,-89.901410,0.010166,
1680,430,-1.593694,-16.436029,0.999996,0.000228,-0.004858,0.010006,0.000233,0.010010,-0.004861,89.102323,0.010011,
1280,570,-0.120261,-16.440103,0.999997,0.000222,-0.002657,0.006542,0.000737,0.006600,-0.002716,85.448567,0.006635,
1370,480,-0.374922,-16.897802,0.999998,0.000165,-0.003234,0.007739,0.001054,0.007839,-0.003334,84.563676,0.007868,
630,390,2.232393,-16.345381,0.999995,0.000252,-0.004953,0.010092,-0.000113,0.010093,-0.004954,-89.569987,0.010094,
1250,1370,-0.036990,-4.333365,0.999998,0.000178,-0.002116,0.004654,-0.000711,0.004728,-0.002190,-84.071805,0.004732,
870,1730,0.951793,-2.474898,0.999996,0.000231,-0.003859,0.009280,-0.000082,0.009280,-0.003859,-89.643770,0.009324,
1530,1880,-0.386465,-1.105178,0.999996,0.000232,-0.001788,0.007625,0.000844,0.007700,-0.001864,84.915928,0.008035,
1860,1960,-0.875487,-0.914694,0.999997,0.000204,-0.004645,0.010939,0.002278,0.011265,-0.004971,81.851666,0.011291,
1450,1020,-2.460004,-10.199828,0.999989,0.000435,-0.005914,0.016915,0.000172,0.016916,-0.005915,89.568760,0.017169,
1790,1960,-0.617326,-0.688947,0.999995,0.000256,-0.002483,0.009492,0.003161,0.010275,-0.003266,76.082978,0.010500,
1850,1860,-1.534383,-1.912805,0.999994,0.000293,-0.004902,0.010079,0.000532,0.010098,-0.004921,87.969477,0.010099,
1730,1070,-3.542892,-9.663208,0.999997,0.000225,-0.004295,0.009700,0.000320,0.009707,-0.004302,88.690327,0.009728,
990,1270,1.281979,-6.704418,0.999995,0.000298,-0.007705,0.012488,0.001501,0.012599,-0.007816,85.770820,0.012720,
1060,960,1.926549,-11.788380,0.999980,0.000520,-0.007063,0.019426,-0.006631,0.020993,-0.008630,-76.702891,0.021103,
1010,90,0.112426,-19.704620,0.999998,0.000187,-0.000563,0.006617,0.000689,0.006683,-0.000629,84.565837,0.007381,
1830,650,-3.008369,-13.703506,0.999997,0.000210,-0.005080,0.010207,-0.000239,0.010211,-0.005083,-89.103187,0.010211,
1170,1280,0.154176,-4.877692,0.999997,0.000210,-0.003236,0.004141,0.003207,0.005340,-0.004435,69.496007,0.005716,
1850,50,-0.405076,-19.784828,0.999995,0.000270,-0.003597,0.010296,-0.003558,0.011155,-0.004455,-76.437768,0.011230,
1580,400,-1.068701,-17.021368,0.999996,0.000258,-0.004239,0.009353,0.000327,0.009360,-0.004247,88.623649,0.009374,
1040,830,1.108168,-13.331764,0.999994,0.000296,-0.007807,0.012472,-0.002535,0.012784,-0.008119,-82.981282,0.012938,
1330,1620,-0.245508,-2.852720,0.999998,0.000179,-0.002734,0.007384,-0.000637,0.007424,-0.002774,-86.411803,0.007502,
670,1720,1.858039,-3.123221,0.999996,0.000211,-0.004844,0.010057,-0.000018,0.010057,-0.004844,-89.929525,0.010059,
1080,1270,0.616287,-5.868802,0.999992,0.000334,-0.006609,0.009787,0.004040,0.010728,-0.007550,76.884076,0.011021,
1370,2020,-0.015938,-0.096085,0.999997,0.000000,-0.000018,0.006102,0.000337,0.006121,-0.000037,86.859034,0.007046,
1310,190,-0.085021,-19.082280,0.999998,0.000204,-0.001138,0.006678,-0.000151,0.006681,-0.001141,-88.896563,0.007147,
970,1780,0.519139,-1.854159,0.999996,0.000243,-0.002787,0.008086,-0.000199,0.008090,-0.002791,-88.950175,0.008219,
1150,800,0.272299,-14.983046,0.999993,0.000325,-0.004278,0.005096,-0.003916,0.006517,-0.005699,-70.058307,0.007100,
1560,1480,-1.302674,-4.791215,0.999995,0.000260,-0.005464,0.010302,-0.000949,0.010358,-0.005520,-86.568985,0.010366,
1220,650,0.025922,-16.006362,0.999998,0.000165,-0.002235,0.005245,-0.000404,0.005267,-0.002257,-86.917755,0.005285,
1250,1980,-0.008648,-0.335079,0.999998,0.000174,-0.000353,0.006122,0.000048,0.006123,-0.000353,89.574123,0.006875,
1790,1140,-3.684343,-9.013555,0.999998,0.000217,-0.004551,0.009471,0.000665,0.009503,-0.004582,87.292022,0.009505,
1580,710,-1.772582,-13.802589,0.999996,0.000249,-0.006601,0.011594,0.000279,0.011598,-0.006605,89.121738,0.011635,
710,380,1.808643,-16.711171,0.999996,0.000258,-0.004869,0.010121,-0.000077,0.010121,-0.004869,-89.704421,0.010124,
1360,440,-0.328276,-17.222166,0.999997,0.000205,-0.002795,0.007558,0.000655,0.007600,-0.002837,86.393044,0.007681,
1860,1940,-1.046395,-1.126855,0.999996,0.000230,-0.004756,0.010711,0.001635,0.010882,-0.004927,84.032700,0.010898,
1170,1260,0.181500,-4.958625,0.999998,0.000190,-0.003569,0.003871,0.003263,0.005099,-0.004797,69.375407,0.005722,
1850,40,-0.309246,-19.881518,0.999968,0.000671,-0.002870,0.010118,-0.004004,0.011253,-0.004005,-74.172719,0.011408,
1410,410,-0.462113,-17.353548,0.999996,0.000221,-0.003202,0.008034,0.000709,0.008079,-0.003246,86.405534,0.008131,
750,1290,2.798283,-7.366979,0.999996,0.000245,-0.005655,0.010832,-0.000872,0.010878,-0.005701,-86.980027,0.010882,
1090,1430,0.419745,-4.404117,0.999997,0.000213,-0.004032,0.007912,0.002273,0.008330,-0.004450,79.580737,0.008336,
890,360,0.953390,-17.414205,0.999997,0.000222,-0.004092,0.009165,-0.000194,0.009168,-0.004095,-89.162745,0.009186,
1390,950,-1.811378,-12.280834,0.999980,0.000000,-0.005391,0.018077,0.008261,0.020693,-0.008007,72.426961,0.020868,
800,100,0.354472,-19.558431,0.999996,0.000238,-0.001832,0.008029,0.001914,0.008388,-0.002190,79.389608,0.008701,
840,80,0.228890,-19.723488,0.999997,0.000207,-0.000869,0.007484,0.001792,0.007852,-0.001237,78.389017,0.008444,
740,900,3.338722,-11.348444,0.999995,0.000248,-0.004781,0.010239,0.001101,0.010319,-0.004861,85.828119,0.010325,
780,350,1.391759,-17.216705,0.999994,0.000282,-0.004470,0.009786,0.000086,0.009786,-0.004470,89.654369,0.009798,
1830,1540,-2.587993,-5.073886,0.999996,0.000284,-0.005087,0.010168,-0.000092,0.010169,-0.005088,-89.652892,0.010169,
1300,230,-0.093414,-18.812072,0.999998,0.000180,-0.001329,0.006858,-0.000113,0.006860,-0.001330,-89.210264,0.007275,
630,370,2.169816,-16.550429,0.999996,0.000231,-0.004924,0.010087,-0.000071,0.010087,-0.004924,-89.729708,0.010088,
1480,680,-1.031553,-14.632819,0.999995,0.000280,-0.006289,0.010758,0.001889,0.010965,-0.006496,83.753001,0.011027,
1630,460,-1.424810,-16.290268,0.999995,0.000287,-0.004830,0.009907,0.000404,0.009918,-0.004841,88.430713,0.009919,
1230,1930,0.001843,-0.645524,0.999999,0.000136,-0.000735,0.006325,-0.000007,0.006325,-0.000735,-89.942876,0.006918,
880,1810,0.703106,-1.739279,0.999998,0.000158,-0.003193,0.008646,-0.000589,0.008675,-0.003223,-87.160031,0.008770,
660,1810,1.560157,-2.240929,0.999994,0.000273,-0.004637,0.010179,-0.000712,0.010214,-0.004671,-87.255803,0.010226,
1770,480,-2.178463,-15.638274,0.999996,0.000259,-0.005096,0.010228,0.000188,0.010230,-0.005098,89.296149,0.010230,
1550,880,-2.339446,-11.825075,0.999995,0.000293,-0.006145,0.012420,-0.001297,0.012510,-0.006235,-86.021785,0.012510,
1640,1740,-1.104592,-2.486069,0.999997,0.000216,-0.003862,0.009397,0.000269,0.009402,-0.003867,88.836769,0.009451,
1360,590,-0.368362,-16.074406,0.999997,0.000215,-0.003687,0.007590,0.001882,0.007895,-0.003992,80.770487,0.007896,
1700,270,-1.204561,-17.958804,0.999995,0.000266,-0.004084,0.009631,-0.000692,0.009666,-0.004119,-87.117281,0.009701,
1230,1980,-0.000191,-0.334189,0.999999,0.000136,-0.000401,0.006124,-0.000007,0.006124,-0.000401,-89.942294,0.006851,
1580,420,-1.110866,-16.832156,0.999996,0.000241,-0.004298,0.009438,0.000418,0.009451,-0.004311,88.258933,0.009463,
920,880,2.301094,-11.845232,0.999995,0.000254,-0.006275,0.012533,0.001281,0.012620,-0.006362,86.122005,0.012620,
1150,1620,0.198473,-2.823344,0.999998,0.000169,-0.002663,0.007237,0.000543,0.007267,-0.002693,86.870633,0.007348,
700,440,2.032359,-16.067425,0.999996,0.000234,-0.004975,0.010122,-0.000176,0.010124,-0.004977,-89.332029,0.010124,
1490,1410,-1.033841,-5.209872,0.999996,0.000236,-0.005945,0.010357,-0.001731,0.010538,-0.006127,-84.006324,0.010585,
1410,1110,-1.889438,-8.242213,0.999985,0.000485,-0.006688,0.016522,-0.005509,0.017763,-0.007929,-77.302862,0.017797,
890,620,1.475996,-14.842011,0.999995,0.000252,-0.005930,0.010698,-0.000842,0.010740,-0.005973,-87.110092,0.010763,
1150,590,0.212836,-16.229811,0.999998,0.000211,-0.002929,0.006778,-0.001388,0.006973,-0.003124,-82.022841,0.006985,
1280,1790,-0.079155,-1.586412,0.999998,0.000170,-0.001550,0.006916,0.000013,0.006916,-0.001550,89.909065,0.007258,
1560,1460,-1.343243,-5.000834,0.999995,0.000277,-0.005705,0.010399,-0.000945,0.010454,-0.005760,-86.651681,0.010472,
850,1360,1.933212,-6.307939,0.999994,0.000295,-0.006343,0.011363,0.000070,0.011364,-0.006343,89.772459,0.011389,
1740,710,-2.742596,-13.319126,0.999995,0.000258,-0.005534,0.010589,-0.000581,0.010610,-0.005555,-87.940136,0.010614,
1260,160,-0.029087,-19.286523,0.999998,0.000171,-0.000914,0.006534,-0.000032,0.006534,-0.000914,-89.757181,0.007077,
670,1280,3.259825,-7.635217,0.999995,0.000268,-0.005084,0.010075,-0.000763,0.010114,-0.005122,-87.126032,0.010114,
1560,710,-1.640218,-13.884469,0.999994,0.000321,-0.006756,0.011613,0.000540,0.011629,-0.006772,88.316715,0.011681,
1750,200,-1.104749,-18.528366,0.999996,0.000218,-0.004334,0.009934,-0.001108,0.010020,-0.004419,-85.585704,0.010043,
1410,390,-0.442781,-17.515850,0.999997,0.000216,-0.003103,0.007993,0.000619,0.008028,-0.003137,86.817161,0.008091,
990,1250,1.365661,-6.959245,0.999991,0.000358,-0.007829,0.012774,0.001205,0.012845,-0.007899,86.663725,0.012957,
1760,740,-2.961707,-12.957983,0.999997,0.000237,-0.005340,0.010429,-0.000720,0.010462,-0.005373,-87.389370,0.010463,
760,350,1.478504,-17.163615,0.999995,0.000267,-0.004424,0.009891,0.000184,0.009893,-0.004426,89.265510,0.009912,
1790,750,-3.156057,-12.783717,0.999997,0.000209,-0.005154,0.010181,-0.000696,0.010213,-0.005186,-87.406246,0.010213,
750,1300,2.759081,-7.257924,0.999996,0.000247,-0.005669,0.010774,-0.000838,0.010817,-0.005712,-87.091196,0.010822,
1660,1460,-1.915386,-5.362526,0.999996,0.000206,-0.005614,0.010624,-0.000243,0.010627,-0.005618,-89.143578,0.010633,
1010,70,0.077982,-19.837238,0.999998,0.000177,-0.000370,0.006525,0.000762,0.006609,-0.000453,83.771025,0.007383,
800,120,0.448525,-19.390304,0.999996,0.000233,-0.002199,0.008309,0.001813,0.008613,-0.002503,80.479412,0.008861,
1860,1920,-1.199456,-1.343580,0.999995,0.000261,-0.004824,0.010549,0.001252,0.010651,-0.004925,85.374534,0.010661,
1280,230,-0.066898,-18.815666,0.999998,0.000141,-0.001321,0.006821,-0.000046,0.006821,-0.001321,-89.679107,0.007236,
1200,650,0.070448,-15.983518,0.999998,0.000175,-0.002380,0.005418,-0.000822,0.005504,-0.002465,-84.044687,0.005514,
1360,1180,-1.018476,-6.367954,0.999992,0.000344,-0.003851,0.007189,-0.004553,0.008825,-0.005486,-70.242726,0.008911,
800,1170,2.989150,-8.594274,0.999995,0.000269,-0.005082,0.010744,-0.001260,0.010844,-0.005182,-85.474813,0.010848,
740,880,3.269082,-11.559148,0.999996,0.000264,-0.004928,0.010298,0.001159,0.010386,-0.005016,85.672045,0.010388,
1080,1440,0.457018,-4.372619,0.999996,0.000227,-0.004169,0.008150,0.002254,0.008549,-0.004569,79.950949,0.008556,
1570,1880,-0.458624,-1.134705,0.999997,0.000212,-0.002154,0.007951,0.001006,0.008051,-0.002253,84.369133,0.008307,
1780,1690,-1.892632,-3.383942,0.999997,0.000175,-0.004844,0.010067,0.000001,0.010067,-0.004844,89.995607,0.010069,
1330,1600,-0.252168,-2.998741,0.999997,0.000215,-0.002815,0.007320,-0.000709,0.007370,-0.002864,-86.017676,0.007430,
690,580,2.488548,-14.595498,0.999997,0.000207,-0.005280,0.010355,0.000018,0.010355,-0.005280,89.934792,0.010356,
1790,1480,-2.560806,-5.566556,0.999996,0.000241,-0.005227,0.010307,0.000019,0.010307,-0.005227,89.930770,0.010308,
1710,340,-1.478128,-17.244713,0.999995,0.000237,-0.004473,0.009930,-0.000177,0.009932,-0.004475,-89.296304,0.009948,
840,500,1.478896,-15.912591,0.999995,0.000241,-0.005102,0.010074,-0.000509,0.010091,-0.005119,-88.082414,0.010092,
1480,1940,-0.170625,-0.632180,0.999998,0.000198,-0.000937,0.007003,0.000805,0.007084,-0.001018,84.267324,0.007660,
950,480,0.917890,-16.473482,0.999998,0.000197,-0.004451,0.009324,-0.000922,0.009385,-0.004512,-86.188164,0.009387,
1360,850,-0.784011,-13.985914,0.999990,0.000373,-0.005544,0.008571,0.004547,0.009909,-0.006881,73.604517,0.010156,
1830,630,-2.942005,-13.907712,0.999996,0.000232,-0.005098,0.010199,-0.000174,0.010201,-0.005100,-89.348481,0.010201,
920,1300,1.679639,-6.738511,0.999994,0.000317,-0.007126,0.012157,0.000349,0.012163,-0.007132,88.964377,0.012224,
1880,260,-1.998221,-17.467885,0.999997,0.000204,-0.004851,0.009793,-0.000089,0.009793,-0.004852,-89.651410,0.009794,
1370,460,-0.364756,-17.052473,0.999996,0.000225,-0.003091,0.007720,0.000877,0.007791,-0.003162,85.394505,0.007836,
1730,1050,-3.558936,-9.858024,0.999996,0.000235,-0.004262,0.009749,0.000336,0.009757,-0.004270,88.626781,0.009782,
870,1710,1.001260,-2.665209,0.999997,0.000216,-0.003980,0.009267,0.000019,0.009267,-0.003980,89.919356,0.009298,
1310,170,-0.073897,-19.215408,0.999998,0.000166,-0.000982,0.006578,-0.000151,0.006581,-0.000985,-88.859516,0.007100,
1130,1620,0.255039,-2.855962,0.999998,0.000170,-0.002724,0.007374,0.000633,0.007413,-0.002763,86.425506,0.007493,
1650,1780,-1.016798,-2.128245,0.999997,0.000256,-0.003710,0.009345,0.000588,0.009372,-0.003736,87.426509,0.009435,
870,1020,3.023066,-10.160277,0.999997,0.000225,-0.003736,0.010726,0.000177,0.010728,-0.003738,89.299497,0.010891,
630,350,2.105418,-16.752836,0.999996,0.000233,-0.004883,0.010022,-0.000031,0.010022,-0.004884,-89.879740,0.010023,
1650,1560,-1.606418,-4.284808,0.999996,0.000208,-0.005143,0.010166,-0.000423,0.010178,-0.005155,-88.417539,0.010178,
1580,440,-1.148082,-16.641140,0.999997,0.000230,-0.004425,0.009543,0.000482,0.009560,-0.004442,88.027914,0.009568,
1630,1700,-1.168464,-2.843497,0.999996,0.000251,-0.004026,0.009504,0.000138,0.009505,-0.004027,89.415904,0.009542,
900,910,2.573758,-11.422743,0.999994,0.000320,-0.005352,0.011970,0.001456,0.012092,-0.005474,85.227711,0.012110,
1470,1980,-0.092194,-0.358083,0.999998,0.000188,-0.000439,0.006630,0.000813,0.006723,-0.000532,83.521671,0.007475,
920,630,1.318841,-14.859356,0.999995,0.000248,-0.006002,0.010692,-0.001070,0.010761,-0.006071,-86.347580,0.010790,
1150,570,0.214911,-16.367443,0.999997,0.000210,-0.002915,0.006881,-0.001269,0.007043,-0.003076,-82.739015,0.007061,
830,780,2.384529,-12.807505,0.999993,0.000293,-0.006275,0.011525,0.000818,0.011562,-0.006312,87.374952,0.011578,
830,1360,2.060733,-6.375593,0.999995,0.000323,-0.006215,0.011297,-0.000107,0.011298,-0.006215,-89.651026,0.011316,
1660,1440,-1.970899,-5.581997,0.999996,0.000216,-0.005723,0.010790,-0.000180,0.010792,-0.005725,-89.375146,0.010799,
730,1300,2.871482,-7.301101,0.999998,0.000207,-0.005531,0.010649,-0.000830,0.010691,-0.005574,-87.069563,0.010695,
1760,700,-2.816688,-13.373318,0.999996,0.000244,-0.005392,0.010468,-0.000521,0.010485,-0.005409,-88.122048,0.010487,
760,330,1.418570,-17.361899,0.999996,0.000241,-0.004374,0.009874,0.000233,0.009877,-0.004378,89.063661,0.009899,
1360,860,-0.854154,-13.892375,0.999989,0.000387,-0.004948,0.008007,0.004469,0.009400,-0.006340,72.698006,0.009588,
1790,730,-3.081356,-12.991304,0.999997,0.000231,-0.005212,0.010228,-0.000648,0.010255,-0.005239,-87.602241,0.010255,
1410,370,-0.425181,-17.675388,0.999996,0.000229,-0.002963,0.007974,0.000470,0.007994,-0.002983,87.543519,0.008079,
680,1170,3.580048,-8.718630,0.999996,0.000226,-0.004745,0.009802,-0.000874,0.009854,-0.004797,-86.574249,0.009855,
1260,120,-0.021375,-19.544318,0.999998,0.000173,-0.000662,0.006342,-0.000057,0.006342,-0.000663,-89.534758,0.006972,
1080,1420,0.463545,-4.539697,0.999997,0.000204,-0.004379,0.008153,0.002477,0.008625,-0.004851,79.215562,0.008647,
800,140,0.532747,-19.227541,0.999995,0.000252,-0.002593,0.008416,0.001655,0.008659,-0.002836,81.634205,0.008829,
1750,180,-1.001181,-18.730021,0.999996,0.000216,-0.004229,0.009760,-0.001344,0.009888,-0.004357,-84.560544,0.009911,
760,570,2.082997,-14.920824,0.999996,0.000235,-0.005447,0.010462,-0.000145,0.010464,-0.005448,-89.476415,0.010467,
700,420,1.974126,-16.273612,0.999997,0.000195,-0.004937,0.010114,-0.000154,0.010116,-0.004939,-89.412930,0.010117,
1860,1900,-1.337353,-1.549032,0.999995,0.000266,-0.004887,0.010294,0.000897,0.010346,-0.004940,86.631324,0.010350,
690,560,2.426715,-14.802816,0.999995,0.000242,-0.005261,0.010272,-0.000034,0.010272,-0.005261,-89.875855,0.010273,
860,470,1.317540,-16.276904,0.999997,0.000255,-0.004854,0.009882,-0.000550,0.009902,-0.004874,-87.865786,0.009903,
1670,1480,-1.915044,-5.186499,0.999996,0.000206,-0.005493,0.010494,-0.000263,0.010498,-0.005497,-89.057227,0.010502,
1700,1630,-1.678982,-3.736254,0.999996,0.000229,-0.004908,0.010073,-0.000205,0.010076,-0.004911,-89.215336,0.010077,
910,1220,2.117718,-7.780711,0.999994,0.000289,-0.006782,0.012483,-0.000832,0.012518,-0.006818,-87.530643,0.012535,
1460,1780,-0.438079,-1.809860,0.999997,0.000193,-0.002253,0.007846,0.000227,0.007851,-0.002258,88.711302,0.008084,
1520,1110,-2.527694,-9.066791,0.999994,0.000289,-0.004930,0.012537,0.001297,0.012633,-0.005026,85.775042,0.012721,
1310,1600,-0.194629,-2.964411,0.999998,0.000197,-0.002757,0.007198,-0.000615,0.007236,-0.002795,-86.476660,0.007298,
840,520,1.525694,-15.707412,0.999995,0.000262,-0.005282,0.010221,-0.000540,0.010239,-0.005301,-88.007328,0.010242,
1730,1030,-3.574727,-10.054413,0.999996,0.000223,-0.004274,0.009766,0.000067,0.009766,-0.004274,89.728273,0.009792,
950,540,1.003038,-15.901309,0.999998,0.000187,-0.004828,0.009594,-0.001151,0.009685,-0.004920,-85.464967,0.009686,
1830,610,-2.878074,-14.113006,0.999996,0.000234,-0.005144,0.010159,-0.000131,0.010160,-0.005145,-89.510951,0.010160,
620,570,2.817030,-14.481600,0.999997,0.000204,-0.005124,0.010196,0.000003,0.010196,-0.005124,89.987981,0.010196,
920,1320,1.605870,-6.493010,0.999996,0.000308,-0.007024,0.011966,0.000579,0.011983,-0.007042,88.255415,0.012044,
870,1690,1.047965,-2.846486,0.999996,0.000216,-0.004131,0.009222,0.000142,0.009223,-0.004133,89.392171,0.009240,
740,860,3.205101,-11.764820,0.999996,0.000246,-0.005070,0.010328,0.001103,0.010407,-0.005148,85.924726,0.010407,
1270,1620,-0.094809,-2.789019,0.999999,0.000158,-0.002376,0.007073,-0.000225,0.007079,-0.002381,-88.634399,0.007204,
1310,150,-0.063514,-19.345885,0.999998,0.000157,-0.000796,0.006549,-0.000184,0.006554,-0.000800,-88.566435,0.007151,
1470,1720,-0.555746,-2.309308,0.999996,0.000210,-0.002843,0.008211,-0.000100,0.008212,-0.002843,-89.481989,0.008340,
1150,550,0.216126,-16.506584,0.999997,0.000209,-0.002933,0.006941,-0.001147,0.007072,-0.003065,-83.462707,0.007093,
1560,990,-2.863589,-10.498712,0.999996,0.000278,-0.003773,0.011323,-0.000798,0.011365,-0.003815,-86.983365,0.011568,
690,900,3.574202,-11.304182,0.999997,0.000224,-0.004674,0.009703,0.000806,0.009749,-0.004719,86.801482,0.009750,
1270,540,-0.097306,-16.646252,0.999998,0.000179,-0.002544,0.006640,0.000452,0.006663,-0.002566,87.191568,0.006721,
1730,1960,-0.438839,-0.605648,0.999996,0.000239,-0.002018,0.008365,0.002398,0.008892,-0.002545,77.601569,0.009159,
1630,1880,-0.604802,-1.201901,0.999996,0.000230,-0.002255,0.008457,0.001381,0.008632,-0.002430,82.772622,0.008902,
1580,460,-1.184965,-16.450404,0.999996,0.000246,-0.004625,0.009700,0.000574,0.009723,-0.004648,87.707718,0.009726,
1100,1990,0.036357,-0.278198,0.999998,0.000161,-0.000267,0.006230,-0.000389,0.006254,-0.000291,-86.583887,0.007059,
1710,800,-2.915664,-12.419282,0.999995,0.000264,-0.005499,0.010713,-0.001033,0.010779,-0.005564,-86.368264,0.010781,
1860,1880,-1.464995,-1.756907,0.999996,0.000252,-0.004878,0.010251,0.000728,0.010286,-0.004913,87.251532,0.010289,
1210,420,0.050520,-17.487584,0.999998,0.000192,-0.002393,0.007076,-0.000240,0.007082,-0.002399,-88.551751,0.007204,
1650,1760,-1.080480,-2.319828,0.999997,0.000213,-0.003863,0.009456,0.000436,0.009470,-0.003877,88.126010,0.009522,
1410,350,-0.403757,-17.837991,0.999996,0.000226,-0.002840,0.007773,0.000362,0.007785,-0.002852,88.046423,0.007877,
1660,330,-1.229201,-17.479497,0.999997,0.000215,-0.004391,0.009719,-0.000107,0.009720,-0.004392,-89.566641,0.009735,
810,1360,2.182463,-6.437840,0.999994,0.000286,-0.006081,0.011185,-0.000226,0.011188,-0.006084,-89.249531,0.011202,
840,770,2.278934,-12.952554,0.999993,0.000282,-0.006401,0.011624,0.000695,0.011651,-0.006428,87.796409,0.011671,
1360,840,-0.717161,-14.078905,0.999993,0.000317,-0.006002,0.008861,0.004507,0.010121,-0.007262,74.382035,0.010435,
860,450,1.273451,-16.475058,0.999998,0.000277,-0.004712,0.009798,-0.000489,0.009815,-0.004728,-88.072373,0.009817,
1750,70,-0.343747,-19.738758,0.999994,0.000293,-0.002083,0.008562,-0.002861,0.009282,-0.002804,-75.871085,0.009522,
1020,650,0.771878,-15.155046,0.999995,0.000292,-0.005506,0.009667,-0.002281,0.010003,-0.005842,-81.631595,0.010050,
1080,1640,0.378717,-2.783367,0.999996,0.000222,-0.002949,0.007750,0.000642,0.007788,-0.002988,86.577960,0.007858,
740,570,2.190958,-14.856192,0.999994,0.000261,-0.005424,0.010455,-0.000121,0.010456,-0.005425,-89.564877,0.010459,
690,1300,3.084729,-7.389259,0.999997,0.000245,-0.005252,0.010318,-0.000760,0.010355,-0.005289,-87.213359,0.010356,
1790,710,-3.009258,-13.196878,0.999997,0.000235,-0.005254,0.010261,-0.000553,0.010280,-0.005274,-87.961205,0.010282,
1480,1690,-0.629346,-2.576715,0.999997,0.000199,-0.003332,0.008446,-0.000380,0.008458,-0.003344,-88.154889,0.008520,
630,330,2.037403,-16.953467,0.999997,0.000217,-0.004868,0.009952,-0.000054,0.009952,-0.004868,-89.790224,0.009953,
1460,1740,-0.499861,-2.128029,0.999997,0.000216,-0.002576,0.008034,-0.000003,0.008034,-0.002576,-89.985922,0.008204,
800,160,0.624057,-19.050731,0.999997,0.000214,-0.002867,0.008694,0.001561,0.008901,-0.003074,82.446145,0.009042,
1680,350,-1.377731,-17.225788,0.999995,0.000232,-0.004487,0.009762,-0.000067,0.009762,-0.004487,-89.732524,0.009773,
1660,1420,-2.031437,-5.797923,0.999996,0.000229,-0.005824,0.010842,-0.000078,0.010842,-0.005825,-89.731776,0.010852,
1260,100,-0.013021,-19.671190,0.999998,0.000163,-0.000541,0.006201,-0.000038,0.006202,-0.000541,-89.678182,0.006870,
660,1170,3.675154,-8.743936,0.999995,0.000267,-0.004674,0.009560,-0.000757,0.009601,-0.004715,-86.963924,0.009601,
740,840,3.136130,-11.970956,0.999995,0.000264,-0.005193,0.010465,0.001129,0.010546,-0.005274,85.896884,0.010546,
1170,1600,0.150429,-2.945290,0.999998,0.000177,-0.002523,0.007143,0.000393,0.007159,-0.002539,87.674118,0.007259,
920,1340,1.536768,-6.256967,0.999995,0.000302,-0.006856,0.011718,0.000725,0.011746,-0.006884,87.769405,0.011804,
1760,490,-2.157453,-15.567566,0.999995,0.000259,-0.005114,0.010276,0.000188,0.010278,-0.005116,89.300905,0.010278,
1670,1460,-1.970876,-5.396478,0.999997,0.000197,-0.005597,0.010602,-0.000206,0.010605,-0.005599,-89.271820,0.010610,
840,540,1.572238,-15.502027,0.999995,0.000253,-0.005395,0.010337,-0.000528,0.010354,-0.005412,-88.078224,0.010358,
700,640,2.623975,-13.999235,0.999995,0.000274,-0.005417,0.010379,0.000269,0.010384,-0.005422,89.023622,0.010387,
1560,1450,-1.367626,-5.104376,0.999995,0.000269,-0.005813,0.010481,-0.000953,0.010536,-0.005869,-86.664006,0.010559,
1230,1960,0.000357,-0.457215,0.999998,0.000173,-0.000557,0.006178,-0.000008,0.006178,-0.000557,-89.931670,0.006835,
1580,900,-2.619647,-11.507592,0.999995,0.000259,-0.005405,0.011770,-0.001462,0.011893,-0.005529,-85.167592,0.011903,
1730,1010,-3.564968,-10.251344,0.999997,0.000202,-0.004283,0.009761,-0.000336,0.009769,-0.004291,-88.630028,0.009793,
1730,1800,-1.267376,-2.121403,0.999996,0.000226,-0.004194,0.009878,0.000844,0.009929,-0.004245,86.580695,0.009963,
1650,1640,-1.412862,-3.483808,0.999996,0.000249,-0.004685,0.009882,-0.000239,0.009886,-0.004689,-89.060325,0.009891,
620,1150,3.901091,-8.978746,0.999996,0.000223,-0.004409,0.009020,-0.000446,0.009035,-0.004424,-88.100839,0.009036,
1490,1390,-1.065125,-5.419696,0.999996,0.000240,-0.006182,0.010718,-0.001747,0.010896,-0.006361,-84.160006,0.010947,
570,1760,2.199522,-3.082615,0.999965,0.000741,-0.004422,0.009824,0.000129,0.009825,-0.004423,89.481040,0.009841,
1150,530,0.214015,-16.648171,0.999997,0.000198,-0.002925,0.007094,-0.001043,0.007202,-0.003033,-84.118889,0.007231,
1240,180,-0.009512,-19.159622,0.999998,0.000171,-0.001122,0.006574,0.000019,0.006574,-0.001122,89.859800,0.007034,
1560,1440,-1.389318,-5.208825,0.999994,0.000272,-0.005905,0.010618,-0.000968,0.010674,-0.005962,-86.658859,0.010699,
710,900,3.480540,-11.321764,0.999996,0.000229,-0.004762,0.009923,0.000927,0.009981,-0.004820,86.402204,0.009983,
1270,520,-0.097629,-16.779651,0.999998,0.000176,-0.002531,0.006747,0.000385,0.006763,-0.002547,87.625065,0.006831,
1860,1860,-1.584004,-1.960398,0.999994,0.000283,-0.004888,0.009990,0.000508,0.010008,-0.004906,88.046407,0.010008,
1640,1720,-1.156497,-2.674949,0.999997,0.000212,-0.004091,0.009536,0.000126,0.009538,-0.004092,89.471867,0.009570,
1530,260,-0.593929,-18.370430,0.999997,0.000222,-0.002674,0.008251,-0.000413,0.008267,-0.002690,-87.835905,0.008433,
1660,270,-1.039483,-18.054815,0.999996,0.000201,-0.003960,0.009361,-0.000583,0.009386,-0.003986,-87.498599,0.009422,
750,360,1.552320,-17.036908,0.999996,0.000229,-0.004615,0.009939,0.000128,0.009940,-0.004616,89.495785,0.009949,
770,1360,2.422152,-6.555774,0.999995,0.000271,-0.005831,0.010906,-0.000424,0.010917,-0.005842,-88.548777,0.010926,
1410,330,-0.384883,-17.990506,0.999996,0.000232,-0.002694,0.007698,0.000241,0.007704,-0.002700,88.671469,0.007818,
680,490,2.274877,-15.493745,0.999997,0.000218,-0.005128,0.010232,-0.000176,0.010234,-0.005130,-89.345313,0.010234,
1740,1980,-0.346548,-0.451646,0.999994,0.000273,-0.001980,0.008299,0.002593,0.008916,-0.002597,76.616189,0.009171,
1690,740,-2.570167,-13.117493,0.999993,0.000290,-0.005863,0.010991,-0.000700,0.011020,-0.005892,-87.624274,0.011029,
1360,820,-0.589016,-14.248389,0.999990,0.000370,-0.006266,0.008737,0.004443,0.009954,-0.007483,74.681555,0.010366,
940,730,1.448828,-13.822826,0.999994,0.000286,-0.007022,0.011836,-0.000923,0.011882,-0.007067,-87.203506,0.011953,
1080,1400,0.472652,-4.708137,0.999996,0.000215,-0.004609,0.008286,0.002684,0.008822,-0.005145,78.700237,0.008863,
1450,1110,-2.151630,-8.734559,0.999991,0.000338,-0.006034,0.015261,-0.000663,0.015281,-0.006055,-88.217851,0.015391,
1780,470,-2.201990,-15.708688,0.999995,0.000281,-0.005091,0.010188,0.000181,0.010190,-0.005093,89.322201,0.010190,
700,400,1.917012,-16.474532,0.999997,0.000211,-0.004917,0.010131,-0.000144,0.010132,-0.004918,-89.450140,0.010134,
630,310,1.967118,-17.152473,0.999997,0.000211,-0.004880,0.010056,0.000038,0.010056,-0.004880,89.853764,0.010057,
1790,690,-2.939241,-13.402037,0.999997,0.000224,-0.005239,0.010285,-0.000465,0.010299,-0.005252,-88.286015,0.010300,
670,1300,3.189821,-7.432564,0.999997,0.000212,-0.005111,0.010134,-0.000698,0.010166,-0.005143,-87.383291,0.010166,
920,1360,1.479837,-6.022595,0.999995,0.000318,-0.006678,0.011417,0.000857,0.011457,-0.006718,87.294400,0.011514,
800,600,1.945404,-14.731995,0.999996,0.000210,-0.005648,0.010659,-0.000223,0.010662,-0.005651,-89.216619,0.010668,
1810,1140,-3.775868,-9.033963,0.999996,0.000275,-0.004500,0.009326,0.000616,0.009353,-0.004528,87.454682,0.009354,
810,1720,1.211739,-2.710099,0.999997,0.000220,-0.004338,0.009603,-0.000097,0.009603,-0.004339,-89.600340,0.009618,
740,820,3.060200,-12.185429,0.999996,0.000258,-0.005306,0.010536,0.001092,0.010611,-0.005381,86.074591,0.010612,
840,560,1.619329,-15.290890,0.999996,0.000232,-0.005485,0.010437,-0.000511,0.010453,-0.005502,-88.163211,0.010458,
1730,180,-0.922957,-18.778165,0.999994,0.000277,-0.003447,0.009553,-0.001636,0.009755,-0.003650,-82.936915,0.009858,
1260,80,-0.013638,-19.792645,0.999998,0.000158,-0.000388,0.006114,-0.000059,0.006115,-0.000389,-89.479724,0.006847,
1040,110,0.116997,-19.579585,0.999998,0.000219,-0.000921,0.006698,0.000554,0.006738,-0.000961,85.861300,0.007289,
1660,1400,-2.092139,-6.017304,0.999995,0.000249,-0.005918,0.010909,0.000035,0.010909,-0.005918,89.882202,0.010922,
1150,560,0.214800,-16.436475,0.999996,0.000228,-0.002924,0.006922,-0.001201,0.007066,-0.003068,-83.146843,0.007086,
1150,510,0.212160,-16.792279,0.999997,0.000208,-0.002906,0.007138,-0.000943,0.007226,-0.002994,-84.681017,0.007261,
830,1500,1.661483,-4.850386,0.999996,0.000240,-0.005432,0.010427,0.000489,0.010442,-0.005447,88.235062,0.010445,
1730,990,-3.545849,-10.449138,0.999996,0.000211,-0.004301,0.009737,-0.000330,0.009744,-0.004309,-88.656109,0.009766,
980,910,2.105318,-11.699954,0.999992,0.000338,-0.006385,0.013780,0.000649,0.013801,-0.006406,88.159891,0.013813,
1860,1840,-1.689930,-2.157502,0.999996,0.000261,-0.004905,0.010021,0.000384,0.010031,-0.004915,88.525720,0.010032,
1850,1120,-3.997725,-9.261056,0.999998,0.000168,-0.004360,0.009049,0.000495,0.009068,-0.004379,87.890491,0.009069,
900,130,0.310409,-19.379144,0.999998,0.000171,-0.001449,0.007565,0.001203,0.007723,-0.001607,82.530102,0.008150,
1530,240,-0.545919,-18.537129,0.999996,0.000235,-0.002498,0.008265,-0.000583,0.008296,-0.002529,-86.909968,0.008504,
570,390,2.567854,-16.153721,0.999689,0.002108,-0.008275,0.009484,0.000089,0.009485,-0.008276,89.712830,0.010325,
1740,1960,-0.458062,-0.612842,0.999995,0.000242,-0.002586,0.008450,0.002345,0.008928,-0.003064,78.490238,0.009073,
1410,310,-0.359508,-18.144730,0.999997,0.000219,-0.002576,0.007668,0.000163,0.007670,-0.002579,89.087414,0.007806,
1710,680,-2.467247,-13.722791,0.999992,0.000335,-0.005712,0.010767,-0.000390,0.010776,-0.005721,-88.644412,0.010783,
1000,1980,0.089563,-0.358432,0.999998,0.000142,-0.000422,0.006625,-0.000800,0.006715,-0.000512,-83.602053,0.007476,
750,1360,2.536121,-6.608674,0.999994,0.000327,-0.005701,0.010796,-0.000469,0.010809,-0.005714,-88.371956,0.010815,
990,1230,1.473191,-7.222702,0.999991,0.000375,-0.007844,0.013160,0.000861,0.013195,-0.007879,87.657664,0.013278,
1450,1090,-2.276501,-9.058398,0.999990,0.000372,-0.005867,0.015822,-0.000735,0.015846,-0.005892,-88.060146,0.016019,
1500,1310,-1.335476,-6.389882,0.999994,0.000277,-0.007236,0.011945,-0.001229,0.012024,-0.007315,-86.348930,0.012117,
1890,80,-0.866752,-19.300051,0.999996,0.000245,-0.004388,0.012387,-0.003046,0.012923,-0.004924,-80.018918,0.013044,
580,70,0.737040,-19.455701,0.999996,0.000227,-0.004553,0.012593,0.003592,0.013315,-0.005275,78.633352,0.013411,
1350,1960,-0.056262,-0.467353,0.999998,0.000157,-0.000541,0.006346,0.000302,0.006359,-0.000554,87.494482,0.007045,
1630,1780,-0.949155,-2.090146,0.999996,0.000241,-0.003369,0.009175,0.000644,0.009208,-0.003402,87.068119,0.009312,
1710,1820,-1.106716,-1.882678,0.999998,0.000175,-0.003741,0.009680,0.001101,0.009769,-0.003831,85.340688,0.009845,
1580,880,-2.518946,-11.750079,0.999995,0.000277,-0.005807,0.011928,-0.001410,0.012039,-0.005918,-85.483145,0.012040,
1290,740,-0.128799,-15.452936,0.999997,0.000213,-0.002844,0.004608,0.002713,0.005491,-0.003727,71.971481,0.005607,
1660,1990,-0.194734,-0.329991,0.999996,0.000235,-0.001113,0.007500,0.001971,0.007930,-0.001543,77.701763,0.008408,
840,1000,3.116808,-10.367475,0.999997,0.000224,-0.003899,0.010419,0.000431,0.010431,-0.003912,88.279016,0.010540,
810,1700,1.268967,-2.901292,0.999996,0.000215,-0.004507,0.009582,-0.000013,0.009582,-0.004507,-89.946925,0.009588,
740,1040,3.538536,-9.956335,0.999996,0.000232,-0.004278,0.009770,-0.000257,0.009775,-0.004282,-88.950902,0.009800,
1150,1600,0.203527,-2.970044,0.999998,0.000164,-0.002758,0.007259,0.000658,0.007302,-0.002801,86.256910,0.007368,
1560,1420,-1.431199,-5.426746,0.999995,0.000270,-0.006059,0.010868,-0.000916,0.010918,-0.006108,-86.912185,0.010944,
920,1800,0.618757,-1.767187,0.999997,0.000223,-0.002610,0.008348,-0.000547,0.008375,-0.002637,-87.149909,0.008564,
1190,1450,0.099378,-3.932312,0.999997,0.000208,-0.002572,0.006084,0.000785,0.006154,-0.002642,84.862556,0.006175,
1150,490,0.210320,-16.933954,0.999997,0.000197,-0.002846,0.007156,-0.000852,0.007228,-0.002918,-85.168500,0.007273,
1640,1700,-1.207917,-2.866271,0.999995,0.000250,-0.004247,0.009569,0.000081,0.009569,-0.004247,89.663471,0.009589,
1680,310,-1.256416,-17.621724,0.999996,0.000210,-0.004373,0.009671,-0.000247,0.009675,-0.004378,-88.991495,0.009690,
1860,1820,-1.789596,-2.362061,0.999997,0.000240,-0.004920,0.009924,0.000245,0.009928,-0.004924,89.054816,0.009928,
870,500,1.328891,-16.010429,0.999998,0.000246,-0.004974,0.009958,-0.000630,0.009984,-0.005000,-87.589099,0.009984,
1490,1370,-1.103666,-5.638213,0.999995,0.000246,-0.006444,0.010944,-0.001729,0.011114,-0.006615,-84.375816,0.011181,
1730,340,-1.571734,-17.187556,0.999995,0.000255,-0.004758,0.009986,-0.000115,0.009987,-0.004758,-89.554689,0.009991,
1660,1380,-2.157751,-6.236687,0.999996,0.000250,-0.006000,0.011002,0.000153,0.011003,-0.006002,89.486099,0.011018,
1580,130,-0.338559,-19.367692,0.999997,0.000208,-0.001814,0.007686,-0.001234,0.007844,-0.001971,-82.720378,0.008161,
1410,510,-0.526027,-16.541641,0.999996,0.000232,-0.003649,0.008249,0.001214,0.008372,-0.003771,84.234127,0.008385,
1000,870,1.679016,-12.402434,0.999993,0.000328,-0.007620,0.013898,-0.000521,0.013911,-0.007632,-88.614309,0.013933,
1710,660,-2.398540,-13.937575,0.999995,0.000299,-0.005672,0.010681,-0.000272,0.010686,-0.005676,-89.046031,0.010693,
1740,1940,-0.582976,-0.791378,0.999995,0.000271,-0.002902,0.009069,0.002375,0.009523,-0.003357,79.178087,0.009660,
1720,1330,-2.686645,-6.952074,0.999996,0.000290,-0.005622,0.010708,0.000657,0.010734,-0.005648,87.699582,0.010739,
1590,1140,-2.735239,-8.839760,0.999996,0.000243,-0.005066,0.011410,0.001435,0.011534,-0.005190,85.059110,0.011553,
1800,410,-2.128920,-16.253037,0.999997,0.000209,-0.004970,0.010104,0.000158,0.010106,-0.004972,89.397972,0.010106,
1360,800,-0.513867,-14.424926,0.999992,0.000346,-0.006078,0.008707,0.004501,0.009969,-0.007340,74.332677,0.010334,
1000,1960,0.126524,-0.489474,0.999998,0.000174,-0.000570,0.006715,-0.000764,0.006795,-0.000649,-84.076233,0.007499,
1790,670,-2.869901,-13.608751,0.999996,0.000240,-0.005236,0.010346,-0.000376,0.010355,-0.005245,-88.619189,0.010356,
1410,1260,-0.841278,-6.268441,0.999994,0.000308,-0.007411,0.011310,-0.003301,0.011875,-0.007976,-80.287221,0.012106,
1260,60,-0.007605,-19.916838,0.999998,0.000155,-0.000262,0.006070,-0.000079,0.006071,-0.000263,-89.287586,0.006863,
1080,1360,0.485218,-5.041289,0.999995,0.000241,-0.005055,0.008556,0.003150,0.009250,-0.005749,77.582102,0.009340,
630,290,1.892113,-17.358885,0.999997,0.000200,-0.004875,0.010045,0.000114,0.010046,-0.004876,89.562415,0.010047,
590,70,0.693359,-19.490607,0.999997,0.000206,-0.004331,0.011987,0.003287,0.012624,-0.004969,79.028517,0.012719,
700,360,1.794830,-16.883189,0.999997,0.000211,-0.004831,0.010051,0.000006,0.010051,-0.004831,89.977409,0.010053,
720,570,2.297615,-14.793209,0.999995,0.000230,-0.005353,0.010387,-0.000078,0.010388,-0.005354,-89.717364,0.010389,
1250,520,-0.047372,-16.796464,0.999998,0.000182,-0.002538,0.006684,0.000348,0.006698,-0.002551,87.842252,0.006761,
800,580,1.890800,-14.942225,0.999997,0.000199,-0.005515,0.010535,-0.000282,0.010539,-0.005520,-88.994742,0.010543,
1450,1070,-2.377010,-9.363694,0.999991,0.000350,-0.005852,0.016145,-0.000615,0.016162,-0.005870,-88.400989,0.016362,
750,460,1.837288,-16.025592,0.999996,0.000240,-0.005022,0.010092,-0.000259,0.010096,-0.005026,-89.019367,0.010096,
990,1210,1.590010,-7.496242,0.999990,0.000389,-0.007759,0.013485,0.000588,0.013501,-0.007775,88.415153,0.013553,
1530,1360,-1.392454,-5.962612,0.999993,0.000292,-0.006675,0.011379,-0.001014,0.011435,-0.006732,-86.795712,0.011495,
740,800,2.988521,-12.395888,0.999997,0.000242,-0.005362,0.010580,0.001027,0.010645,-0.005428,86.329243,0.010646,
1590,1860,-0.572523,-1.323509,0.999996,0.000240,-0.002721,0.008406,0.000960,0.008488,-0.002804,85.106081,0.008649,
1230,1600,0.003444,-2.909899,0.999998,0.000187,-0.002504,0.006927,0.000016,0.006927,-0.002504,89.903848,0.007015,
1560,1400,-1.479844,-5.646338,0.999995,0.000260,-0.006243,0.011058,-0.000812,0.011096,-0.006281,-87.318651,0.011128,
840,980,3.094316,-10.576687,0.999996,0.000228,-0.004061,0.010536,0.000759,0.010575,-0.004100,87.031510,0.010664,
1490,1350,-1.152020,-5.864501,0.999995,0.000274,-0.006722,0.011263,-0.001706,0.011424,-0.006883,-84.628358,0.011504,
1650,240,-0.897399,-18.355596,0.999996,0.000228,-0.003419,0.009235,-0.000887,0.009296,-0.003481,-86.011275,0.009394,
1800,250,-1.568845,-17.875368,0.999995,0.000275,-0.004652,0.010148,-0.000702,0.010181,-0.004686,-87.289989,0.010192,
870,480,1.288459,-16.209313,0.999995,0.000275,-0.004890,0.009889,-0.000624,0.009915,-0.004917,-87.586327,0.009915,
1410,750,-0.710894,-14.380878,0.999995,0.000265,-0.006642,0.010368,0.003327,0.010996,-0.007270,79.318105,0.011185,
920,1780,0.661367,-1.931816,0.999997,0.000205,-0.002775,0.008487,-0.000412,0.008502,-0.002790,-87.908937,0.008668,
1560,1710,-0.866889,-2.578090,0.999997,0.000180,-0.003659,0.009019,-0.000032,0.009019,-0.003659,-89.853773,0.009073,
1870,1920,-1.247074,-1.392155,0.999995,0.000271,-0.004806,0.010570,0.001288,0.010677,-0.004913,85.246058,0.010688,
1860,1800,-1.878087,-2.558272,0.999997,0.000230,-0.004892,0.009968,0.000146,0.009970,-0.004894,89.438231,0.009970,
1150,470,0.207696,-17.080242,0.999997,0.000218,-0.002800,0.007240,-0.000743,0.007295,-0.002855,-85.788569,0.007352,
1220,480,0.029722,-17.075387,0.999998,0.000165,-0.002511,0.006865,-0.000200,0.006869,-0.002515,-88.781191,0.006951,
1640,1680,-1.263534,-3.059111,0.999997,0.000244,-0.004391,0.009639,-0.000029,0.009639,-0.004391,-89.881272,0.009652,
1740,1920,-0.703731,-0.972515,0.999995,0.000252,-0.003266,0.009219,0.002092,0.009560,-0.003607,80.735104,0.009655,
1140,830,0.447995,-14.705381,0.999991,0.000362,-0.004625,0.005533,-0.003801,0.006798,-0.005890,-71.594895,0.007381,
640,650,2.972901,-13.723644,0.999997,0.000213,-0.005119,0.010229,0.000243,0.010233,-0.005123,89.092703,0.010233,
1680,290,-1.193065,-17.811890,0.999997,0.000195,-0.004270,0.009594,-0.000405,0.009606,-0.004282,-88.326853,0.009625,
1020,850,1.382888,-12.863187,0.999993,0.000307,-0.007866,0.013494,-0.001547,0.013605,-0.007978,-85.878463,0.013673,
1280,1450,-0.118796,-3.941212,0.999995,0.000262,-0.002647,0.006187,-0.000976,0.006294,-0.002753,-83.767373,0.006311,
1870,1120,-4.085609,-9.282693,0.999997,0.000194,-0.004273,0.008840,0.000373,0.008851,-0.004283,88.373494,0.008852,
1810,1780,-1.723915,-2.570518,0.999997,0.000238,-0.004713,0.010136,0.000409,0.010147,-0.004724,88.422386,0.010155,
1650,1480,-1.806079,-5.120578,0.999995,0.000229,-0.005563,0.010502,-0.000343,0.010509,-0.005571,-88.777280,0.010516,
750,1270,2.876122,-7.586494,0.999996,0.000253,-0.005555,0.010785,-0.000975,0.010843,-0.005613,-86.597406,0.010845,
860,1250,2.302635,-7.567642,0.999994,0.000280,-0.006418,0.011886,-0.000886,0.011929,-0.006461,-87.236210,0.011942,
1660,1360,-2.225071,-6.458092,0.999995,0.000289,-0.006045,0.011145,0.000270,0.011149,-0.006049,89.099427,0.011163,
1730,1190,-3.257655,-8.455801,0.999997,0.000234,-0.005019,0.010257,0.001074,0.010332,-0.005094,85.998389,0.010332,
1790,650,-2.801525,-13.818709,0.999995,0.000241,-0.005266,0.010339,-0.000307,0.010345,-0.005272,-88.872142,0.010346,
1580,860,-2.422245,-11.989041,0.999994,0.000267,-0.006117,0.012045,-0.001275,0.012134,-0.006206,-86.004577,0.012135,
1270,740,-0.078312,-15.548035,0.999997,0.000184,-0.002325,0.003834,0.001910,0.004379,-0.002869,74.092332,0.004449,
1450,1050,-2.444809,-9.699598,0.999988,0.000414,-0.005910,0.017178,-0.000363,0.017184,-0.005915,-89.098776,0.017459,
990,1190,1.720353,-7.771865,0.999992,0.000347,-0.007561,0.013685,0.000266,0.013688,-0.007565,89.283064,0.013713,
1470,500,-0.759262,-16.429208,0.999995,0.000226,-0.004149,0.008913,0.001081,0.009002,-0.004238,85.302267,0.009007,
1720,1730,-1.477846,-2.794310,0.999996,0.000240,-0.004495,0.009884,0.000225,0.009887,-0.004499,89.105165,0.009901,
1390,1260,-0.696370,-6.047618,0.999993,0.000319,-0.006992,0.010431,-0.003835,0.011238,-0.007799,-78.119583,0.011517,
1840,40,-0.272026,-19.909766,0.999992,0.000344,-0.003565,0.009424,-0.003355,0.010239,-0.004380,-76.339259,0.010275,
710,1360,2.760506,-6.714090,0.999996,0.000258,-0.005464,0.010533,-0.000512,0.010549,-0.005481,-88.168232,0.010552,
800,560,1.838251,-15.153445,0.999996,0.000229,-0.005432,0.010474,-0.000344,0.010481,-0.005439,-88.761612,0.010484,
870,1670,1.090637,-3.034525,0.999997,0.000212,-0.004201,0.009336,0.000209,0.009340,-0.004204,89.117695,0.009355,
1310,130,-0.052821,-19.476907,0.999998,0.000163,-0.000688,0.006479,-0.000187,0.006484,-0.000693,-88.503035,0.007121,
1650,220,-0.825219,-18.539750,0.999996,0.000217,-0.003244,0.009027,-0.001035,0.009114,-0.003331,-85.210944,0.009223,
1000,1940,0.158688,-0.628244,0.999998,0.000173,-0.000762,0.006897,-0.000774,0.006975,-0.000839,-84.289641,0.007616,
1090,1410,0.422464,-4.565848,0.999997,0.000207,-0.004280,0.007964,0.002560,0.008478,-0.004793,78.653463,0.008502,
700,550,2.345231,-14.935717,0.999994,0.000265,-0.005255,0.010284,-0.000069,0.010285,-0.005255,-89.744859,0.010285,
1400,1000,-1.993916,-10.887341,0.999947,0.000000,-0.010169,0.027357,0.003908,0.027760,-0.010571,84.117391,0.028022,
1470,1300,-1.148140,-6.315935,0.999993,0.000309,-0.007350,0.011931,-0.001851,0.012107,-0.007526,-84.566336,0.012226,
630,270,1.814401,-17.557368,0.999997,0.000212,-0.004853,0.010102,0.000221,0.010105,-0.004856,89.154041,0.010107,
1740,1900,-0.822606,-1.162065,0.999996,0.000219,-0.003554,0.009529,0.001808,0.009774,-0.003799,82.274955,0.009854,
1820,950,-3.895875,-10.788467,0.999997,0.000215,-0.004399,0.009211,-0.000473,0.009227,-0.004416,-88.011118,0.009230,
890,340,0.908724,-17.597486,0.999997,0.000193,-0.003952,0.009077,-0.000108,0.009078,-0.003953,-89.523730,0.009103,
1830,590,-2.814383,-14.316296,0.999996,0.000217,-0.005132,0.010182,-0.000077,0.010183,-0.005133,-89.713343,0.010183,
1400,1130,-1.685022,-7.739746,0.999988,0.000409,-0.005382,0.014212,-0.006125,0.015969,-0.007139,-73.994370,0.015999,
620,1170,3.856331,-8.797578,0.999996,0.000223,-0.004468,0.009111,-0.000452,0.009126,-0.004483,-88.096414,0.009127,
1270,1600,-0.094526,-2.930151,0.999998,0.000162,-0.002414,0.006969,-0.000283,0.006978,-0.002423,-88.271114,0.007086,
1820,1930,-0.930889,-1.045818,0.999994,0.000295,-0.004042,0.010486,0.002079,0.010778,-0.004333,82.012685,0.010847,
1670,1820,-0.955403,-1.799114,0.999997,0.000195,-0.003834,0.009331,0.000836,0.009384,-0.003886,86.379042,0.009430,
1630,180,-0.621878,-18.916311,0.999996,0.000251,-0.002359,0.008467,-0.001358,0.008634,-0.002527,-82.958510,0.008878,
740,760,2.833728,-12.827874,0.999996,0.000272,-0.005560,0.010707,0.000850,0.010751,-0.005604,87.017466,0.010754,
1250,1620,-0.046449,-2.778042,0.999997,0.000196,-0.002429,0.007056,-0.000233,0.007061,-0.002435,-88.595980,0.007174,
1250,1990,-0.006740,-0.272780,0.999998,0.000167,-0.000299,0.006081,0.000054,0.006081,-0.000299,89.517285,0.006855,
1620,1710,-1.104795,-2.726522,0.999996,0.000229,-0.003848,0.009466,0.000157,0.009468,-0.003850,89.324269,0.009523,
1560,1380,-1.533918,-5.874410,0.999996,0.000250,-0.006437,0.011265,-0.000719,0.011294,-0.006466,-87.678055,0.011334,
880,790,2.103429,-12.835663,0.999995,0.000264,-0.006694,0.012070,0.000573,0.012088,-0.006711,88.252770,0.012112,
1780,250,-1.476499,-17.936291,0.999996,0.000257,-0.004680,0.010074,-0.000652,0.010103,-0.004709,-87.476544,0.010111,
1400,1700,-0.378190,-2.344796,0.999997,0.000229,-0.002715,0.007774,-0.000335,0.007785,-0.002725,-88.170758,0.007901,
1360,780,-0.459312,-14.593520,0.999994,0.000304,-0.005779,0.008426,0.004351,0.009653,-0.007005,74.253010,0.009976,
1880,1120,-4.128046,-9.299581,0.999998,0.000191,-0.004215,0.008732,0.000309,0.008739,-0.004223,88.634075,0.008741,
1790,1780,-1.629764,-2.508145,0.999997,0.000207,-0.004778,0.010120,0.000444,0.010133,-0.004791,88.292819,0.010138,
870,380,1.080650,-17.173452,0.999997,0.000211,-0.004160,0.009315,-0.000225,0.009318,-0.004164,-89.044355,0.009336,
1490,1330,-1.199765,-6.092684,0.999994,0.000291,-0.007005,0.011563,-0.001600,0.011700,-0.007142,-85.110854,0.011794,
840,960,3.043075,-10.790916,0.999996,0.000244,-0.004245,0.010649,0.001011,0.010717,-0.004313,86.133546,0.010785,
1520,1410,-1.210071,-5.356312,0.999995,0.000269,-0.006041,0.010670,-0.001325,0.010774,-0.006146,-85.495928,0.010810,
1480,1670,-0.658308,-2.748139,0.999996,0.000232,-0.003535,0.008553,-0.000496,0.008574,-0.003556,-87.654392,0.008615,
1580,840,-2.320472,-12.233738,0.999995,0.000239,-0.006390,0.012131,-0.001109,0.012197,-0.006456,-86.586328,0.012204,
1530,780,-1.689309,-13.173513,0.999994,0.000253,-0.007311,0.012454,0.000273,0.012458,-0.007315,89.208416,0.012521,
1080,1340,0.498451,-5.215554,0.999995,0.000242,-0.005377,0.008727,0.003423,0.009514,-0.006164,77.054451,0.009651,
1450,1220,-1.348588,-7.160557,0.999995,0.000272,-0.007884,0.013171,-0.001609,0.013294,-0.008007,-85.656219,0.013386,
1790,630,-2.734399,-14.025377,0.999996,0.000217,-0.005289,0.010285,-0.000238,0.010289,-0.005293,-89.126422,0.010290,
1740,500,-2.081045,-15.526973,0.999996,0.000247,-0.005137,0.010289,0.000213,0.010292,-0.005140,89.210288,0.010292,
1450,1030,-2.468298,-10.041464,0.999985,0.000479,-0.005939,0.016798,-0.000054,0.016798,-0.005939,-89.864543,0.017037,
750,1250,2.951092,-7.799210,0.999996,0.000242,-0.005432,0.010629,-0.001045,0.010697,-0.005500,-86.292253,0.010698,
850,720,2.021325,-13.566816,0.999995,0.000246,-0.006383,0.011531,0.000160,0.011533,-0.006384,89.488268,0.011555,
560,140,1.464507,-18.552045,0.999863,0.000000,-0.005056,0.011025,0.001578,0.011178,-0.005209,84.446658,0.011187,
1220,440,0.027515,-17.352157,0.999998,0.000172,-0.002431,0.007029,-0.000171,0.007033,-0.002434,-88.966735,0.007143,
1660,1340,-2.296803,-6.684419,0.999995,0.000273,-0.006094,0.011194,0.000429,0.011205,-0.006104,88.580693,0.011220,
990,1170,1.858132,-8.046917,0.999993,0.000313,-0.007192,0.013883,-0.000050,0.013883,-0.007193,-89.865091,0.013886,
1370,1260,-0.561585,-5.815781,0.999992,0.000352,-0.006431,0.009296,-0.004333,0.010411,-0.007546,-75.571738,0.010756,
1840,1450,-2.911743,-6.026774,0.999996,0.000240,-0.005113,0.010193,0.000115,0.010194,-0.005113,89.569982,0.010194,
800,540,1.784544,-15.365794,0.999995,0.000256,-0.005343,0.010412,-0.000381,0.010421,-0.005352,-88.614085,0.010422,
1130,420,0.247797,-17.416765,0.999997,0.000199,-0.002688,0.007391,-0.000620,0.007429,-0.002726,-86.492675,0.007516,
1310,110,-0.041551,-19.606209,0.999998,0.000169,-0.000551,0.006323,-0.000217,0.006330,-0.000558,-88.191202,0.007010,
940,1350,1.375328,-6.043131,0.999995,0.000264,-0.006776,0.011502,0.001101,0.011568,-0.006843,86.565828,0.011632,
1470,480,-0.739497,-16.607676,0.999997,0.000180,-0.004064,0.008830,0.001025,0.008911,-0.004145,85.482667,0.008918,
870,1650,1.135059,-3.222146,0.999996,0.000222,-0.004254,0.009444,0.000284,0.009450,-0.004260,88.812535,0.009465,
820,130,0.447848,-19.323854,0.999996,0.000241,-0.001830,0.008158,0.001706,0.008441,-0.002113,80.571053,0.008785,
1330,880,-0.999880,-14.366630,0.999997,0.000000,-0.002786,0.004277,0.003202,0.005512,-0.004021,68.899618,0.005703,
610,440,2.482983,-15.776038,0.999994,0.000298,-0.004994,0.010037,-0.000130,0.010038,-0.004996,-89.503902,0.010038,
1430,990,-2.276565,-10.829040,0.999981,0.000530,-0.007644,0.019315,0.002004,0.019463,-0.007793,85.771519,0.019592,
1740,1880,-0.929226,-1.355017,0.999997,0.000197,-0.003817,0.009610,0.001548,0.009786,-0.003993,83.508741,0.009841,
680,1010,3.792027,-10.245592,0.999997,0.000199,-0.004326,0.009449,0.000291,0.009455,-0.004332,88.791661,0.009466,
1650,1840,-0.806909,-1.576090,0.999997,0.000229,-0.003208,0.008969,0.001100,0.009067,-0.003307,84.881274,0.009177,
1820,1910,-1.073653,-1.259047,0.999995,0.000293,-0.004238,0.010379,0.001693,0.010572,-0.004432,83.477180,0.010618,
1510,1140,-2.303847,-8.649739,0.999996,0.000258,-0.005833,0.013089,0.001205,0.013165,-0.005910,86.371542,0.013188,
1250,1600,-0.045975,-2.918723,0.999998,0.000162,-0.002462,0.006922,-0.000264,0.006930,-0.002469,-88.388760,0.007024,
920,1760,0.708772,-2.108786,0.999997,0.000206,-0.002970,0.008575,-0.000292,0.008582,-0.002978,-88.551510,0.008715,
880,1570,1.250239,-3.965332,0.999995,0.000238,-0.004920,0.009820,0.000648,0.009848,-0.004948,87.488676,0.009848,
700,340,1.728744,-17.082672,0.999997,0.000216,-0.004811,0.010008,0.000035,0.010008,-0.004811,89.865131,0.010011,
730,840,3.188280,-11.958355,0.999994,0.000284,-0.005145,0.010347,0.001095,0.010424,-0.005222,85.976885,0.010424,
860,110,0.310190,-19.507737,0.999997,0.000190,-0.001497,0.007710,0.001503,0.007949,-0.001736,80.956829,0.008359,
740,740,2.756723,-13.040214,0.999996,0.000271,-0.005599,0.010626,0.000765,0.010662,-0.005635,87.307975,0.010667,
1560,1360,-1.592562,-6.101964,0.999995,0.000263,-0.006594,0.011412,-0.000613,0.011433,-0.006614,-88.053348,0.011480,
900,770,1.881434,-13.150713,0.999994,0.000261,-0.006935,0.012165,0.000130,0.012166,-0.006936,89.610714,0.012206,
880,590,1.466187,-15.119630,0.999994,0.000273,-0.005676,0.010489,-0.000770,0.010525,-0.005713,-87.279056,0.010538,
1510,240,-0.496287,-18.563281,0.999995,0.000253,-0.002597,0.008078,-0.000436,0.008095,-0.002615,-87.662286,0.008263,
1600,1710,-1.028711,-2.680165,0.999997,0.000182,-0.003931,0.009300,0.000032,0.009300,-0.003931,89.859294,0.009337,
1230,520,0.003912,-16.806321,0.999997,0.000199,-0.002534,0.006677,-0.000042,0.006678,-0.002534,-89.736539,0.006742,
700,1530,2.271820,-4.964416,0.999994,0.000281,-0.005196,0.010279,0.000115,0.010280,-0.005196,89.572554,0.010280,
1650,1740,-1.143959,-2.510557,0.999997,0.000220,-0.004029,0.009488,0.000244,0.009492,-0.004033,88.964809,0.009528,
840,940,2.991015,-11.002900,0.999995,0.000252,-0.004537,0.010783,0.001154,0.010869,-0.004623,85.715215,0.010909,
750,1230,3.026445,-8.014860,0.999996,0.000229,-0.005328,0.010607,-0.001129,0.010686,-0.005408,-85.968684,0.010687,
1720,340,-1.522605,-17.218284,0.999995,0.000244,-0.004629,0.009965,-0.000160,0.009967,-0.004631,-89.372367,0.009975,
1400,1660,-0.418227,-2.664529,0.999996,0.000240,-0.003044,0.007867,-0.000633,0.007904,-0.003081,-86.690289,0.007968,
840,1150,2.860830,-8.769154,0.999995,0.000254,-0.005062,0.011059,-0.001380,0.011176,-0.005180,-85.142885,0.011186,
770,1720,1.390054,-2.821496,0.999996,0.000223,-0.004405,0.009870,-0.000167,0.009872,-0.004406,-89.329571,0.009891,
1310,90,-0.032131,-19.729836,0.999998,0.000159,-0.000440,0.006218,-0.000213,0.006225,-0.000447,-88.169842,0.006944,
1320,2020,-0.007714,-0.092038,0.999998,0.000000,-0.000181,0.006080,0.000219,0.006088,-0.000189,87.996808,0.006923,
590,440,2.582585,-15.710517,0.999996,0.000244,-0.005177,0.009999,-0.000115,0.010000,-0.005178,-89.565619,0.010002,
860,1230,2.393993,-7.804709,0.999992,0.000305,-0.006281,0.011878,-0.001094,0.011943,-0.006346,-86.565752,0.011951,
970,1720,0.626567,-2.353204,0.999997,0.000216,-0.003301,0.008477,0.000203,0.008480,-0.003304,89.011618,0.008549,
1790,610,-2.669608,-14.232408,0.999996,0.000222,-0.005241,0.010321,-0.000143,0.010322,-0.005242,-89.472243,0.010323,
800,520,1.736313,-15.572856,0.999995,0.000232,-0.005233,0.010307,-0.000370,0.010316,-0.005242,-88.636366,0.010316,
1010,320,0.489626,-18.001350,0.999997,0.000212,-0.002623,0.008038,-0.000022,0.008038,-0.002623,-89.880004,0.008198,
870,1630,1.173935,-3.411075,0.999995,0.000253,-0.004371,0.009566,0.000405,0.009578,-0.004383,88.336922,0.009590,
1250,1970,-0.008853,-0.396468,0.999998,0.000173,-0.000407,0.006153,0.000028,0.006153,-0.000407,89.752162,0.006882,
1490,1140,-2.185713,-8.562551,0.999996,0.000229,-0.006212,0.013566,0.000845,0.013602,-0.006248,87.559115,0.013617,
760,170,0.794190,-18.904583,0.999994,0.000277,-0.002976,0.009181,0.001770,0.009433,-0.003229,81.883570,0.009588,
990,1150,2.004387,-8.324908,0.999993,0.000297,-0.006699,0.014049,-0.000322,0.014054,-0.006704,-89.111778,0.014058,
840,1290,2.259304,-7.148536,0.999992,0.000350,-0.006392,0.011604,-0.000646,0.011627,-0.006416,-87.947152,0.011648,
1740,1860,-1.036327,-1.549909,0.999996,0.000214,-0.003973,0.009766,0.001299,0.009888,-0.004095,84.644200,0.009936,
1890,1760,-2.187288,-3.073485,0.999997,0.000223,-0.004840,0.009645,-0.000011,0.009645,-0.004840,-89.956323,0.009645,
660,1010,3.877449,-10.243037,0.999997,0.000221,-0.004343,0.009299,0.000295,0.009305,-0.004349,88.760843,0.009312,
1570,1420,-1.492263,-5.469126,0.999994,0.000281,-0.006057,0.010890,-0.000838,0.010931,-0.006098,-87.175683,0.010955,
1800,1930,-0.863083,-1.004584,0.999995,0.000261,-0.003401,0.010233,0.002621,0.010719,-0.003888,79.485568,0.010853,
1450,1010,-2.449757,-10.366880,0.999986,0.000459,-0.005857,0.017192,0.000342,0.017197,-0.005862,89.149603,0.017485,
840,110,0.336507,-19.498212,0.999997,0.000205,-0.001330,0.007839,0.001674,0.008135,-0.001626,79.971179,0.008609,
1090,1390,0.428607,-4.730093,0.999996,0.000233,-0.004520,0.008067,0.002842,0.008680,-0.005132,77.847458,0.008728,
1000,1920,0.197258,-0.765955,0.999998,0.000178,-0.000960,0.006944,-0.000698,0.007005,-0.001021,-84.993707,0.007569,
1660,1320,-2.371258,-6.908916,0.999995,0.000268,-0.006099,0.011188,0.000585,0.011208,-0.006119,88.064082,0.011224,
1640,1490,-1.723207,-4.979181,0.999996,0.000200,-0.005530,0.010468,-0.000431,0.010480,-0.005541,-88.456236,0.010485,
1760,1330,-2.907013,-7.046132,0.999994,0.000271,-0.005388,0.010381,0.000659,0.010409,-0.005416,87.612520,0.010412,
630,250,1.722806,-17.763334,0.999997,0.000223,-0.004815,0.010134,0.000300,0.010140,-0.004821,88.851445,0.010144,
700,320,1.666481,-17.284425,0.999997,0.000212,-0.004823,0.010071,0.000087,0.010071,-0.004823,89.665236,0.010074,
1870,1580,-2.671062,-4.794123,0.999995,0.000283,-0.005007,0.010079,-0.000073,0.010080,-0.005008,-89.721933,0.010080,
1700,690,-2.444873,-13.640927,0.999994,0.000279,-0.005784,0.010854,-0.000423,0.010865,-0.005795,-88.546091,0.010873,
1800,230,-1.478038,-18.080222,0.999994,0.000303,-0.004566,0.010137,-0.000899,0.010192,-0.004621,-86.514143,0.010207,
870,540,1.410726,-15.607218,0.999995,0.000288,-0.005271,0.010221,-0.000710,0.010253,-0.005304,-87.382719,0.010255,
1720,300,-1.396130,-17.613788,0.999995,0.000266,-0.004309,0.009888,-0.000474,0.009904,-0.004325,-88.088510,0.009930,
750,1210,3.102176,-8.225631,0.999996,0.000252,-0.005203,0.010566,-0.001173,0.010653,-0.005290,-85.767848,0.010653,
1650,1720,-1.198716,-2.700900,0.999997,0.000197,-0.004261,0.009601,0.000079,0.009601,-0.004262,89.672172,0.009621,
940,1530,1.030968,-4.151049,0.999996,0.000222,-0.004765,0.009571,0.001040,0.009646,-0.004840,85.873994,0.009646,
1400,880,-1.288245,-12.992947,0.999986,0.000396,-0.006771,0.012187,0.003552,0.012830,-0.007415,79.728741,0.012882,
780,1150,3.158621,-8.828328,0.999995,0.000313,-0.004852,0.010534,-0.001229,0.010631,-0.004950,-85.462099,0.010640,
920,1740,0.751727,-2.275081,0.999997,0.000209,-0.003117,0.008655,-0.000142,0.008657,-0.003118,-89.311381,0.008769,
560,150,1.531633,-18.447891,0.999750,0.000000,-0.005658,0.010944,0.001163,0.011025,-0.005739,86.014078,0.011028,
590,430,2.553088,-15.810557,0.999997,0.000243,-0.005219,0.009976,-0.000095,0.009977,-0.005220,-89.641951,0.009980,
1080,1320,0.521141,-5.396182,0.999996,0.000261,-0.005751,0.009046,0.003676,0.009909,-0.006614,76.789636,0.010092,
1270,860,-0.414091,-15.195378,0.999990,0.000000,-0.008785,0.002949,-0.000407,0.002963,-0.008799,-88.016081,0.008954,
1790,590,-2.606899,-14.440251,0.999995,0.000237,-0.005216,0.010321,-0.000036,0.010321,-0.005216,-89.868621,0.010322,
1310,70,-0.021321,-19.853719,0.999998,0.000144,-0.000302,0.006149,-0.000216,0.006156,-0.000309,-88.081968,0.006937,
1580,820,-2.224078,-12.476608,0.999995,0.000260,-0.006563,0.012160,-0.000887,0.012202,-0.006605,-87.294032,0.012216,
1110,420,0.300766,-17.385224,0.999998,0.000210,-0.002679,0.007480,-0.000568,0.007512,-0.002711,-86.807889,0.007608,
870,1610,1.214635,-3.603519,0.999996,0.000272,-0.004589,0.009684,0.000473,0.009699,-0.004604,88.103981,0.009704,
1190,640,0.095207,-16.024287,0.999997,0.000218,-0.002540,0.005710,-0.001029,0.005836,-0.002666,-82.999491,0.005843,
1100,1210,0.766367,-6.175904,0.999994,0.000299,-0.006002,0.009006,0.004545,0.010275,-0.007271,74.398848,0.010567,
800,500,1.685197,-15.778721,0.999996,0.000214,-0.005141,0.010208,-0.000367,0.010217,-0.005150,-88.631930,0.010217,
1740,1840,-1.130937,-1.747039,0.999997,0.000208,-0.004163,0.009852,0.001088,0.009936,-0.004247,85.588793,0.009971,
760,310,1.356897,-17.559440,0.999996,0.000269,-0.004306,0.009761,0.000324,0.009768,-0.004313,88.682528,0.009790,
1580,1690,-0.993117,-2.811563,0.999996,0.000235,-0.004172,0.009194,-0.000198,0.009197,-0.004175,-89.153211,0.009210,
990,1130,2.149041,-8.606229,0.999994,0.000301,-0.006183,0.014108,-0.000456,0.014118,-0.006193,-88.712986,0.014154,
990,320,0.541906,-17.971889,0.999997,0.000200,-0.002735,0.008210,-0.000009,0.008210,-0.002735,-89.953059,0.008362,
1690,1140,-3.225975,-8.940294,0.999995,0.000280,-0.004760,0.010331,0.001094,0.010410,-0.004838,85.875593,0.010419,
1890,1920,-1.344810,-1.490669,0.999995,0.000293,-0.004844,0.010640,0.001369,0.010761,-0.004964,84.986097,0.010771,
790,1020,3.333171,-10.155994,0.999996,0.000243,-0.004084,0.010090,0.000170,0.010093,-0.004087,89.311797,0.010153,
1500,1830,-0.436298,-1.462486,0.999996,0.000242,-0.002417,0.007846,0.000405,0.007862,-0.002433,87.741815,0.008050,
990,1400,0.948865,-5.221267,0.999996,0.000237,-0.005911,0.010268,0.001931,0.010495,-0.006138,83.287563,0.010545,
1660,1300,-2.449300,-7.135079,0.999995,0.000271,-0.006063,0.011255,0.000718,0.011285,-0.006092,87.629750,0.011297,
1450,990,-2.402652,-10.723082,0.999989,0.000421,-0.005812,0.016463,0.000567,0.016477,-0.005826,88.542511,0.016711,
1630,1260,-2.428341,-7.519387,0.999994,0.000297,-0.006202,0.011552,0.000936,0.011601,-0.006251,86.989532,0.011613,
1670,240,-0.974429,-18.313185,0.999998,0.000172,-0.003874,0.009400,-0.000798,0.009447,-0.003921,-86.572171,0.009493,
1090,1370,0.435103,-4.894158,0.999996,0.000235,-0.004730,0.008115,0.003084,0.008817,-0.005432,77.176654,0.008896,
1390,1460,-0.481797,-4.242467,0.999995,0.000267,-0.004144,0.008210,-0.002043,0.008539,-0.004473,-80.850016,0.008542,
1000,1900,0.230416,-0.905532,0.999998,0.000173,-0.001123,0.007146,-0.000715,0.007207,-0.001184,-85.091222,0.007730,
750,1720,1.477735,-2.873639,0.999996,0.000230,-0.004488,0.009897,-0.000199,0.009900,-0.004491,-89.205832,0.009914,
1360,760,-0.424789,-14.763672,0.999995,0.000276,-0.005450,0.008140,0.004157,0.009311,-0.006621,74.271468,0.009584,
1360,1810,-0.201103,-1.489624,0.999997,0.000173,-0.001682,0.007188,0.000114,0.007189,-0.001684,89.266557,0.007520,
1490,1310,-1.264608,-6.331137,0.999993,0.000305,-0.007258,0.011908,-0.001432,0.012014,-0.007365,-85.750220,0.012116,
1670,1440,-2.028613,-5.611787,0.999995,0.000249,-0.005696,0.010782,-0.000144,0.010783,-0.005697,-89.498168,0.010789,
1250,1950,-0.011171,-0.520257,0.999998,0.000171,-0.000565,0.006261,0.000019,0.006261,-0.000565,89.837042,0.006927,
560,160,1.598856,-18.321818,0.999622,0.000000,-0.006148,0.009834,0.001006,0.009897,-0.006211,86.413068,0.010004,
1200,1360,0.064816,-4.400176,0.999997,0.000188,-0.002266,0.004658,0.001187,0.004856,-0.002464,80.534842,0.004856,
760,1150,3.255569,-8.846193,0.999996,0.000256,-0.004783,0.010337,-0.001171,0.010427,-0.004873,-85.599120,0.010435,
750,1630,1.741164,-3.780461,0.999995,0.000269,-0.004934,0.010090,0.000195,0.010093,-0.004937,89.256151,0.010094,
1080,1300,0.548652,-5.579293,0.999995,0.000264,-0.006117,0.009404,0.003833,0.010298,-0.007012,76.857961,0.010521,
1700,1600,-1.758702,-4.041651,0.999996,0.000235,-0.005033,0.010127,-0.000265,0.010131,-0.005038,-88.999110,0.010132,
1740,1330,-2.796811,-6.997985,0.999997,0.000206,-0.005509,0.010525,0.000670,0.010553,-0.005537,87.612743,0.010557,
1580,800,-2.130732,-12.723317,0.999994,0.000283,-0.006688,0.012171,-0.000673,0.012195,-0.006712,-87.960078,0.012216,
590,420,2.522846,-15.910773,0.999996,0.000272,-0.005373,0.010015,-0.000109,0.010016,-0.005374,-89.593854,0.010025,
1790,570,-2.546697,-14.648324,0.999995,0.000250,-0.005224,0.010307,0.000011,0.010307,-0.005224,89.960342,0.010307,
1270,30,-0.006593,-20.094541,0.999999,0.000000,-0.000021,0.005915,-0.000048,0.005915,-0.000021,-89.532694,0.006818,
800,480,1.634434,-15.983347,0.999996,0.000229,-0.005071,0.010110,-0.000362,0.010118,-0.005080,-88.634327,0.010118,
770,1020,3.414944,-10.154176,0.999995,0.000254,-0.004176,0.009975,0.000173,0.009978,-0.004178,89.299577,0.010021,
870,1590,1.257849,-3.799680,0.999996,0.000246,-0.004813,0.009787,0.000562,0.009809,-0.004834,87.798636,0.009809,
780,1170,3.088954,-8.615575,0.999996,0.000241,-0.005006,0.010580,-0.001215,0.010674,-0.005100,-85.569386,0.010677,
990,1110,2.286569,-8.892943,0.999992,0.000327,-0.005638,0.014301,-0.000546,0.014316,-0.005653,-88.432843,0.014421,
700,300,1.594486,-17.488001,0.999996,0.000242,-0.004819,0.010087,0.000220,0.010090,-0.004822,89.156200,0.010094,
1660,1280,-2.528812,-7.362119,0.999994,0.000296,-0.005993,0.011258,0.000874,0.011302,-0.006037,87.107292,0.011310,
630,230,1.634905,-17.964366,0.999997,0.000232,-0.004804,0.010123,0.000420,0.010134,-0.004816,88.388491,0.010139,
950,400,0.804093,-17.195870,0.999997,0.000206,-0.003690,0.008818,-0.000456,0.008834,-0.003707,-87.915319,0.008872,
940,830,1.880565,-12.570474,0.999997,0.000221,-0.007255,0.012946,0.000372,0.012953,-0.007262,88.944873,0.012985,
1670,220,-0.896322,-18.501324,0.999996,0.000227,-0.003698,0.009198,-0.000955,0.009268,-0.003768,-85.786552,0.009322,
1450,970,-2.306492,-11.024829,0.999987,0.000470,-0.005770,0.015820,0.000734,0.015845,-0.005795,88.055429,0.016034,
1520,130,-0.258461,-19.398619,0.999997,0.000238,-0.001341,0.007268,-0.000952,0.007372,-0.001445,-83.766306,0.007813,
1350,420,-0.292558,-17.389746,0.999997,0.000237,-0.002700,0.007459,0.000555,0.007489,-0.002730,86.883240,0.007580,
1740,1820,-1.225203,-1.945844,0.999997,0.000214,-0.004294,0.009884,0.000888,0.009939,-0.004350,86.429045,0.009965,
1100,1190,0.926110,-6.353423,0.999989,0.000374,-0.004850,0.008089,0.004487,0.009493,-0.006254,72.627041,0.009651,
1880,1920,-1.295693,-1.441695,0.999996,0.000266,-0.004819,0.010597,0.001324,0.010710,-0.004932,85.126412,0.010721,
1500,1810,-0.479915,-1.624078,0.999997,0.000224,-0.002577,0.007992,0.000343,0.008003,-0.002589,88.141652,0.008168,
1560,1690,-0.909570,-2.759457,0.999996,0.000217,-0.003823,0.009062,-0.000123,0.009063,-0.003824,-89.451328,0.009100,
1850,1580,-2.571263,-4.731259,0.999995,0.000271,-0.005043,0.010112,-0.000093,0.010113,-0.005044,-89.650008,0.010113,
1160,1270,0.202383,-5.003667,0.999997,0.000200,-0.003728,0.004643,0.003682,0.006032,-0.005117,69.329389,0.006502,
700,70,0.370623,-19.727469,0.999993,0.000322,-0.002079,0.008920,0.003172,0.009769,-0.002929,75.010670,0.010027,
870,520,1.369973,-15.810641,0.999996,0.000288,-0.005075,0.010063,-0.000660,0.010092,-0.005104,-87.507768,0.010092,
920,1720,0.790293,-2.454596,0.999998,0.000209,-0.003226,0.008921,-0.000070,0.008922,-0.003226,-89.670467,0.009035,
710,1580,2.080050,-4.416273,0.999996,0.000231,-0.005062,0.010222,0.000219,0.010225,-0.005065,89.180652,0.010225,
1380,1390,-0.462223,-4.773779,0.999995,0.000263,-0.004674,0.008218,-0.002813,0.008805,-0.005261,-78.213107,0.008861,
1400,860,-1.132495,-13.258085,0.999994,0.000286,-0.007254,0.011905,0.003191,0.012422,-0.007772,80.789112,0.012552,
1340,1810,-0.165790,-1.473675,0.999998,0.000191,-0.001740,0.007085,-0.000004,0.007085,-0.001740,-89.971560,0.007384,
1670,1420,-2.088683,-5.830839,0.999996,0.000236,-0.005800,0.010807,-0.000033,0.010807,-0.005800,-89.886751,0.010816,
1300,1980,-0.022572,-0.336156,0.999998,0.000180,-0.000276,0.006156,0.000198,0.006162,-0.000282,88.234444,0.006959,
830,720,2.148015,-13.499465,0.999994,0.000314,-0.006264,0.011384,0.000284,0.011388,-0.006269,89.077608,0.011408,
740,1150,3.353283,-8.862932,0.999996,0.000256,-0.004775,0.010155,-0.001054,0.010229,-0.004849,-85.981741,0.010234,
750,1650,1.687715,-3.575511,0.999995,0.000260,-0.004867,0.010095,0.000150,0.010097,-0.004868,89.425399,0.010099,
1330,820,-0.429862,-14.666074,0.999994,0.000294,-0.005045,0.006166,0.004224,0.007580,-0.006459,71.499561,0.008182,
1700,1580,-1.809637,-4.244609,0.999996,0.000230,-0.005067,0.010145,-0.000276,0.010150,-0.005072,-88.961572,0.010150,
1260,1430,-0.065707,-4.034633,0.999998,0.000175,-0.002401,0.005713,-0.000638,0.005763,-0.002451,-85.531999,0.005784,
760,1170,3.187807,-8.635378,0.999996,0.000221,-0.004958,0.010446,-0.001198,0.010538,-0.005051,-85.578924,0.010541,
650,1360,3.076664,-6.869151,0.999997,0.000225,-0.005153,0.010127,-0.000450,0.010141,-0.005166,-88.316280,0.010141,
1790,770,-3.225798,-12.582244,0.999997,0.000227,-0.005113,0.010110,-0.000761,0.010147,-0.005151,-87.145263,0.010148,
800,460,1.585216,-16.187483,0.999997,0.000202,-0.004950,0.010096,-0.000319,0.010103,-0.004956,-88.785596,0.010103,
1580,780,-2.038253,-12.967215,0.999995,0.000271,-0.006728,0.012010,-0.000449,0.012020,-0.006739,-88.626626,0.012050,
1490,1290,-1.330207,-6.574045,0.999992,0.000318,-0.007460,0.012265,-0.001251,0.012344,-0.007540,-86.384238,0.012445,
1710,400,-1.658236,-16.645695,0.999997,0.000210,-0.004851,0.010073,0.000146,0.010074,-0.004853,89.438046,0.010076,
1080,1280,0.588295,-5.768301,0.999993,0.000310,-0.006439,0.009631,0.004012,0.010577,-0.007385,76.732475,0.010851,
560,170,1.679741,-18.223534,0.999644,0.000000,-0.006208,0.009008,0.000953,0.009068,-0.006268,86.430370,0.009286,
1660,1480,-1.861545,-5.154899,0.999996,0.000213,-0.005515,0.010491,-0.000306,0.010497,-0.005521,-88.904051,0.010502,
1360,740,-0.398575,-14.922237,0.999995,0.000291,-0.005132,0.007994,0.003867,0.009048,-0.006187,74.748196,0.009250,
720,1850,1.096720,-1.659349,0.999996,0.000249,-0.004155,0.009859,-0.001134,0.009950,-0.004246,-85.404610,0.009985,
1450,950,-2.187617,-11.345207,0.999987,0.000415,-0.005934,0.015453,0.000697,0.015476,-0.005956,88.135727,0.015612,
1740,1800,-1.308415,-2.146984,0.999996,0.000248,-0.004427,0.009936,0.000707,0.009970,-0.004462,87.188449,0.009989,
1680,270,-1.122998,-18.007411,0.999997,0.000190,-0.004149,0.009502,-0.000581,0.009526,-0.004174,-87.567439,0.009551,
740,720,2.683410,-13.252464,0.999995,0.000287,-0.005633,0.010733,0.000639,0.010758,-0.005658,87.766899,0.010763,
950,380,0.771661,-17.372732,0.999997,0.000186,-0.003635,0.008716,-0.000404,0.008729,-0.003649,-88.130574,0.008768,
760,230,1.058974,-18.337553,0.999997,0.000201,-0.003728,0.009584,0.001082,0.009671,-0.003816,85.385497,0.009743,
1200,1340,0.062194,-4.484297,0.999997,0.000198,-0.002229,0.004236,0.001371,0.004514,-0.002508,78.509472,0.004524,
1250,1930,-0.013507,-0.648304,0.999998,0.000153,-0.000702,0.006325,-0.000009,0.006325,-0.000702,-89.929036,0.006934,
1560,1340,-1.655450,-6.334021,0.999995,0.000263,-0.006753,0.011711,-0.000499,0.011724,-0.006766,-88.454444,0.011771,
1260,2020,-0.005501,-0.093169,0.999999,0.000000,-0.000122,0.005962,0.000001,0.005962,-0.000122,89.990269,0.006815,
1830,1580,-2.469402,-4.666421,0.999996,0.000233,-0.005050,0.010157,-0.000123,0.010158,-0.005051,-89.536427,0.010158,
1030,1700,0.477817,-2.404820,0.999997,0.000222,-0.002945,0.008015,0.000375,0.008028,-0.002958,88.042947,0.008120,
1100,1170,1.142622,-6.501766,0.999990,0.000378,-0.003434,0.007557,0.004900,0.009425,-0.005301,69.138554,0.009449,
1750,80,-0.405856,-19.653592,0.999994,0.000266,-0.002440,0.008531,-0.002637,0.009131,-0.003041,-77.164369,0.009299,
1550,420,-0.980575,-16.919183,0.999998,0.000172,-0.004241,0.009274,0.000517,0.009294,-0.004260,87.812676,0.009305,
1820,1710,-2.025508,-3.313715,0.999994,0.000285,-0.004944,0.010031,-0.000014,0.010031,-0.004944,-89.945985,0.010032,
590,760,3.602965,-12.479412,0.999995,0.000273,-0.004938,0.009726,0.000252,0.009730,-0.004943,89.014803,0.009731,
840,920,2.920390,-11.224432,0.999995,0.000263,-0.004825,0.011036,0.001381,0.011155,-0.004945,85.060842,0.011179,
1330,420,-0.239879,-17.420558,0.999998,0.000198,-0.002712,0.007387,0.000614,0.007424,-0.002749,86.532796,0.007507,
1480,1830,-0.391954,-1.439022,0.999997,0.000193,-0.002052,0.007682,0.000464,0.007704,-0.002074,87.276043,0.007973,
860,1150,2.760803,-8.743989,0.999997,0.000253,-0.005176,0.011319,-0.001411,0.011439,-0.005296,-85.146092,0.011450,
750,1670,1.629901,-3.372075,0.999996,0.000222,-0.004761,0.010035,0.000028,0.010035,-0.004761,89.890464,0.010039,
1450,1260,-1.145276,-6.655494,0.999995,0.000254,-0.007707,0.012355,-0.002039,0.012560,-0.007912,-84.254734,0.012701,
870,1570,1.299365,-4.000255,0.999995,0.000253,-0.004941,0.009880,0.000621,0.009906,-0.004967,87.604613,0.009906,
990,1090,2.404316,-9.184505,0.999993,0.000310,-0.005138,0.014108,-0.000467,0.014119,-0.005150,-88.611769,0.014290,
1860,510,-2.724302,-15.041461,0.999995,0.000259,-0.005040,0.010135,0.000062,0.010136,-0.005040,89.764746,0.010136,
1140,1810,0.135422,-1.460865,0.999998,0.000190,-0.001653,0.006978,-0.000011,0.006978,-0.001653,-89.926271,0.007293,
1020,1530,0.669459,-3.861594,0.999997,0.000209,-0.004279,0.008767,0.001409,0.008918,-0.004429,83.904945,0.008918,
700,1870,1.084267,-1.517371,0.999996,0.000219,-0.004404,0.009896,-0.001270,0.010008,-0.004516,-84.962237,0.010024,
1210,1600,0.052983,-2.919742,0.999997,0.000211,-0.002458,0.006978,0.000273,0.006986,-0.002466,88.342289,0.007086,
1860,910,-3.987120,-11.113469,0.999998,0.000175,-0.004314,0.008897,-0.000396,0.008908,-0.004326,-88.283641,0.008910,
1700,1560,-1.861749,-4.449142,0.999997,0.000217,-0.005148,0.010268,-0.000271,0.010273,-0.005153,-88.994085,0.010273,
1400,840,-0.987246,-13.479733,0.999995,0.000264,-0.007447,0.011639,0.003130,0.012139,-0.007947,80.920186,0.012331,
1830,1140,-3.864759,-9.055092,0.999996,0.000243,-0.004449,0.009192,0.000556,0.009214,-0.004471,87.670329,0.009216,
590,1630,2.538096,-4.298929,0.999995,0.000256,-0.005291,0.009913,0.000251,0.009917,-0.005295,89.055592,0.009925,
800,440,1.535538,-16.389530,0.999996,0.000229,-0.004816,0.009973,-0.000284,0.009978,-0.004822,-88.900850,0.009980,
1790,1010,-3.822913,-10.244868,0.999997,0.000182,-0.004336,0.009382,-0.000284,0.009388,-0.004342,-88.813598,0.009397,
1300,1960,-0.033060,-0.459503,0.999998,0.000175,-0.000381,0.006252,0.000165,0.006256,-0.000385,88.573432,0.007012,
1740,1780,-1.391295,-2.347089,0.999996,0.000252,-0.004531,0.009983,0.000519,0.010001,-0.004549,87.954773,0.010015,
1660,1720,-1.243062,-2.729135,0.999997,0.000216,-0.004403,0.009679,0.000065,0.009680,-0.004403,89.736115,0.009693,
630,1360,3.179204,-6.922779,0.999996,0.000244,-0.005050,0.010077,-0.000363,0.010086,-0.005058,-88.627017,0.010086,
590,210,1.725119,-17.991941,0.999996,0.000262,-0.004959,0.009943,0.000360,0.009951,-0.004968,88.615786,0.009951,
1470,440,-0.695223,-16.959437,0.999997,0.000222,-0.003886,0.008714,0.000848,0.008771,-0.003943,86.167544,0.008785,
1450,930,-2.040165,-11.642265,0.999990,0.000371,-0.006300,0.014678,0.000559,0.014693,-0.006315,88.473943,0.014742,
1680,250,-1.050681,-18.193978,0.999997,0.000183,-0.003983,0.009465,-0.000750,0.009506,-0.004025,-86.818515,0.009543,
760,290,1.289799,-17.754513,0.999998,0.000208,-0.004202,0.009784,0.000536,0.009804,-0.004222,87.806720,0.009836,
1480,1870,-0.311739,-1.135930,0.999997,0.000189,-0.001675,0.007432,0.000612,0.007473,-0.001716,86.170088,0.007829,
1000,1530,0.754036,-3.930236,0.999996,0.000220,-0.004266,0.008943,0.001295,0.009069,-0.004391,84.452051,0.009071,
750,1690,1.567448,-3.172109,0.999995,0.000248,-0.004627,0.009926,-0.000102,0.009927,-0.004627,-89.600367,0.009935,
1360,720,-0.391000,-15.078881,0.999995,0.000271,-0.004823,0.007875,0.003606,0.008827,-0.005776,75.202271,0.008966,
1260,1200,-0.296128,-4.887907,0.999991,0.000000,-0.008740,0.002880,0.000567,0.002908,-0.008767,87.213439,0.008931,
1250,1910,-0.014700,-0.773297,0.999998,0.000165,-0.000869,0.006444,0.000017,0.006444,-0.000869,89.864729,0.006993,
560,390,2.705087,-16.156030,0.999689,0.000000,-0.010015,0.009239,0.000080,0.009240,-0.010015,89.760666,0.011144,
1890,760,-3.684755,-12.426889,0.999996,0.000265,-0.004801,0.009739,-0.000237,0.009743,-0.004805,-89.065665,0.009743,
1400,820,-0.867703,-13.716875,0.999994,0.000295,-0.007462,0.011547,0.003413,0.012142,-0.008056,80.123616,0.012356,
1840,1510,-2.727824,-5.412333,0.999994,0.000274,-0.005077,0.010176,-0.000061,0.010176,-0.005077,-89.769007,0.010176,
1170,640,0.150395,-15.969582,0.999997,0.000189,-0.002753,0.006007,-0.001597,0.006289,-0.003035,-79.980936,0.006291,
1080,1260,0.647387,-5.968519,0.999993,0.000334,-0.006808,0.010019,0.004070,0.010951,-0.007741,77.093718,0.011259,
1580,760,-1.956207,-13.207472,0.999994,0.000281,-0.006762,0.011956,-0.000204,0.011959,-0.006764,-89.374141,0.011993,
870,1550,1.341032,-4.197612,0.999995,0.000261,-0.005029,0.009991,0.000660,0.010020,-0.005058,87.487519,0.010021,
870,400,1.124838,-16.983895,0.999997,0.000226,-0.004253,0.009384,-0.000260,0.009389,-0.004258,-88.910186,0.009403,
680,270,1.575069,-17.726242,0.999996,0.000239,-0.004733,0.010058,0.000482,0.010073,-0.004749,88.135466,0.010079,
1200,1320,0.061664,-4.564206,0.999997,0.000187,-0.002206,0.003783,0.001527,0.004150,-0.002573,76.493070,0.004190,
1810,220,-1.474463,-18.152551,0.999995,0.000249,-0.004573,0.010205,-0.000924,0.010262,-0.004630,-86.437817,0.010279,
1710,1120,-3.365088,-9.154600,0.999996,0.000251,-0.004569,0.010030,0.000870,0.010081,-0.004620,86.601046,0.010093,
1560,1320,-1.724104,-6.571405,0.999994,0.000299,-0.006879,0.011907,-0.000319,0.011913,-0.006885,-89.027786,0.011961,
800,420,1.488562,-16.586298,0.999995,0.000259,-0.004721,0.009876,-0.000240,0.009880,-0.004725,-89.059646,0.009883,
1490,680,-1.093815,-14.577458,0.999996,0.000243,-0.006384,0.010894,0.001725,0.011064,-0.006555,84.352827,0.011127,
990,1290,1.203622,-6.457434,0.999995,0.000305,-0.007494,0.012162,0.001663,0.012302,-0.007634,85.198546,0.012421,
1800,950,-3.807723,-10.803178,0.999998,0.000186,-0.004453,0.009383,-0.000600,0.009409,-0.004479,-87.522148,0.009413,
1780,1830,-1.362979,-1.969189,0.999996,0.000244,-0.004577,0.010038,0.000887,0.010091,-0.004630,86.539592,0.010103,
700,280,1.521041,-17.689290,0.999997,0.000244,-0.004788,0.010038,0.000378,0.010047,-0.004798,88.540937,0.010051,
1780,1960,-0.588495,-0.675356,0.999993,0.000282,-0.002687,0.009193,0.002883,0.009856,-0.003350,77.053556,0.010023,
1150,450,0.202555,-17.229253,0.999997,0.000216,-0.002732,0.007276,-0.000619,0.007315,-0.002770,-86.473765,0.007386,
990,1080,2.453776,-9.319311,0.999994,0.000305,-0.004953,0.014071,-0.000400,0.014079,-0.004962,-88.794709,0.014282,
1190,420,0.098019,-17.475846,0.999998,0.000219,-0.002376,0.007114,-0.000224,0.007119,-0.002382,-88.647786,0.007248,
1430,1260,-0.990201,-6.472932,0.999994,0.000285,-0.007626,0.011943,-0.002703,0.012310,-0.007992,-82.278835,0.012491,
1450,910,-1.884595,-11.937252,0.999991,0.000344,-0.006793,0.014421,0.000531,0.014434,-0.006806,88.566731,0.014442,
1860,1930,-1.122979,-1.235466,0.999995,0.000254,-0.004794,0.010683,0.001429,0.010814,-0.004925,84.769135,0.010828,
580,760,3.650423,-12.449397,0.999993,0.000288,-0.005368,0.009712,0.000055,0.009713,-0.005368,89.790521,0.009731,
950,260,0.545512,-18.397668,0.999996,0.000248,-0.002792,0.008113,0.000316,0.008122,-0.002801,88.341651,0.008251,
610,1360,3.279264,-6.980511,0.999995,0.000259,-0.004982,0.010038,-0.000279,0.010043,-0.004988,-88.935459,0.010043,
1470,420,-0.669829,-17.135401,0.999997,0.000215,-0.003724,0.008591,0.000722,0.008633,-0.003767,86.654543,0.008656,
1090,1350,0.442508,-5.056194,0.999995,0.000236,-0.004934,0.008284,0.003315,0.009069,-0.005719,76.680175,0.009172,
1840,1690,-2.187618,-3.583313,0.999995,0.000274,-0.004897,0.010034,-0.000084,0.010034,-0.004897,-89.676748,0.010035,
760,180,0.841995,-18.816164,0.999996,0.000214,-0.003102,0.009224,0.001629,0.009436,-0.003314,82.597913,0.009574,
630,210,1.529714,-18.171363,0.999995,0.000264,-0.004822,0.010231,0.000543,0.010251,-0.004842,87.937236,0.010256,
1260,860,-0.323933,-15.259209,0.999982,0.000000,-0.009074,0.002977,-0.000610,0.003008,-0.009105,-87.110831,0.009278,
1830,570,-2.751717,-14.521494,0.999996,0.000220,-0.005099,0.010238,0.000005,0.010238,-0.005099,89.979685,0.010238,
1480,1850,-0.352935,-1.287468,0.999998,0.000164,-0.001868,0.007577,0.000586,0.007614,-0.001904,86.464319,0.007924,
560,380,2.660242,-16.232001,0.999655,0.000000,-0.009825,0.008471,0.001548,0.008601,-0.009955,85.197924,0.010799,
1000,1880,0.271678,-1.053270,0.999998,0.000170,-0.001330,0.007246,-0.000640,0.007293,-0.001377,-85.756882,0.007750,
1360,700,-0.379927,-15.238820,0.999995,0.000251,-0.004540,0.007714,0.003300,0.008546,-0.005372,75.845561,0.008640,
940,810,1.776375,-12.829807,0.999993,0.000299,-0.007381,0.012754,0.000025,0.012754,-0.007381,89.930197,0.012806,
600,710,3.380942,-12.999094,0.999995,0.000286,-0.004937,0.009929,0.000267,0.009934,-0.004942,88.972780,0.009934,
740,210,1.046513,-18.494686,0.999998,0.000161,-0.003603,0.009725,0.001379,0.009867,-0.003744,84.153779,0.009962,
1660,740,-2.390344,-13.195529,0.999995,0.000309,-0.006081,0.011225,-0.000611,0.011246,-0.006102,-87.980522,0.011260,
1250,1890,-0.019846,-0.907132,0.999998,0.000148,-0.000967,0.006504,0.000009,0.006504,-0.000967,89.927541,0.007018,
1660,310,-1.168786,-17.674646,0.999997,0.000199,-0.004231,0.009555,-0.000245,0.009559,-0.004235,-88.981818,0.009580,
1400,800,-0.784675,-13.942432,0.999993,0.000324,-0.007366,0.011004,0.003584,0.011678,-0.008040,79.342226,0.011952,
790,920,3.159996,-11.180874,0.999995,0.000254,-0.004698,0.010465,0.001144,0.010551,-0.004784,85.708519,0.010567,
920,1700,0.828960,-2.633344,0.999997,0.000219,-0.003343,0.008876,0.000009,0.008876,-0.003343,89.958310,0.008965,
620,1570,2.564629,-4.809516,0.999996,0.000257,-0.005071,0.010145,0.000109,0.010146,-0.005072,89.588395,0.010146,
1150,640,0.205908,-15.904204,0.999998,0.000199,-0.003013,0.006408,-0.001833,0.006752,-0.003357,-79.371155,0.006752,
870,420,1.166769,-16.796310,0.999996,0.000271,-0.004366,0.009512,-0.000355,0.009521,-0.004375,-88.536047,0.009531,
660,270,1.669662,-17.661791,0.999995,0.000294,-0.004695,0.010137,0.000483,0.010153,-0.004710,88.138550,0.010162,
1200,1300,0.064757,-4.634021,0.999997,0.000209,-0.002283,0.003321,0.001697,0.003795,-0.002757,74.399986,0.003923,
1650,1120,-3.095818,-9.120730,0.999996,0.000265,-0.004561,0.010508,0.001068,0.010583,-0.004636,85.966366,0.010610,
870,1530,1.380086,-4.400327,0.999994,0.000262,-0.005178,0.010134,0.000684,0.010165,-0.005209,87.447133,0.010166,
1080,1240,0.719298,-6.173759,0.999993,0.000328,-0.006978,0.010470,0.004074,0.011374,-0.007882,77.484801,0.011653,
1890,210,-1.807789,-17.911913,0.999996,0.000202,-0.004892,0.009747,-0.000331,0.009755,-0.004900,-88.705874,0.009755,
700,260,1.437873,-17.890646,0.999996,0.000257,-0.004731,0.009990,0.000533,0.010009,-0.004750,87.930828,0.010013,
850,1020,3.098471,-10.158720,0.999997,0.000257,-0.003785,0.010512,0.000180,0.010514,-0.003787,89.277739,0.010650,
1000,600,0.826568,-15.531267,0.999996,0.000243,-0.005141,0.009580,-0.001797,0.009796,-0.005357,-83.140550,0.009810,
600,1870,1.540057,-1.874370,0.999997,0.000214,-0.004877,0.010151,-0.000614,0.010176,-0.004903,-87.662979,0.010178,
1430,880,-1.501281,-12.582875,0.999990,0.000377,-0.007113,0.013902,0.001898,0.014072,-0.007283,84.881249,0.014074,
1480,430,-0.721824,-17.019367,0.999997,0.000200,-0.003866,0.008742,0.000762,0.008787,-0.003912,86.551710,0.008805,
1370,320,-0.281803,-18.115291,0.999997,0.000208,-0.002150,0.007473,0.000071,0.007473,-0.002151,89.576920,0.007694,
1780,1920,-0.861460,-1.064694,0.999996,0.000238,-0.003663,0.009754,0.002234,0.010116,-0.004025,80.789527,0.010186,
1820,1270,-3.431047,-7.793427,0.999996,0.000218,-0.004955,0.009960,0.000702,0.009993,-0.004988,87.309723,0.009993,
980,1530,0.838895,-4.001552,0.999996,0.000268,-0.004538,0.009223,0.001265,0.009338,-0.004653,84.789503,0.009339,
1160,1990,0.018564,-0.273814,0.999999,0.000135,-0.000191,0.006110,-0.000208,0.006117,-0.000198,-88.112526,0.006952,
1260,30,-0.004864,-20.096669,0.999999,0.000000,-0.000074,0.005905,0.000008,0.005905,-0.000074,89.920134,0.006776,
1090,1330,0.454168,-5.219800,0.999995,0.000261,-0.005258,0.008462,0.003618,0.009357,-0.006153,76.094891,0.009511,
760,160,0.743196,-18.998963,0.999996,0.000225,-0.002831,0.009136,0.001902,0.009431,-0.003126,81.182772,0.009608,
1700,1540,-1.916091,-4.658052,0.999997,0.000213,-0.005240,0.010331,-0.000261,0.010335,-0.005245,-89.039721,0.010335,
560,370,2.619577,-16.310784,0.999543,0.000000,-0.008453,0.008856,0.002156,0.009120,-0.008717,83.005271,0.010306,
1830,550,-2.691450,-14.726281,0.999996,0.000235,-0.005093,0.010233,0.000053,0.010233,-0.005093,89.800083,0.010233,
1170,420,0.146072,-17.465300,0.999996,0.000227,-0.002368,0.007174,-0.000233,0.007180,-0.002374,-88.600357,0.007316,
1580,740,-1.876637,-13.450292,0.999996,0.000273,-0.006715,0.011850,0.000001,0.011850,-0.006715,89.997263,0.011885,
1720,330,-1.493779,-17.316351,0.999995,0.000252,-0.004550,0.009930,-0.000192,0.009933,-0.004553,-89.238643,0.009944,
1820,1690,-2.089967,-3.515111,0.999997,0.000204,-0.004964,0.010080,-0.000043,0.010080,-0.004964,-89.837235,0.010080,
600,910,3.997875,-11.108827,0.999996,0.000237,-0.004319,0.008882,0.000382,0.008893,-0.004330,88.345404,0.008894,
1150,1360,0.198197,-4.594154,0.999996,0.000226,-0.003240,0.005969,0.002668,0.006686,-0.003957,74.955742,0.006724,
590,710,3.429726,-12.969403,0.999995,0.000277,-0.005209,0.009778,0.000369,0.009787,-0.005218,88.589695,0.009794,
1460,1870,-0.281754,-1.124098,0.999997,0.000188,-0.001429,0.007293,0.000570,0.007330,-0.001466,86.275510,0.007757,
1350,1890,-0.118481,-0.927987,0.999998,0.000164,-0.001091,0.006661,0.000246,0.006669,-0.001098,88.183981,0.007151,
880,1910,0.392264,-0.910336,0.999997,0.000202,-0.002058,0.007854,-0.001199,0.007997,-0.002201,-83.197705,0.008262,
1760,630,-2.575456,-14.111811,0.999994,0.000287,-0.005376,0.010450,-0.000183,0.010452,-0.005378,-89.336515,0.010454,
1400,780,-0.715230,-14.157317,0.999992,0.000331,-0.006995,0.010582,0.003645,0.011308,-0.007721,78.737307,0.011557,
1620,1510,-1.567972,-4.702042,0.999995,0.000270,-0.005402,0.010361,-0.000556,0.010380,-0.005422,-87.981596,0.010384,
1260,140,-0.022986,-19.417125,0.999998,0.000182,-0.000788,0.006420,-0.000047,0.006420,-0.000788,-89.626037,0.007003,
1560,1300,-1.800656,-6.814064,0.999993,0.000278,-0.006975,0.012081,-0.000110,0.012081,-0.006976,-89.669096,0.012130,
790,1610,1.596996,-3.851212,0.999995,0.000263,-0.004918,0.010013,0.000297,0.010019,-0.004924,88.860230,0.010020,
1450,890,-1.724917,-12.229331,0.999991,0.000352,-0.007275,0.014118,0.000647,0.014138,-0.007294,88.269627,0.014140,
1280,550,-0.122579,-16.571329,0.999998,0.000191,-0.002626,0.006644,0.000626,0.006686,-0.002668,86.154576,0.006731,
620,1550,2.623115,-5.014916,0.999994,0.000273,-0.005074,0.010121,0.000089,0.010121,-0.005075,89.666081,0.010121,
1640,1660,-1.318800,-3.257289,0.999996,0.000259,-0.004535,0.009721,-0.000205,0.009724,-0.004538,-89.174442,0.009731,
920,1680,0.870733,-2.812317,0.999996,0.000225,-0.003587,0.008913,0.000159,0.008915,-0.003589,89.272611,0.008971,
1660,290,-1.106303,-17.865433,0.999997,0.000217,-0.004081,0.009466,-0.000427,0.009479,-0.004095,-88.196775,0.009508,
1000,1860,0.303968,-1.197620,0.999998,0.000198,-0.001525,0.007433,-0.000577,0.007470,-0.001562,-86.329712,0.007880,
1550,520,-1.152201,-15.964299,0.999996,0.000249,-0.004992,0.009814,0.000922,0.009871,-0.005049,86.448942,0.009872,
630,190,1.424394,-18.375851,0.999995,0.000266,-0.004813,0.010269,0.000751,0.010306,-0.004850,87.157363,0.010312,
1670,1140,-3.129816,-8.924621,0.999996,0.000229,-0.004754,0.010547,0.001210,0.010643,-0.004849,85.504953,0.010657,
1720,290,-1.360449,-17.714531,0.999995,0.000232,-0.004245,0.009892,-0.000572,0.009915,-0.004268,-87.688008,0.009947,
570,840,3.950390,-11.670083,0.999996,0.000219,-0.004520,0.009149,0.000190,0.009151,-0.004523,89.204106,0.009152,
1890,200,-1.755920,-18.008889,0.999996,0.000218,-0.004896,0.009793,-0.000375,0.009803,-0.004906,-88.539839,0.009803,
880,110,0.280511,-19.520116,0.999997,0.000236,-0.001566,0.007572,0.001344,0.007766,-0.001760,81.806836,0.008143,
1150,430,0.196929,-17.375124,0.999997,0.000217,-0.002624,0.007286,-0.000524,0.007313,-0.002651,-86.981614,0.007405,
580,210,1.774059,-17.945305,0.999996,0.000255,-0.005159,0.009947,0.000395,0.009958,-0.005170,88.501429,0.009960,
1660,700,-2.241180,-13.645200,0.999996,0.000265,-0.006065,0.011134,-0.000305,0.011140,-0.006070,-88.985361,0.011155,
1740,1760,-1.465170,-2.549716,0.999997,0.000233,-0.004608,0.010006,0.000370,0.010015,-0.004617,88.550907,0.010025,
700,240,1.353022,-18.090696,0.999996,0.000260,-0.004677,0.010008,0.000668,0.010039,-0.004708,87.400073,0.010045,
870,1510,1.419037,-4.605379,0.999995,0.000255,-0.005366,0.010264,0.000719,0.010297,-0.005399,87.371490,0.010301,
720,1150,3.446273,-8.878458,0.999996,0.000225,-0.004714,0.009960,-0.000933,0.010019,-0.004773,-86.378269,0.010023,
830,2000,0.135885,-0.251167,0.999997,0.000197,-0.000441,0.007127,-0.001814,0.007540,-0.000853,-77.191012,0.008258,
1780,1380,-2.833400,-6.576276,0.999997,0.000233,-0.005278,0.010406,0.000397,0.010416,-0.005288,88.551326,0.010416,
600,1010,4.133701,-10.233294,0.999997,0.000207,-0.004163,0.008705,0.000247,0.008709,-0.004168,88.898898,0.008712,
1860,1270,-3.626904,-7.890581,0.999996,0.000240,-0.004773,0.009631,0.000430,0.009643,-0.004785,88.292356,0.009644,
960,1530,0.935778,-4.077459,0.999996,0.000259,-0.004772,0.009433,0.001179,0.009531,-0.004869,85.287502,0.009531,
1480,1010,-2.595029,-10.315553,0.999992,0.000343,-0.004326,0.014134,-0.000204,0.014136,-0.004328,-89.366051,0.014486,
1480,610,-0.925135,-15.356954,0.999996,0.000219,-0.005379,0.009893,0.001703,0.010081,-0.005567,83.714188,0.010099,
560,360,2.502926,-16.399087,0.999593,0.000000,-0.007100,0.009560,0.001896,0.009773,-0.007313,83.588662,0.010166,
1200,1280,0.071220,-4.694817,0.999997,0.000210,-0.002505,0.002859,0.001823,0.003420,-0.003066,72.894431,0.003761,
1400,760,-0.668934,-14.366675,0.999994,0.000278,-0.006648,0.010167,0.003598,0.010905,-0.007386,78.415152,0.011131,
1030,280,0.382918,-18.343069,0.999996,0.000223,-0.002373,0.007737,0.000060,0.007738,-0.002373,89.657861,0.007928,
1260,380,-0.063192,-17.768598,0.999998,0.000162,-0.002232,0.007098,0.000197,0.007102,-0.002236,88.790728,0.007262,
1830,530,-2.631234,-14.933616,0.999995,0.000250,-0.005111,0.010159,0.000071,0.010160,-0.005111,89.734533,0.010160,
1440,1870,-0.252407,-1.110353,0.999996,0.000221,-0.001506,0.007181,0.000454,0.007204,-0.001530,87.015801,0.007591,
1090,1310,0.474234,-5.395069,0.999995,0.000286,-0.005622,0.008693,0.003853,0.009664,-0.006594,75.852117,0.009876,
860,1910,0.432805,-0.925360,0.999995,0.000247,-0.002011,0.008013,-0.001378,0.008199,-0.002197,-82.313589,0.008488,
1250,2020,-0.004057,-0.093110,0.999999,0.000000,-0.000145,0.005978,-0.000042,0.005978,-0.000145,-89.610056,0.006821,
970,1360,1.148268,-5.765767,0.999997,0.000256,-0.006605,0.011159,0.001653,0.011312,-0.006757,84.727668,0.011383,
1880,760,-3.635774,-12.458208,0.999996,0.000281,-0.004817,0.009757,-0.000266,0.009762,-0.004822,-88.954056,0.009762,
1000,1840,0.345652,-1.351484,0.999998,0.000202,-0.001737,0.007536,-0.000480,0.007560,-0.001761,-87.046556,0.007912,
1560,1500,-1.268108,-4.588186,0.999996,0.000245,-0.005284,0.010156,-0.000933,0.010212,-0.005340,-86.553752,0.010215,
760,140,0.641225,-19.180588,0.999997,0.000200,-0.002390,0.008805,0.002043,0.009166,-0.002751,79.973586,0.009407,
1310,420,-0.184979,-17.450423,0.999998,0.000183,-0.002558,0.007259,0.000458,0.007280,-0.002579,87.333939,0.007382,
980,440,0.744590,-16.923228,0.999997,0.000206,-0.003889,0.008769,-0.000770,0.008815,-0.003936,-86.531282,0.008832,
1280,650,-0.112775,-15.951764,0.999996,0.000235,-0.002638,0.005640,0.001375,0.005863,-0.002861,80.810622,0.005863,
1580,720,-1.806404,-13.683889,0.999996,0.000251,-0.006650,0.011677,0.000199,0.011679,-0.006652,89.377540,0.011717,
1080,1220,0.834307,-6.399001,0.999992,0.000338,-0.007061,0.010600,0.003863,0.011408,-0.007869,78.185843,0.011678,
1700,330,-1.405883,-17.370500,0.999996,0.000207,-0.004376,0.009873,-0.000201,0.009876,-0.004378,-89.192872,0.009897,
700,220,1.261605,-18.291631,0.999996,0.000231,-0.004596,0.009956,0.000884,0.010010,-0.004649,86.537332,0.010018,
1450,870,-1.576776,-12.517374,0.999992,0.000341,-0.007691,0.013906,0.000929,0.013946,-0.007730,87.540229,0.013973,
800,400,1.435532,-16.785780,0.999995,0.000251,-0.004644,0.009858,-0.000164,0.009860,-0.004646,-89.350490,0.009866,
1150,410,0.189724,-17.521892,0.999996,0.000228,-0.002536,0.007273,-0.000433,0.007292,-0.002555,-87.475673,0.007400,
1560,110,-0.247158,-19.532331,0.999997,0.000221,-0.001101,0.007398,-0.001271,0.007584,-0.001287,-81.676104,0.008116,
580,710,3.478331,-12.938436,0.999994,0.000280,-0.006049,0.009360,0.000743,0.009396,-0.006084,87.247174,0.009531,
1360,680,-0.371839,-15.393715,0.999996,0.000245,-0.004345,0.007660,0.002992,0.008364,-0.005050,76.753176,0.008424,
870,1490,1.466567,-4.813324,0.999995,0.000274,-0.005518,0.010415,0.000722,0.010447,-0.005550,87.412111,0.010454,
1660,160,-0.612913,-19.056956,0.999997,0.000222,-0.002775,0.008671,-0.001553,0.008878,-0.002982,-82.410951,0.009036,
590,1880,1.527415,-1.818797,0.999995,0.000269,-0.005028,0.010214,-0.000739,0.010249,-0.005064,-87.229399,0.010250,
760,270,1.217035,-17.952190,0.999997,0.000184,-0.004040,0.009640,0.000692,0.009675,-0.004075,87.112820,0.009715,
700,1150,3.539868,-8.895629,0.999995,0.000274,-0.004684,0.009779,-0.000812,0.009824,-0.004730,-86.798238,0.009826,
920,1660,0.904087,-2.988597,0.999995,0.000237,-0.003863,0.009023,0.000352,0.009033,-0.003872,88.438557,0.009064,
560,350,2.429426,-16.512011,0.999879,0.000000,-0.005901,0.010132,0.001347,0.010244,-0.006013,85.230995,0.010295,
1020,1590,0.614589,-3.336475,0.999997,0.000231,-0.003729,0.008531,0.001006,0.008613,-0.003811,85.339571,0.008632,
630,1300,3.388104,-7.526985,0.999997,0.000221,-0.004948,0.009876,-0.000539,0.009895,-0.004968,-87.921439,0.009895,
1430,1480,-0.647884,-4.250012,0.999996,0.000242,-0.004455,0.008830,-0.001738,0.009053,-0.004678,-82.668616,0.009055,
770,1060,3.394839,-9.754562,0.999995,0.000273,-0.004195,0.009939,-0.000370,0.009949,-0.004205,-88.500288,0.009989,
1760,990,-3.677302,-10.441430,0.999997,0.000219,-0.004357,0.009562,-0.000293,0.009568,-0.004363,-88.793576,0.009580,
710,780,3.070781,-12.552198,0.999997,0.000245,-0.005289,0.010385,0.000890,0.010435,-0.005339,86.758967,0.010436,
780,1910,0.613301,-1.000236,0.999997,0.000213,-0.002763,0.008716,-0.001773,0.008984,-0.003031,-81.419032,0.009141,
1780,1360,-2.904493,-6.783479,0.999996,0.000239,-0.005284,0.010321,0.000498,0.010337,-0.005300,88.172856,0.010338,
1180,230,0.071296,-18.816543,0.999998,0.000162,-0.001306,0.006818,0.000065,0.006818,-0.001306,89.539763,0.007238,
1200,1260,0.085399,-4.747945,0.999996,0.000239,-0.003015,0.002517,0.001718,0.003007,-0.003505,74.078052,0.003793,
1400,740,-0.627407,-14.571433,0.999995,0.000261,-0.006224,0.009811,0.003459,0.010526,-0.006938,78.331737,0.010702,
1510,380,-0.761644,-17.380396,0.999997,0.000222,-0.003682,0.008716,0.000411,0.008730,-0.003695,88.104853,0.008764,
1830,510,-2.573668,-15.135540,0.999995,0.000275,-0.005116,0.010165,0.000097,0.010166,-0.005117,89.637859,0.010166,
1890,190,-1.702807,-18.107178,0.999996,0.000237,-0.004898,0.009892,-0.000501,0.009909,-0.004915,-88.063905,0.009909,
670,240,1.491802,-17.999323,0.999995,0.000273,-0.004628,0.010118,0.000781,0.010160,-0.004669,86.977339,0.010171,
630,170,1.299255,-18.586302,0.999995,0.000268,-0.004785,0.010428,0.000970,0.010490,-0.004846,86.365823,0.010500,
1050,1360,0.650353,-5.255159,0.999995,0.000242,-0.005730,0.009541,0.002913,0.010078,-0.006267,79.559007,0.010177,
1570,830,-2.206931,-12.381400,0.999995,0.000244,-0.006627,0.012300,-0.000920,0.012345,-0.006671,-87.224118,0.012358,
1250,1350,-0.037744,-4.424548,0.999998,0.000165,-0.002040,0.004270,-0.000794,0.004369,-0.002139,-82.941576,0.004369,
970,380,0.699751,-17.421938,0.999996,0.000233,-0.003649,0.008672,-0.000472,0.008690,-0.003667,-87.808480,0.008726,
1250,1200,-0.204464,-4.852554,0.999987,0.000000,-0.010058,0.003070,0.000464,0.003087,-0.010074,87.977726,0.010323,
1450,850,-1.436906,-12.796575,0.999992,0.000325,-0.007914,0.013603,0.001367,0.013689,-0.008001,86.379524,0.013754,
1090,1290,0.510228,-5.576754,0.999995,0.000281,-0.005963,0.009014,0.004062,0.010045,-0.006994,75.760637,0.010300,
1570,1840,-0.575525,-1.463773,0.999997,0.000199,-0.002632,0.008301,0.000806,0.008360,-0.002691,85.808156,0.008535,
760,120,0.539186,-19.352861,0.999996,0.000226,-0.001994,0.008803,0.002337,0.009287,-0.002478,78.297542,0.009618,
1260,550,-0.072083,-16.588341,0.999997,0.000214,-0.002522,0.006528,0.000448,0.006550,-0.002544,87.171028,0.006604,
700,200,1.163423,-18.491115,0.999997,0.000211,-0.004484,0.009999,0.001110,0.010083,-0.004569,85.644221,0.010098,
1360,640,-0.370608,-15.697479,0.999996,0.000251,-0.003899,0.007620,0.002360,0.008085,-0.004364,78.857644,0.008093,
1080,1200,0.970859,-6.619794,0.999992,0.000320,-0.006786,0.010638,0.004023,0.011522,-0.007671,77.606403,0.011731,
680,1150,3.631341,-8.913136,0.999997,0.000191,-0.004617,0.009587,-0.000709,0.009623,-0.004652,-87.149999,0.009624,
870,1470,1.509752,-5.023834,0.999995,0.000271,-0.005641,0.010505,0.000682,0.010534,-0.005670,87.584405,0.010544,
730,580,2.273857,-14.718614,0.999994,0.000282,-0.005405,0.010474,-0.000062,0.010474,-0.005405,-89.777729,0.010476,
1270,420,-0.091743,-17.478227,0.999998,0.000195,-0.002379,0.007092,0.000230,0.007097,-0.002384,88.610485,0.007224,
1570,1910,-0.364794,-0.899566,0.999998,0.000197,-0.001766,0.007704,0.001177,0.007848,-0.001910,83.020114,0.008185,
780,910,3.174687,-11.279295,0.999996,0.000274,-0.004815,0.010502,0.001200,0.010596,-0.004908,85.548070,0.010605,
800,360,1.329410,-17.178505,0.999996,0.000234,-0.004611,0.009692,-0.000062,0.009693,-0.004611,-89.752785,0.009696,
1100,1160,1.254584,-6.572886,0.999988,0.000412,-0.003009,0.007839,0.005566,0.010187,-0.005357,67.130253,0.010192,
560,340,2.405455,-16.606878,0.999883,0.000000,-0.004854,0.010065,0.000334,0.010073,-0.004861,88.719237,0.010075,
760,250,1.142303,-18.142857,0.999997,0.000200,-0.003898,0.009665,0.000905,0.009725,-0.003959,86.197957,0.009781,
1030,1680,0.500254,-2.570867,0.999996,0.000224,-0.003024,0.008183,0.000399,0.008197,-0.003038,87.965499,0.008288,
1780,1340,-2.976438,-6.988775,0.999996,0.000233,-0.005282,0.010258,0.000607,0.010282,-0.005305,87.767898,0.010284,
650,960,3.880478,-10.702360,0.999997,0.000226,-0.004427,0.009207,0.000364,0.009217,-0.004437,88.473139,0.009219,
740,700,2.609637,-13.472729,0.999994,0.000336,-0.005657,0.010763,0.000516,0.010779,-0.005674,88.201353,0.010784,
1060,2000,0.035607,-0.220744,0.999998,0.000165,-0.000336,0.006210,-0.000455,0.006242,-0.000368,-86.040298,0.007005,
860,1810,0.768523,-1.776337,0.999996,0.000258,-0.003216,0.008822,-0.000699,0.008862,-0.003257,-86.686001,0.008965,
1490,1270,-1.412006,-6.824281,0.999994,0.000292,-0.007649,0.012575,-0.001055,0.012630,-0.007704,-87.021083,0.012732,
930,1440,1.227388,-5.097201,0.999996,0.000250,-0.005753,0.010392,0.001147,0.010473,-0.005834,85.956677,0.010496,
980,400,0.691575,-17.273455,0.999996,0.000258,-0.003703,0.008652,-0.000596,0.008681,-0.003732,-87.243625,0.008710,
1760,690,-2.780144,-13.480404,0.999996,0.000244,-0.005412,0.010509,-0.000475,0.010523,-0.005426,-88.293353,0.010525,
580,1880,1.576220,-1.866092,0.999995,0.000270,-0.005553,0.010152,-0.000755,0.010189,-0.005589,-87.253424,0.010205,
1200,1240,0.125195,-4.795108,0.999995,0.000261,-0.003951,0.002480,0.001389,0.002767,-0.004238,78.319112,0.004304,
1770,560,-2.410117,-14.811790,0.999996,0.000228,-0.005264,0.010322,0.000041,0.010323,-0.005264,89.848489,0.010323,
1300,1940,-0.038398,-0.587366,0.999998,0.000158,-0.000501,0.006371,0.000206,0.006377,-0.000508,88.282601,0.007088,
1490,320,-0.590622,-17.940547,0.999996,0.000244,-0.003101,0.008386,0.000070,0.008386,-0.003101,89.653303,0.008480,
1400,720,-0.600607,-14.767019,0.999994,0.000277,-0.005878,0.009496,0.003274,0.010164,-0.006546,78.465571,0.010303,
1800,630,-2.788902,-13.996609,0.999996,0.000234,-0.005242,0.010252,-0.000225,0.010255,-0.005245,-89.168026,0.010256,
940,1590,0.939994,-3.579064,0.999996,0.000231,-0.004377,0.009315,0.000859,0.009369,-0.004431,86.424669,0.009373,
670,220,1.398698,-18.200773,0.999997,0.000228,-0.004513,0.010131,0.001019,0.010201,-0.004584,86.039170,0.010219,
920,1640,0.942365,-3.170567,0.999996,0.000216,-0.004126,0.009178,0.000510,0.009198,-0.004145,87.807479,0.009212,
630,150,1.171254,-18.796720,0.999996,0.000249,-0.004728,0.010395,0.001185,0.010487,-0.004821,85.546677,0.010498,
1880,210,-1.759232,-17.959557,0.999997,0.000199,-0.004884,0.009845,-0.000348,0.009853,-0.004892,-88.647448,0.009853,
1830,490,-2.513279,-15.340647,0.999996,0.000257,-0.005082,0.010188,0.000112,0.010189,-0.005083,89.579370,0.010189,
1250,1310,-0.036839,-4.571026,0.999998,0.000180,-0.002057,0.003286,-0.000971,0.003457,-0.002228,-80.013659,0.003505,
1360,620,-0.370675,-15.848441,0.999996,0.000229,-0.003774,0.007589,0.002123,0.007972,-0.004157,79.756710,0.007975,
1250,860,-0.226003,-15.292979,0.999976,0.000000,-0.009806,0.002731,-0.000639,0.002763,-0.009838,-87.088857,0.010149,
1090,1270,0.546925,-5.756209,0.999994,0.000302,-0.006295,0.009252,0.004221,0.010324,-0.007367,75.748147,0.010634,
760,100,0.423104,-19.533335,0.999996,0.000227,-0.001549,0.008305,0.002333,0.008830,-0.002073,77.332428,0.009234,
1160,590,0.185125,-16.257380,0.999998,0.000185,-0.002891,0.006647,-0.001363,0.006838,-0.003082,-82.027074,0.006849,
1400,1120,-1.761103,-7.884774,0.999986,0.000445,-0.005540,0.015418,-0.006706,0.017381,-0.007503,-73.691319,0.017435,
970,580,0.955978,-15.592971,0.999997,0.000202,-0.005105,0.009780,-0.001466,0.009923,-0.005248,-84.428339,0.009928,
700,180,1.058029,-18.692513,0.999997,0.000201,-0.004332,0.009841,0.001345,0.009968,-0.004459,84.628706,0.009986,
560,330,2.372150,-16.714667,0.999880,0.000000,-0.004547,0.009520,0.000018,0.009520,-0.004547,89.926908,0.009523,
1080,1180,1.120382,-6.830140,0.999990,0.000345,-0.005938,0.010302,0.004324,0.011382,-0.007018,75.981911,0.011485,
1770,1120,-3.638233,-9.191184,0.999996,0.000237,-0.004559,0.009702,0.000777,0.009745,-0.004601,86.890210,0.009750,
980,1870,0.317998,-1.137377,0.999997,0.000209,-0.001751,0.007442,-0.000600,0.007481,-0.001790,-86.284424,0.007813,
1200,230,0.044406,-18.820256,0.999998,0.000217,-0.001417,0.006780,0.000001,0.006780,-0.001417,89.989734,0.007153,
870,1450,1.556215,-5.235482,0.999995,0.000266,-0.005794,0.010589,0.000645,0.010615,-0.005819,87.748830,0.010631,
1780,1320,-3.049578,-7.196274,0.999996,0.000227,-0.005249,0.010301,0.000650,0.010329,-0.005276,87.608817,0.010329,
1050,2000,0.039670,-0.221225,0.999998,0.000148,-0.000375,0.006251,-0.000502,0.006288,-0.000413,-85.693621,0.007035,
1550,670,-1.457456,-14.387191,0.999994,0.000309,-0.006370,0.011233,0.000889,0.011278,-0.006415,87.115904,0.011313,
590,910,4.041567,-11.092011,0.999996,0.000241,-0.004276,0.008784,0.000321,0.008792,-0.004284,88.591769,0.008793,
1070,1360,0.537714,-5.112135,0.999995,0.000258,-0.005317,0.008905,0.003112,0.009557,-0.005968,78.182240,0.009655,
570,1770,2.159839,-2.987812,0.999977,0.000552,-0.004540,0.009556,-0.000020,0.009556,-0.004540,-89.919433,0.009560,
800,340,1.271519,-17.372680,0.999997,0.000221,-0.004528,0.009706,0.000014,0.009706,-0.004528,89.944363,0.009713,
1450,830,-1.318989,-13.063526,0.999991,0.000338,-0.007908,0.013067,0.001664,0.013198,-0.008039,85.493380,0.013302,
1500,130,-0.229182,-19.411146,0.999998,0.000162,-0.001375,0.007144,-0.000802,0.007219,-0.001450,-84.666069,0.007637,
1740,690,-2.671881,-13.533249,0.999994,0.000282,-0.005544,0.010628,-0.000456,0.010641,-0.005557,-88.385977,0.010644,
840,1550,1.489664,-4.298246,0.999996,0.000268,-0.005105,0.010123,0.000515,0.010140,-0.005122,88.065088,0.010140,
1000,1820,0.376617,-1.500792,0.999997,0.000205,-0.001881,0.007697,-0.000410,0.007714,-0.001898,-87.555624,0.008039,
1830,470,-2.456153,-15.544837,0.999996,0.000229,-0.005061,0.010178,0.000138,0.010179,-0.005063,89.482038,0.010179,
960,1700,0.695107,-2.547889,0.999996,0.000257,-0.003584,0.008526,0.000356,0.008537,-0.003594,88.319628,0.008572,
730,1000,3.567389,-10.350307,0.999995,0.000249,-0.004293,0.009750,0.000355,0.009759,-0.004302,88.551728,0.009782,
740,310,1.443114,-17.507259,0.999997,0.000214,-0.004397,0.009883,0.000334,0.009891,-0.004405,88.661079,0.009910,
1200,820,0.136217,-15.355352,0.999993,0.000311,-0.004287,0.002610,-0.001250,0.002830,-0.004507,-80.040490,0.004555,
920,1620,0.978064,-3.362446,0.999997,0.000193,-0.004309,0.009350,0.000635,0.009379,-0.004339,87.342892,0.009388,
1090,1250,0.616651,-5.949700,0.999992,0.000336,-0.006582,0.009642,0.004326,0.010723,-0.007664,75.964773,0.011048,
1770,540,-2.353166,-15.019962,0.999995,0.000267,-0.005219,0.010271,0.000094,0.010271,-0.005220,89.653616,0.010272,
1660,140,-0.526345,-19.230666,0.999997,0.000239,-0.002524,0.008405,-0.001641,0.008646,-0.002765,-81.643558,0.008831,
1150,390,0.184048,-17.667338,0.999997,0.000198,-0.002448,0.007246,-0.000359,0.007259,-0.002461,-87.881497,0.007384,
1870,210,-1.711182,-18.006493,0.999995,0.000236,-0.004882,0.009931,-0.000379,0.009940,-0.004892,-88.536214,0.009941,
630,130,1.026917,-19.007098,0.999996,0.000228,-0.004660,0.010548,0.001503,0.010695,-0.004807,84.409970,0.010714,
640,290,1.842267,-17.392401,0.999997,0.000198,-0.004834,0.010094,0.000203,0.010097,-0.004837,89.222470,0.010100,
1360,600,-0.369244,-15.996687,0.999997,0.000210,-0.003715,0.007554,0.001952,0.007882,-0.004044,80.448328,0.007883,
1490,300,-0.555760,-18.107034,0.999998,0.000223,-0.002921,0.008156,-0.000047,0.008156,-0.002921,-89.755470,0.008265,
1250,30,-0.003622,-20.097075,0.999999,0.000000,-0.000163,0.005939,0.000007,0.005939,-0.000163,89.932219,0.006765,
1780,630,-2.682338,-14.052812,0.999996,0.000205,-0.005321,0.010329,-0.000231,0.010332,-0.005324,-89.156337,0.010334,
1250,390,-0.041270,-17.702019,0.999998,0.000163,-0.002285,0.007088,0.000200,0.007092,-0.002289,88.780805,0.007239,
1400,700,-0.581247,-14.950098,0.999994,0.000271,-0.005557,0.009203,0.003101,0.009828,-0.006182,78.604191,0.009936,
1370,440,-0.357520,-17.206140,0.999997,0.000202,-0.002927,0.007672,0.000732,0.007722,-0.002978,86.068454,0.007790,
1580,700,-1.739532,-13.918797,0.999996,0.000256,-0.006550,0.011486,0.000352,0.011493,-0.006557,88.881874,0.011531,
700,380,1.858725,-16.678259,0.999997,0.000217,-0.004878,0.010121,-0.000084,0.010121,-0.004878,-89.680998,0.010123,
1180,550,0.130032,-16.567429,0.999998,0.000174,-0.002657,0.006634,-0.000661,0.006680,-0.002704,-85.951914,0.006721,
1290,800,-0.180548,-15.208420,0.999997,0.000193,-0.003651,0.003659,0.003065,0.004774,-0.004766,70.008161,0.005508,
660,1150,3.721973,-8.933207,0.999996,0.000218,-0.004567,0.009395,-0.000638,0.009424,-0.004596,-87.389581,0.009425,
1520,1430,-1.173030,-5.144961,0.999996,0.000256,-0.005800,0.010430,-0.001306,0.010534,-0.005905,-85.428011,0.010560,
650,1300,3.289212,-7.477755,0.999996,0.000239,-0.005016,0.009959,-0.000619,0.009984,-0.005041,-87.635169,0.009985,
1620,1010,-3.113868,-10.262670,0.999997,0.000228,-0.003838,0.010431,-0.000330,0.010439,-0.003846,-88.675990,0.010559,
1730,380,-1.697465,-16.785309,0.999997,0.000234,-0.004867,0.010065,0.000030,0.010066,-0.004868,89.886412,0.010067,
600,1590,2.607654,-4.670296,0.999995,0.000245,-0.005019,0.010138,0.000102,0.010139,-0.005020,89.615743,0.010139,
560,320,2.345869,-16.805073,0.999896,0.000000,-0.004576,0.009241,0.000150,0.009243,-0.004578,89.376735,0.009243,
1590,1900,-0.441559,-0.996226,0.999997,0.000242,-0.002213,0.007982,0.001219,0.008125,-0.002356,83.276543,0.008361,
760,80,0.327984,-19.689595,0.999997,0.000213,-0.001240,0.007899,0.002323,0.008455,-0.001796,76.528275,0.008910,
1360,1870,-0.143473,-1.063707,0.999998,0.000167,-0.001187,0.006785,0.000225,0.006791,-0.001193,88.385754,0.007252,
1320,230,-0.122006,-18.807072,0.999997,0.000207,-0.001511,0.006911,-0.000057,0.006912,-0.001512,-89.612040,0.007267,
1780,1300,-3.120447,-7.405859,0.999996,0.000236,-0.005219,0.010293,0.000734,0.010327,-0.005254,87.297877,0.010328,
870,1430,1.606140,-5.449146,0.999994,0.000283,-0.005973,0.010825,0.000600,0.010847,-0.005994,87.957303,0.010867,
1200,2000,0.007087,-0.212742,0.999998,0.000147,-0.000245,0.006025,-0.000065,0.006026,-0.000245,-89.405438,0.006821,
580,910,4.084374,-11.077492,0.999996,0.000231,-0.004175,0.008691,0.000241,0.008695,-0.004180,88.927148,0.008698,
1830,890,-3.812212,-11.334586,0.999997,0.000228,-0.004530,0.009211,-0.000514,0.009230,-0.004549,-87.858753,0.009231,
1780,930,-3.672278,-11.007997,0.999997,0.000204,-0.004571,0.009599,-0.000741,0.009637,-0.004610,-87.015984,0.009640,
1240,2020,-0.003871,-0.092736,0.999998,0.000000,-0.000154,0.005990,-0.000053,0.005990,-0.000154,-89.505355,0.006829,
1250,370,-0.041031,-17.844308,0.999998,0.000168,-0.002195,0.007064,0.000193,0.007068,-0.002199,88.803901,0.007234,
1400,680,-0.563163,-15.135499,0.999994,0.000283,-0.005227,0.008963,0.002895,0.009531,-0.005795,78.900483,0.009605,
1200,800,0.093629,-15.397240,0.999996,0.000253,-0.003163,0.002497,-0.001709,0.002973,-0.003638,-74.439225,0.003875,
1440,1330,-0.859291,-5.754591,0.999996,0.000248,-0.006624,0.010782,-0.002640,0.011174,-0.007016,-81.564045,0.011295,
1620,630,-1.779673,-14.554985,0.999995,0.000262,-0.005972,0.010900,0.000383,0.010909,-0.005981,88.699679,0.010926,
1150,370,0.177725,-17.812691,0.999998,0.000182,-0.002326,0.007271,-0.000272,0.007279,-0.002333,-88.379962,0.007433,
800,320,1.214628,-17.569296,0.999997,0.000229,-0.004393,0.009653,0.000167,0.009655,-0.004395,89.318806,0.009668,
1080,1380,0.478879,-4.872052,0.999995,0.000247,-0.004810,0.008435,0.002918,0.009049,-0.005424,78.110465,0.009108,
1220,550,0.028669,-16.602206,0.999998,0.000175,-0.002520,0.006486,-0.000278,0.006495,-0.002529,-88.235958,0.006548,
1360,670,-0.370804,-15.470210,0.999996,0.000253,-0.004229,0.007673,0.002846,0.008319,-0.004875,77.219628,0.008360,
1490,360,-0.655199,-17.603306,0.999997,0.000223,-0.003474,0.008443,0.000382,0.008455,-0.003486,88.164747,0.008499,
920,860,2.185578,-12.097437,0.999995,0.000259,-0.006602,0.012636,0.001069,0.012695,-0.006661,86.829814,0.012700,
1830,1780,-1.818723,-2.641378,0.999997,0.000190,-0.004797,0.010074,0.000201,0.010077,-0.004800,89.226414,0.010080,
740,290,1.373224,-17.706461,0.999996,0.000250,-0.004286,0.009931,0.000557,0.009953,-0.004308,87.759271,0.009983,
840,900,2.841857,-11.447371,0.999996,0.000235,-0.005130,0.011097,0.001374,0.011212,-0.005245,85.193462,0.011220,
1360,580,-0.367094,-16.152153,0.999996,0.000216,-0.003645,0.007596,0.001819,0.007883,-0.003932,81.031928,0.007883,
660,1280,3.310839,-7.655521,0.999996,0.000246,-0.005050,0.010021,-0.000724,0.010055,-0.005084,-87.255834,0.010056,
560,310,2.302494,-16.888873,0.999934,0.000000,-0.004508,0.009197,0.000242,0.009202,-0.004512,88.988453,0.009202,
1520,750,-1.495916,-13.599200,0.999996,0.000211,-0.007220,0.012133,0.000805,0.012167,-0.007253,87.623535,0.012241,
870,1410,1.660155,-5.671097,0.999995,0.000263,-0.006116,0.011053,0.000542,0.011070,-0.006133,88.192377,0.011092,
1580,660,-1.619744,-14.373421,0.999994,0.000293,-0.006290,0.011166,0.000610,0.011187,-0.006312,88.002632,0.011218,
1090,1230,0.698650,-6.144102,0.999992,0.000347,-0.006759,0.009854,0.004231,0.010870,-0.007775,76.503428,0.011200,
990,400,0.653817,-17.299866,0.999995,0.000270,-0.003554,0.008550,-0.000582,0.008578,-0.003582,-87.252896,0.008617,
1750,1980,-0.375274,-0.465409,0.999992,0.000317,-0.002305,0.008542,0.002722,0.009187,-0.002949,76.674027,0.009381,
1490,1250,-1.501577,-7.079765,0.999994,0.000302,-0.007774,0.012874,-0.000819,0.012906,-0.007806,-87.732453,0.013001,
1660,120,-0.439426,-19.394729,0.999996,0.000248,-0.002115,0.008208,-0.001802,0.008514,-0.002421,-80.376086,0.008774,
1560,1390,-1.507245,-5.759057,0.999996,0.000241,-0.006336,0.011188,-0.000767,0.011221,-0.006370,-87.499161,0.011255,
1890,820,-3.876621,-11.863945,0.999996,0.000220,-0.004520,0.009151,-0.000230,0.009155,-0.004524,-89.035604,0.009155,
630,110,0.877351,-19.219609,0.999995,0.000265,-0.004493,0.010554,0.001879,0.010785,-0.004724,82.990313,0.010813,
1800,1710,-1.924283,-3.248536,0.999997,0.000212,-0.004928,0.010074,0.000007,0.010074,-0.004928,89.974356,0.010075,
790,600,2.001619,-14.699284,0.999995,0.000245,-0.005638,0.010643,-0.000169,0.010645,-0.005639,-89.406010,0.010651,
1550,630,-1.360654,-14.831358,0.999994,0.000281,-0.005985,0.010735,0.001008,0.010796,-0.006046,86.561668,0.010822,
1690,120,-0.513183,-19.363661,0.999996,0.000254,-0.002153,0.008561,-0.002171,0.008984,-0.002577,-78.969530,0.009252,
1490,1200,-1.782571,-7.741599,0.999997,0.000267,-0.007470,0.013481,0.000100,0.013482,-0.007470,89.725260,0.013508,
910,1360,1.546989,-6.070166,0.999994,0.000314,-0.006645,0.011432,0.000734,0.011461,-0.006675,87.677445,0.011513,
1400,1110,-1.824655,-8.042614,0.999983,0.000499,-0.006062,0.017008,-0.007107,0.019021,-0.008076,-74.180519,0.019093,
1620,610,-1.727556,-14.770137,0.999996,0.000261,-0.005842,0.010690,0.000493,0.010704,-0.005856,88.293801,0.010720,
570,910,4.126347,-11.059458,0.999988,0.000385,-0.004120,0.008588,0.000191,0.008591,-0.004123,89.141305,0.008594,
1560,1010,-2.892014,-10.275470,0.999995,0.000266,-0.003587,0.011110,-0.000448,0.011124,-0.003600,-88.256338,0.011352,
1400,660,-0.550815,-15.314578,0.999995,0.000256,-0.004913,0.008783,0.002664,0.009283,-0.005413,79.370764,0.009325,
1700,1520,-1.969689,-4.865160,0.999996,0.000235,-0.005300,0.010346,-0.000248,0.010350,-0.005304,-89.091914,0.010351,
1890,1880,-1.612389,-1.900220,0.999996,0.000252,-0.004894,0.010087,0.000683,0.010118,-0.004925,87.393856,0.010120,
740,680,2.540022,-13.687318,0.999994,0.000321,-0.005661,0.010657,0.000397,0.010666,-0.005671,88.607420,0.010673,
960,1680,0.726844,-2.719686,0.999997,0.000235,-0.003678,0.008654,0.000426,0.008669,-0.003693,88.024118,0.008700,
1620,1490,-1.613683,-4.909979,0.999995,0.000252,-0.005496,0.010411,-0.000537,0.010429,-0.005514,-88.069487,0.010434,
1780,1280,-3.194207,-7.609273,0.999996,0.000235,-0.005158,0.010176,0.000820,0.010220,-0.005202,86.948101,0.010220,
900,1150,2.549724,-8.674897,0.999995,0.000259,-0.005474,0.012000,-0.001482,0.012125,-0.005598,-85.187206,0.012137,
800,300,1.149531,-17.762202,0.999997,0.000212,-0.004252,0.009513,0.000319,0.009521,-0.004260,88.672127,0.009538,
1350,1460,-0.331999,-4.081955,0.999996,0.000252,-0.003555,0.007401,-0.001889,0.007717,-0.003872,-80.485484,0.007717,
1200,550,0.079308,-16.585699,0.999997,0.000184,-0.002532,0.006529,-0.000445,0.006551,-0.002553,-87.195329,0.006604,
1150,350,0.168442,-17.958687,0.999997,0.000194,-0.002201,0.007203,-0.000205,0.007207,-0.002206,-88.750600,0.007386,
1090,710,0.446342,-15.063482,0.999993,0.000306,-0.005055,0.008349,-0.003370,0.009149,-0.005854,-76.652808,0.009268,
1550,1840,-0.532002,-1.442826,0.999996,0.000238,-0.002209,0.008165,0.000799,0.008226,-0.002270,85.619168,0.008497,
1030,300,0.411977,-18.187347,0.999996,0.000217,-0.002551,0.007756,-0.000078,0.007757,-0.002552,-89.568143,0.007907,
840,570,1.641653,-15.187191,0.999996,0.000226,-0.005549,0.010489,-0.000503,0.010504,-0.005564,-88.205731,0.010510,
1480,130,-0.202232,-19.422420,0.999997,0.000195,-0.001119,0.007051,-0.000777,0.007124,-0.001192,-84.616439,0.007632,
1360,630,-0.371216,-15.772154,0.999996,0.000237,-0.003820,0.007587,0.002228,0.008007,-0.004240,79.330372,0.008011,
1360,560,-0.364146,-16.308237,0.999997,0.000194,-0.003557,0.007576,0.001657,0.007817,-0.003799,81.709068,0.007818,
900,110,0.249771,-19.530941,0.999998,0.000181,-0.001169,0.007433,0.001262,0.007614,-0.001351,81.822761,0.008125,
920,1600,1.013490,-3.550540,0.999997,0.000225,-0.004432,0.009437,0.000721,0.009475,-0.004469,87.032300,0.009480,
1650,1140,-3.031993,-8.907089,0.999996,0.000247,-0.004797,0.010751,0.001297,0.010858,-0.004904,85.264160,0.010875,
840,880,2.762244,-11.670867,0.999996,0.000243,-0.005394,0.011319,0.001404,0.011436,-0.005511,85.231144,0.011439,
1500,750,-1.352351,-13.712192,0.999992,0.000313,-0.007282,0.012047,0.001181,0.012119,-0.007354,86.517501,0.012210,
870,1830,0.673534,-1.580328,0.999997,0.000223,-0.003071,0.008561,-0.000747,0.008608,-0.003119,-86.338938,0.008716,
560,300,2.257561,-16.981467,0.999962,0.000000,-0.004418,0.009504,0.000248,0.009508,-0.004423,88.979522,0.009516,
620,1790,1.840704,-2.593455,0.999996,0.000245,-0.004838,0.010095,-0.000175,0.010097,-0.004840,-89.329113,0.010100,
1090,1210,0.835355,-6.347700,0.999993,0.000310,-0.006511,0.009889,0.004369,0.010981,-0.007602,75.974727,0.011248,
1750,1960,-0.492583,-0.629280,0.999997,0.000214,-0.003006,0.008549,0.002318,0.008997,-0.003454,79.071445,0.009077,
1640,1640,-1.364906,-3.453035,0.999996,0.000249,-0.004654,0.009852,-0.000261,0.009856,-0.004659,-88.971322,0.009861,
1740,1740,-1.535586,-2.750921,0.999996,0.000251,-0.004680,0.009980,0.000205,0.009983,-0.004683,89.197300,0.009990,
690,1420,2.662031,-6.136977,0.999995,0.000249,-0.005361,0.010377,-0.000274,0.010382,-0.005366,-89.004390,0.010384,
680,1480,2.524104,-5.541444,0.999995,0.000263,-0.005264,0.010346,-0.000001,0.010346,-0.005264,-89.997379,0.010347,
1530,1320,-1.513406,-6.431126,0.999995,0.000267,-0.007037,0.011898,-0.000751,0.011928,-0.007066,-87.731673,0.011995,
1690,100,-0.402469,-19.541496,0.999997,0.000199,-0.001735,0.008248,-0.002202,0.008712,-0.002199,-78.095855,0.009061,
1840,610,-2.928974,-14.081974,0.999996,0.000229,-0.005098,0.010155,-0.000105,0.010156,-0.005099,-89.604581,0.010156,
1490,1230,-1.604968,-7.339148,0.999992,0.000334,-0.007755,0.013193,-0.000447,0.013202,-0.007765,-88.778847,0.013270,
1660,100,-0.350553,-19.560272,0.999997,0.000213,-0.001754,0.007985,-0.001895,0.008341,-0.002110,-79.369683,0.008673,
1580,640,-1.567020,-14.596530,0.999994,0.000268,-0.006130,0.010981,0.000704,0.011010,-0.006159,87.646988,0.011036,
1420,1080,-2.128332,-8.950696,0.999986,0.000422,-0.007926,0.019492,-0.003853,0.020023,-0.008457,-82.150489,0.020103,
630,90,0.699820,-19.432069,0.999994,0.000273,-0.004316,0.010604,0.002493,0.011009,-0.004721,80.761213,0.011046,
1720,1670,-1.662134,-3.394707,0.999996,0.000250,-0.004820,0.010050,-0.000058,0.010050,-0.004821,-89.778062,0.010052,
640,1230,3.581326,-8.192360,0.999994,0.000279,-0.004781,0.009600,-0.000692,0.009633,-0.004815,-87.250009,0.009633,
1110,360,0.271053,-17.836661,0.999998,0.000224,-0.002421,0.007451,-0.000323,0.007461,-0.002431,-88.130675,0.007611,
1700,1500,-2.023801,-5.071696,0.999995,0.000261,-0.005386,0.010407,-0.000208,0.010409,-0.005389,-89.246985,0.010412,
740,660,2.472477,-13.899362,0.999994,0.000303,-0.005607,0.010629,0.000304,0.010635,-0.005613,88.929410,0.010640,
1820,1010,-3.951541,-10.240760,0.999997,0.000199,-0.004320,0.009141,-0.000282,0.009147,-0.004326,-88.799906,0.009152,
1530,1930,-0.260949,-0.730670,0.999998,0.000203,-0.001217,0.007317,0.001065,0.007448,-0.001348,82.993234,0.007937,
960,1660,0.758717,-2.894536,0.999997,0.000207,-0.003734,0.008750,0.000464,0.008767,-0.003751,87.872282,0.008798,
810,600,1.889099,-14.764417,0.999996,0.000208,-0.005661,0.010677,-0.000284,0.010682,-0.005666,-89.004967,0.010689,
1880,820,-3.831057,-11.890633,0.999995,0.000249,-0.004554,0.009187,-0.000271,0.009192,-0.004559,-88.870212,0.009193,
1400,640,-0.543702,-15.484429,0.999996,0.000231,-0.004677,0.008600,0.002488,0.009051,-0.005127,79.726645,0.009078,
1830,1480,-2.766191,-5.689312,0.999996,0.000239,-0.005101,0.010235,0.000028,0.010235,-0.005101,89.896509,0.010235,
1530,1840,-0.488075,-1.420800,0.999998,0.000207,-0.002228,0.007995,0.000671,0.008039,-0.002272,86.262392,0.008288,
710,1600,2.022828,-4.211639,0.999995,0.000270,-0.005001,0.010167,0.000206,0.010170,-0.005004,89.223725,0.010170,
1780,1260,-3.266457,-7.813300,0.999996,0.000257,-0.005107,0.010128,0.000869,0.010177,-0.005157,86.745353,0.010178,
1060,1940,0.107497,-0.606670,0.999998,0.000158,-0.000797,0.006621,-0.000484,0.006652,-0.000828,-86.283107,0.007251,
800,280,1.086241,-17.951709,0.999997,0.000214,-0.004113,0.009447,0.000503,0.009465,-0.004132,87.877922,0.009491,
1880,1880,-1.561938,-1.852463,0.999997,0.000230,-0.004885,0.010146,0.000692,0.010178,-0.004917,87.368546,0.010180,
740,270,1.298382,-17.904824,0.999996,0.000256,-0.004133,0.009812,0.000762,0.009854,-0.004174,86.881347,0.009892,
1150,330,0.161469,-18.101223,0.999998,0.000183,-0.002072,0.007185,-0.000139,0.007187,-0.002074,-89.138717,0.007398,
870,1850,0.614721,-1.414983,0.999995,0.000252,-0.002831,0.008467,-0.000923,0.008542,-0.002906,-85.361333,0.008686,
820,570,1.753382,-15.117981,0.999996,0.000201,-0.005558,0.010529,-0.000429,0.010541,-0.005570,-88.472880,0.010547,
920,1560,1.077572,-3.930630,0.999996,0.000237,-0.004640,0.009546,0.000813,0.009593,-0.004687,86.731243,0.009594,
1200,430,0.075199,-17.410424,0.999998,0.000200,-0.002400,0.007082,-0.000254,0.007089,-0.002407,-88.469020,0.007209,
1240,610,-0.020627,-16.233358,0.999998,0.000155,-0.002368,0.005854,0.000262,0.005862,-0.002376,88.179040,0.005897,
1490,500,-0.842370,-16.365216,0.999995,0.000259,-0.004373,0.009179,0.001092,0.009266,-0.004460,85.423526,0.009268,
1090,1190,0.971579,-6.552131,0.999991,0.000333,-0.005629,0.009365,0.004517,0.010621,-0.006884,74.465802,0.010775,
1740,1720,-1.604082,-2.951563,0.999995,0.000259,-0.004771,0.009965,0.000082,0.009966,-0.004772,89.679929,0.009969,
890,700,1.692359,-13.947285,0.999995,0.000243,-0.006609,0.011463,-0.000407,0.011472,-0.006618,-88.709926,0.011518,
560,410,2.681825,-15.933458,0.999881,0.000000,-0.008958,0.011316,-0.000597,0.011334,-0.008976,-88.315686,0.011961,
770,1760,1.265757,-2.429419,0.999996,0.000235,-0.004269,0.009692,-0.000425,0.009705,-0.004282,-88.259041,0.009727,
830,920,2.968171,-11.215224,0.999995,0.000280,-0.004807,0.010921,0.001337,0.011034,-0.004920,85.176950,0.011055,
670,1420,2.767536,-6.194616,0.999996,0.000222,-0.005269,0.010292,-0.000239,0.010296,-0.005272,-89.119498,0.010297,
1640,1620,-1.417336,-3.653064,0.999995,0.000250,-0.004710,0.009885,-0.000313,0.009892,-0.004717,-88.772038,0.009895,
680,1440,2.648743,-5.959259,0.999995,0.000240,-0.005299,0.010301,-0.000151,0.010303,-0.005300,-89.446278,0.010304,
1000,130,0.188758,-19.429391,0.999997,0.000204,-0.000952,0.006966,0.000716,0.007030,-0.001016,84.874357,0.007599,
670,1840,1.373529,-1.909749,0.999995,0.000260,-0.004467,0.010113,-0.001090,0.010194,-0.004548,-85.749058,0.010214,
630,70,0.510143,-19.646267,0.999994,0.000291,-0.004078,0.010461,0.002811,0.010985,-0.004602,79.431077,0.011033,
1510,1320,-1.373753,-6.326082,0.999994,0.000281,-0.007111,0.011854,-0.001130,0.011921,-0.007178,-86.602674,0.012004,
1410,1100,-1.948468,-8.413694,0.999980,0.000538,-0.007071,0.017798,-0.005798,0.019083,-0.008356,-77.500754,0.019132,
1700,1670,-1.566330,-3.333401,0.999997,0.000219,-0.004639,0.009924,-0.000056,0.009924,-0.004640,-89.777846,0.009931,
1630,1140,-2.934572,-8.886525,0.999995,0.000250,-0.004881,0.010946,0.001354,0.011061,-0.004996,85.144898,0.011078,
1800,90,-0.605847,-19.506346,0.999995,0.000280,-0.002253,0.009823,-0.003550,0.010790,-0.003220,-74.773151,0.011078,
1490,1210,-1.721780,-7.608623,0.999995,0.000300,-0.007600,0.013401,-0.000088,0.013401,-0.007600,-89.759854,0.013441,
1660,80,-0.262685,-19.713777,0.999997,0.000221,-0.001327,0.007704,-0.001958,0.008110,-0.001733,-78.281675,0.008542,
1580,620,-1.515895,-14.813791,0.999994,0.000287,-0.005937,0.010710,0.000764,0.010745,-0.005972,87.376673,0.010767,
1060,770,0.712971,-14.235363,0.999995,0.000275,-0.006870,0.010538,-0.003541,0.011231,-0.007563,-78.932343,0.011454,
1130,870,0.887563,-14.353666,0.999997,0.000226,-0.003356,0.004620,-0.003100,0.005683,-0.004419,-71.071503,0.005968,
1360,540,-0.359475,-16.459435,0.999997,0.000213,-0.003457,0.007649,0.001496,0.007847,-0.003655,82.460511,0.007853,
840,860,2.669549,-11.901215,0.999995,0.000252,-0.005685,0.011420,0.001334,0.011524,-0.005788,85.567528,0.011524,
1690,80,-0.308206,-19.697731,0.999996,0.000241,-0.001370,0.007871,-0.002239,0.008385,-0.001884,-77.071486,0.008798,
1400,620,-0.536391,-15.651984,0.999996,0.000234,-0.004515,0.008516,0.002357,0.008929,-0.004928,80.055876,0.008945,
1680,1010,-3.353620,-10.256189,0.999997,0.000199,-0.004151,0.010035,-0.000319,0.010042,-0.004158,-88.713024,0.010091,
940,110,0.210760,-19.545312,0.999998,0.000174,-0.001081,0.007204,0.001059,0.007337,-0.001214,82.832536,0.007866,
890,1900,0.402937,-0.980217,0.999997,0.000227,-0.001994,0.007861,-0.001132,0.007989,-0.002122,-83.532901,0.008277,
1450,810,-1.211852,-13.315644,0.999992,0.000319,-0.007803,0.012605,0.001883,0.012778,-0.007976,84.772986,0.012908,
1060,1900,0.154492,-0.877031,0.999998,0.000220,-0.001144,0.006866,-0.000420,0.006887,-0.001166,-87.009533,0.007372,
1410,1720,-0.390208,-2.208311,0.999998,0.000231,-0.002756,0.007741,-0.000296,0.007749,-0.002764,-88.388002,0.007855,
920,1540,1.109450,-4.121282,0.999995,0.000274,-0.004829,0.009705,0.000898,0.009760,-0.004884,86.479013,0.009760,
800,260,1.015263,-18.141310,0.999996,0.000230,-0.003977,0.009315,0.000647,0.009346,-0.004009,87.218974,0.009378,
560,290,2.218322,-17.086418,0.999965,0.000000,-0.004339,0.009613,0.000021,0.009613,-0.004339,89.915328,0.009628,
1300,1920,-0.050464,-0.714563,0.999998,0.000142,-0.000641,0.006404,0.000183,0.006409,-0.000646,88.509329,0.007057,
700,570,2.404272,-14.730581,0.999995,0.000263,-0.005304,0.010339,-0.000026,0.010340,-0.005304,-89.904102,0.010341,
890,680,1.630275,-14.174574,0.999996,0.000244,-0.006487,0.011312,-0.000555,0.011329,-0.006504,-88.217219,0.011370,
1260,730,-0.056545,-15.619885,0.999997,0.000209,-0.002151,0.003834,0.001368,0.004132,-0.002449,77.711061,0.004155,
1090,1170,1.177393,-6.712897,0.999992,0.000327,-0.004299,0.008779,0.004949,0.010440,-0.005960,71.440028,0.010475,
810,920,3.065680,-11.196471,0.999997,0.000228,-0.004745,0.010689,0.001245,0.010789,-0.004844,85.417544,0.010807,
1150,310,0.151896,-18.246213,0.999998,0.000154,-0.001971,0.007154,-0.000094,0.007155,-0.001972,-89.411094,0.007391,
690,1600,2.122830,-4.277620,0.999995,0.000271,-0.005062,0.010168,0.000162,0.010170,-0.005064,89.389646,0.010170,
1500,1470,-0.996024,-4.646257,0.999997,0.000215,-0.005260,0.009888,-0.001417,0.010019,-0.005391,-84.702317,0.010029,
1240,590,-0.020510,-16.352526,0.999998,0.000180,-0.002439,0.006100,0.000253,0.006108,-0.002446,88.305545,0.006148,
1490,400,-0.718301,-17.254444,0.999996,0.000252,-0.003730,0.008712,0.000565,0.008738,-0.003756,87.404747,0.008767,
1780,1240,-3.338692,-8.017229,0.999996,0.000238,-0.005042,0.010083,0.000929,0.010140,-0.005099,86.496636,0.010140,
870,1870,0.543975,-1.241277,0.999996,0.000251,-0.002631,0.008255,-0.001012,0.008348,-0.002724,-84.732143,0.008515,
1440,1390,-0.769722,-5.132863,0.999994,0.000266,-0.005663,0.009817,-0.002390,0.010178,-0.006024,-81.418789,0.010235,
850,1800,0.832690,-1.882487,0.999997,0.000212,-0.003270,0.008886,-0.000692,0.008925,-0.003309,-86.753901,0.009024,
780,310,1.269411,-17.612786,0.999996,0.000250,-0.004347,0.009677,0.000261,0.009682,-0.004352,88.936061,0.009698,
1050,360,0.424349,-17.751633,0.999997,0.000244,-0.002933,0.007930,-0.000430,0.007947,-0.002950,-87.737324,0.008035,
1700,1480,-2.079881,-5.283592,0.999995,0.000259,-0.005489,0.010515,-0.000141,0.010517,-0.005491,-89.495164,0.010520,
840,1230,2.517921,-7.852977,0.999993,0.000279,-0.006061,0.011617,-0.001158,0.011692,-0.006137,-86.266508,0.011697,
1530,1910,-0.305439,-0.875476,0.999997,0.000202,-0.001458,0.007445,0.000963,0.007548,-0.001561,83.898696,0.007969,
670,1820,1.469746,-2.109140,0.999996,0.000269,-0.004574,0.010102,-0.000822,0.010147,-0.004620,-86.805596,0.010161,
740,640,2.404610,-14.114928,0.999995,0.000259,-0.005571,0.010616,0.000167,0.010618,-0.005573,89.407247,0.010622,
1820,90,-0.643658,-19.483360,0.999992,0.000351,-0.003372,0.010275,-0.003015,0.010911,-0.004009,-78.080219,0.011038,
1660,60,-0.171646,-19.869422,0.999997,0.000224,-0.001004,0.007382,-0.001947,0.007812,-0.001434,-77.546068,0.008317,
1610,1140,-2.834451,-8.864422,0.999997,0.000213,-0.004942,0.011159,0.001418,0.011283,-0.005066,85.006052,0.011302,
960,1640,0.787972,-3.069698,0.999997,0.000211,-0.003778,0.008785,0.000575,0.008811,-0.003804,87.383732,0.008838,
1090,1740,0.283329,-2.008831,0.999998,0.000186,-0.002120,0.007445,0.000065,0.007445,-0.002120,89.608790,0.007672,
1530,1820,-0.532880,-1.582237,0.999997,0.000198,-0.002460,0.008190,0.000585,0.008222,-0.002492,86.866278,0.008431,
750,480,1.888470,-15.822761,0.999997,0.000215,-0.005103,0.010184,-0.000272,0.010189,-0.005108,-88.981244,0.010189,
670,810,3.386468,-12.169575,0.999995,0.000258,-0.004966,0.009999,0.000859,0.010048,-0.005015,86.725453,0.010048,
620,1980,0.607171,-0.618593,0.999994,0.000282,-0.004521,0.010935,-0.002652,0.011378,-0.004964,-80.529419,0.011408,
1490,1190,-1.844370,-7.878013,0.999994,0.000310,-0.007307,0.013499,0.000264,0.013503,-0.007310,89.272227,0.013518,
1050,830,1.022963,-13.437676,0.999993,0.000305,-0.007691,0.012138,-0.002886,0.012549,-0.008103,-81.885245,0.012725,
920,730,1.587499,-13.726780,0.999992,0.000322,-0.006958,0.011868,-0.000599,0.011887,-0.006977,-88.179144,0.011947,
1580,600,-1.471349,-15.025290,0.999994,0.000281,-0.005766,0.010519,0.000794,0.010557,-0.005804,87.214131,0.010575,
890,1880,0.464969,-1.138073,0.999996,0.000268,-0.002268,0.007950,-0.000999,0.008047,-0.002365,-84.468870,0.008272,
920,1350,1.508899,-6.138262,0.999994,0.000312,-0.006770,0.011558,0.000798,0.011592,-0.006805,87.512296,0.011651,
920,110,0.229763,-19.538867,0.999998,0.000176,-0.000951,0.007318,0.001198,0.007488,-0.001121,81.919513,0.008077,
1760,1010,-3.693916,-10.249428,0.999997,0.000233,-0.004305,0.009571,-0.000285,0.009577,-0.004311,-88.823481,0.009593,
1400,600,-0.528298,-15.827196,0.999995,0.000240,-0.004357,0.008444,0.002150,0.008796,-0.004709,80.715179,0.008803,
1130,860,0.758880,-14.394889,0.999996,0.000242,-0.003830,0.004966,-0.003031,0.005909,-0.004773,-72.715271,0.006271,
920,1520,1.140981,-4.318579,0.999995,0.000285,-0.005071,0.009890,0.001024,0.009960,-0.005140,86.103039,0.009962,
560,270,2.145401,-17.270455,0.999987,0.000000,-0.004495,0.009459,-0.000061,0.009459,-0.004495,-89.749027,0.009463,
800,240,0.946763,-18.326578,0.999997,0.000203,-0.003807,0.009336,0.000810,0.009386,-0.003857,86.488554,0.009435,
1410,1090,-2.002654,-8.596163,0.999983,0.000452,-0.007540,0.019315,-0.005783,0.020507,-0.008732,-78.350201,0.020582,
1760,110,-0.621331,-19.377632,0.999996,0.000250,-0.003445,0.009314,-0.002346,0.009731,-0.003863,-79.905517,0.009800,
810,720,2.271620,-13.439127,0.999994,0.000297,-0.006134,0.011252,0.000423,0.011262,-0.006144,88.607377,0.011278,
1090,870,1.015140,-13.564746,0.999990,0.000365,-0.005373,0.009100,-0.004513,0.010392,-0.006665,-74.025991,0.010530,
1640,1600,-1.463345,-3.850355,0.999996,0.000223,-0.004821,0.009934,-0.000394,0.009945,-0.004832,-88.470767,0.009946,
980,890,1.966113,-11.981411,0.999994,0.000292,-0.006905,0.013686,0.000437,0.013696,-0.006914,88.784544,0.013696,
1490,380,-0.686696,-17.430151,0.999997,0.000227,-0.003615,0.008626,0.000468,0.008643,-0.003632,87.812185,0.008680,
1240,730,-0.016402,-15.655046,0.999998,0.000149,-0.001976,0.003575,0.000417,0.003606,-0.002007,85.723155,0.003614,
1150,290,0.141346,-18.388855,0.999998,0.000177,-0.001850,0.007110,-0.000051,0.007110,-0.001850,-89.673740,0.007378,
1440,1370,-0.793999,-5.333862,0.999993,0.000301,-0.005968,0.010138,-0.002515,0.010521,-0.006351,-81.327951,0.010596,
1220,610,0.026693,-16.230380,0.999998,0.000150,-0.002389,0.005870,-0.000370,0.005887,-0.002405,-87.442880,0.005919,
830,1800,0.896923,-1.915497,0.999997,0.000200,-0.003231,0.009081,-0.000802,0.009133,-0.003283,-86.286642,0.009252,
820,1230,2.637375,-7.895301,0.999992,0.000327,-0.005875,0.011345,-0.001178,0.011425,-0.005955,-86.105241,0.011428,
1740,1700,-1.669065,-3.151712,0.999995,0.000271,-0.004861,0.010031,0.000028,0.010032,-0.004861,89.893843,0.010033,
1700,1460,-2.139612,-5.495566,0.999995,0.000254,-0.005557,0.010589,-0.000102,0.010590,-0.005558,-89.639500,0.010594,
1530,1890,-0.362634,-1.029346,0.999997,0.000221,-0.001691,0.007581,0.000912,0.007670,-0.001780,84.436152,0.008029,
590,470,2.671190,-15.408522,0.999995,0.000261,-0.005099,0.010114,-0.000082,0.010115,-0.005100,-89.689623,0.010115,
1650,1990,-0.181924,-0.324047,0.999997,0.000223,-0.000878,0.007453,0.001935,0.007880,-0.001306,77.542543,0.008447,
840,840,2.585924,-12.129267,0.999995,0.000257,-0.005899,0.011529,0.001242,0.011617,-0.005987,85.943891,0.011619,
1360,520,-0.354105,-16.617069,0.999997,0.000206,-0.003329,0.007669,0.001287,0.007817,-0.003478,83.411405,0.007833,
960,1620,0.816672,-3.248550,0.999996,0.000218,-0.003868,0.008891,0.000646,0.008924,-0.003901,87.106811,0.008947,
870,1890,0.486013,-1.083559,0.999996,0.000232,-0.002343,0.008054,-0.001162,0.008182,-0.002471,-83.699944,0.008393,
740,620,2.342779,-14.326085,0.999995,0.000251,-0.005538,0.010556,0.000082,0.010557,-0.005538,89.706624,0.010561,
1490,1170,-1.978554,-8.150863,0.999994,0.000297,-0.006931,0.013545,0.000548,0.013560,-0.006946,88.469428,0.013561,
1340,50,-0.020512,-19.973981,0.999998,0.000162,-0.000252,0.006009,-0.000259,0.006020,-0.000263,-87.638294,0.006804,
1070,1740,0.325009,-2.029202,0.999997,0.000204,-0.002256,0.007551,0.000093,0.007552,-0.002257,89.459254,0.007752,
650,1580,2.385004,-4.612715,0.999996,0.000259,-0.005070,0.010173,0.000155,0.010175,-0.005071,89.416803,0.010175,
670,790,3.314555,-12.372766,0.999996,0.000241,-0.005061,0.010111,0.000837,0.010157,-0.005107,86.851978,0.010157,
1050,810,0.923796,-13.685990,0.999993,0.000321,-0.007673,0.011749,-0.003058,0.012219,-0.008143,-81.260105,0.012443,
1030,360,0.481893,-17.712424,0.999997,0.000219,-0.002944,0.008055,-0.000386,0.008068,-0.002958,-87.992748,0.008163,
1020,150,0.199337,-19.297552,0.999997,0.000177,-0.001190,0.007065,0.000600,0.007109,-0.001233,85.866355,0.007597,
1400,580,-0.518503,-16.000053,0.999996,0.000217,-0.004171,0.008268,0.001900,0.008551,-0.004454,81.506449,0.008554,
620,1960,0.796624,-0.829807,0.999996,0.000222,-0.004661,0.010643,-0.002162,0.010943,-0.004960,-82.110563,0.010959,
1160,1870,0.075462,-1.042594,0.999998,0.000187,-0.001004,0.006645,-0.000152,0.006648,-0.001007,-88.859882,0.007166,
1780,910,-3.629100,-11.200877,0.999996,0.000231,-0.004611,0.009572,-0.000706,0.009607,-0.004646,-87.155611,0.009609,
1580,580,-1.426255,-15.236414,0.999995,0.000278,-0.005625,0.010465,0.000810,0.010505,-0.005666,87.124962,0.010516,
1410,1080,-2.042335,-8.798010,0.999978,0.000521,-0.008090,0.021192,-0.005433,0.022168,-0.009065,-79.820430,0.022290,
1600,130,-0.377501,-19.352388,0.999997,0.000233,-0.001776,0.007804,-0.001376,0.007998,-0.001970,-81.987278,0.008334,
560,260,2.104887,-17.367289,0.999992,0.000000,-0.004604,0.009529,-0.000041,0.009529,-0.004604,-89.832392,0.009531,
700,1790,1.460441,-2.319182,0.999995,0.000269,-0.004758,0.010031,-0.000487,0.010047,-0.004774,-88.117295,0.010051,
920,1500,1.177809,-4.522933,0.999995,0.000282,-0.005259,0.010098,0.001051,0.010169,-0.005330,86.103392,0.010173,
1740,1010,-3.607776,-10.251341,0.999997,0.000200,-0.004329,0.009708,-0.000337,0.009716,-0.004337,-88.627462,0.009735,
800,220,0.868260,-18.515423,0.999997,0.000212,-0.003642,0.009148,0.000975,0.009222,-0.003716,85.667249,0.009280,
790,720,2.394260,-13.382591,0.999996,0.000241,-0.006028,0.011108,0.000534,0.011124,-0.006045,88.215500,0.011138,
1060,750,0.666172,-14.442973,0.999993,0.000290,-0.006490,0.010091,-0.003489,0.010795,-0.007194,-78.588932,0.010993,
1090,850,0.867347,-13.760339,0.999992,0.000359,-0.006381,0.009867,-0.004414,0.010989,-0.007503,-75.740995,0.011231,
1780,1220,-3.408075,-8.216471,0.999996,0.000242,-0.004950,0.009938,0.000892,0.009991,-0.005004,86.583772,0.009991,
1060,1490,0.523947,-4.047723,0.999996,0.000224,-0.004070,0.008287,0.001752,0.008531,-0.004313,82.083381,0.008531,
1560,1330,-1.689437,-6.451870,0.999994,0.000295,-0.006821,0.011819,-0.000420,0.011828,-0.006831,-88.708826,0.011876,
760,1610,1.747204,-3.950445,0.999996,0.000246,-0.004979,0.010090,0.000238,0.010094,-0.004983,89.094135,0.010094,
930,640,1.279376,-14.794238,0.999994,0.000271,-0.006075,0.010721,-0.001180,0.010803,-0.006158,-86.000736,0.010838,
1680,1390,-2.243046,-6.186697,0.999994,0.000310,-0.005865,0.010864,0.000176,0.010866,-0.005867,89.397746,0.010877,
1150,270,0.132625,-18.531317,0.999998,0.000178,-0.001721,0.007047,0.000002,0.007047,-0.001721,89.987088,0.007348,
1320,430,-0.215385,-17.362366,0.999998,0.000173,-0.002712,0.007321,0.000601,0.007357,-0.002748,86.581743,0.007435,
740,1170,3.285967,-8.654498,0.999996,0.000228,-0.004944,0.010309,-0.001156,0.010396,-0.005031,-85.689966,0.010398,
840,820,2.495562,-12.366107,0.999993,0.000291,-0.006125,0.011653,0.001132,0.011724,-0.006197,86.370626,0.011731,
1200,610,0.074833,-16.209517,0.999998,0.000172,-0.002468,0.005972,-0.000627,0.006018,-0.002514,-85.774940,0.006045,
1050,300,0.358145,-18.216584,0.999995,0.000280,-0.002514,0.007625,-0.000144,0.007627,-0.002516,-89.185586,0.007773,
1360,500,-0.347443,-16.772365,0.999997,0.000191,-0.003203,0.007624,0.001123,0.007739,-0.003319,84.140625,0.007766,
1650,1970,-0.268917,-0.479066,0.999997,0.000219,-0.001223,0.007684,0.001923,0.008082,-0.001620,78.322169,0.008551,
700,910,3.552518,-11.216314,0.999997,0.000227,-0.004656,0.009717,0.000777,0.009759,-0.004698,86.914434,0.009762,
1130,1800,0.160122,-1.538675,0.999998,0.000180,-0.001794,0.007049,0.000038,0.007049,-0.001794,89.754891,0.007327,
1700,1440,-2.196999,-5.709528,0.999996,0.000267,-0.005615,0.010660,-0.000029,0.010660,-0.005615,-89.899255,0.010665,
980,1230,1.550047,-7.291000,0.999993,0.000339,-0.007771,0.013199,0.000586,0.013216,-0.007788,88.400461,0.013286,
1000,150,0.222384,-19.287551,0.999997,0.000171,-0.001115,0.007144,0.000687,0.007201,-0.001172,85.279907,0.007727,
1490,1150,-2.118980,-8.429987,0.999994,0.000278,-0.006460,0.013555,0.000777,0.013585,-0.006490,87.780182,0.013590,
740,600,2.279082,-14.539117,0.999995,0.000268,-0.005487,0.010557,0.000012,0.010557,-0.005487,89.956862,0.010560,
1460,1710,-0.544246,-2.375500,0.999996,0.000229,-0.002795,0.008104,-0.000179,0.008107,-0.002798,-89.060099,0.008235,
1050,790,0.842472,-13.913872,0.999993,0.000314,-0.007360,0.011297,-0.003225,0.011839,-0.007902,-80.463557,0.012058,
650,1880,1.240348,-1.549395,0.999996,0.000254,-0.004299,0.010370,-0.001467,0.010515,-0.004444,-84.344843,0.010557,
580,470,2.721502,-15.377232,0.999996,0.000258,-0.005395,0.010112,-0.000127,0.010113,-0.005396,-89.529019,0.010121,
670,770,3.241978,-12.576779,0.999995,0.000245,-0.005093,0.010088,0.000776,0.010127,-0.005132,87.081156,0.010128,
830,40,0.081535,-20.015197,0.999998,0.000163,-0.000161,0.006993,0.001806,0.007423,-0.000591,76.607197,0.008252,
880,380,1.037957,-17.199206,0.999997,0.000221,-0.004187,0.009314,-0.000263,0.009319,-0.004192,-88.886163,0.009334,
1400,560,-0.508429,-16.167118,0.999996,0.000236,-0.003955,0.008244,0.001675,0.008469,-0.004181,82.321291,0.008470,
560,250,2.062775,-17.467854,0.999995,0.000000,-0.004768,0.009688,0.000003,0.009688,-0.004768,89.988691,0.009689,
680,1810,1.468375,-2.181018,0.999995,0.000283,-0.004637,0.010107,-0.000688,0.010139,-0.004669,-87.333465,0.010150,
1580,560,-1.383689,-15.449774,0.999994,0.000274,-0.005433,0.010309,0.000795,0.010349,-0.005473,87.116752,0.010355,
960,1600,0.842436,-3.424407,0.999996,0.000235,-0.004018,0.009029,0.000752,0.009072,-0.004061,86.713397,0.009089,
660,970,3.847332,-10.614561,0.999997,0.000250,-0.004385,0.009217,0.000288,0.009223,-0.004391,88.787228,0.009227,
1530,1870,-0.406705,-1.178577,0.999996,0.000235,-0.001888,0.007770,0.000825,0.007840,-0.001958,85.150631,0.008161,
620,1940,0.963999,-1.043739,0.999996,0.000216,-0.004799,0.010609,-0.001596,0.010773,-0.004963,-84.147876,0.010784,
1830,540,-2.661075,-14.829740,0.999995,0.000246,-0.005107,0.010189,0.000063,0.010190,-0.005107,89.765658,0.010190,
1600,110,-0.306369,-19.509784,0.999997,0.000206,-0.001541,0.007702,-0.001476,0.007932,-0.001771,-81.145953,0.008328,
920,1480,1.214135,-4.725150,0.999996,0.000250,-0.005417,0.010223,0.001048,0.010293,-0.005486,86.183756,0.010301,
800,200,0.791616,-18.695905,0.999996,0.000243,-0.003424,0.009055,0.001179,0.009166,-0.003534,84.651281,0.009245,
1720,1010,-3.520816,-10.250970,0.999996,0.000214,-0.004247,0.009820,-0.000323,0.009828,-0.004254,-88.685897,0.009857,
1040,1490,0.611769,-4.132803,0.999996,0.000253,-0.004358,0.008654,0.001764,0.008889,-0.004593,82.414313,0.008891,
1780,1200,-3.470987,-8.417330,0.999994,0.000284,-0.004891,0.009891,0.000919,0.009948,-0.004948,86.455884,0.009948,
1090,830,0.729663,-13.967965,0.999993,0.000329,-0.006784,0.009853,-0.004244,0.010873,-0.007804,-76.485443,0.011211,
1060,1110,1.845708,-8.101826,0.999976,0.000582,-0.006207,0.016690,0.006649,0.018480,-0.007998,74.927546,0.018536,
1300,430,-0.162070,-17.389296,0.999998,0.000161,-0.002462,0.007181,0.000351,0.007193,-0.002475,87.920867,0.007309,
1650,90,-0.289649,-19.644716,0.999997,0.000211,-0.001340,0.007730,-0.001893,0.008110,-0.001719,-78.672256,0.008546,
1770,760,-3.088702,-12.726222,0.999997,0.000218,-0.005239,0.010314,-0.000769,0.010352,-0.005277,-87.175253,0.010353,
670,420,2.123238,-16.173795,0.999996,0.000220,-0.005033,0.010148,-0.000135,0.010149,-0.005034,-89.489892,0.010149,
1650,1950,-0.353782,-0.634391,0.999997,0.000232,-0.001568,0.007980,0.001844,0.008323,-0.001911,79.440762,0.008719,
1100,1870,0.146905,-1.066039,0.999997,0.000198,-0.001194,0.006829,-0.000249,0.006837,-0.001202,-88.220561,0.007300,
1740,1680,-1.728130,-3.355693,0.999996,0.000277,-0.004899,0.010105,-0.000043,0.010105,-0.004900,-89.836614,0.010106,
1180,590,0.128150,-16.309924,0.999998,0.000192,-0.002716,0.006394,-0.000941,0.006490,-0.002812,-84.161943,0.006509,
670,750,3.170616,-12.776138,0.999995,0.000246,-0.005124,0.010134,0.000702,0.010166,-0.005157,87.371735,0.010166,
880,360,0.996147,-17.386538,0.999997,0.000199,-0.004128,0.009229,-0.000196,0.009232,-0.004131,-89.159757,0.009249,
1150,250,0.121360,-18.672489,0.999998,0.000164,-0.001587,0.006966,0.000041,0.006967,-0.001587,89.723043,0.007302,
1050,770,0.778934,-14.141749,0.999994,0.000291,-0.007035,0.010899,-0.003279,0.011480,-0.007616,-79.957877,0.011683,
810,40,0.084493,-20.014031,0.999998,0.000209,-0.000616,0.007036,0.001887,0.007476,-0.001056,76.872411,0.008092,
650,1860,1.355443,-1.756592,0.999994,0.000294,-0.004448,0.010271,-0.001159,0.010362,-0.004539,-85.523689,0.010389,
570,470,2.777202,-15.342337,0.999958,0.000830,-0.005557,0.010123,-0.000150,0.010124,-0.005559,-89.450487,0.010141,
1560,1310,-1.761443,-6.691205,0.999993,0.000300,-0.006938,0.012005,-0.000213,0.012008,-0.006940,-89.355898,0.012056,
1490,1130,-2.250734,-8.702353,0.999996,0.000246,-0.005911,0.013558,0.000890,0.013598,-0.005951,87.387415,0.013633,
1460,1690,-0.567827,-2.536351,0.999997,0.000218,-0.002952,0.008265,-0.000292,0.008272,-0.002960,-88.511067,0.008383,
1830,910,-3.853564,-11.152601,0.999996,0.000242,-0.004462,0.009170,-0.000510,0.009189,-0.004482,-87.858580,0.009190,
880,1150,2.656897,-8.713801,0.999996,0.000246,-0.005301,0.011638,-0.001444,0.011760,-0.005423,-85.161050,0.011772,
1170,1210,0.424205,-5.133404,0.999993,0.000271,-0.005012,0.003273,0.000995,0.003391,-0.005130,83.246001,0.005217,
1870,80,-0.777073,-19.374344,0.999995,0.000280,-0.004451,0.011827,-0.002836,0.012307,-0.004930,-80.395880,0.012387,
1000,1800,0.413747,-1.658470,0.999997,0.000212,-0.002074,0.007761,-0.000320,0.007772,-0.002084,-88.136949,0.008045,
740,190,0.951306,-18.691676,0.999997,0.000182,-0.003330,0.009571,0.001591,0.009765,-0.003523,83.070800,0.009890,
1680,1370,-2.310093,-6.407408,0.999994,0.000289,-0.005920,0.010977,0.000293,0.010982,-0.005925,89.006103,0.010994,
960,1580,0.866208,-3.606319,0.999996,0.000236,-0.004246,0.009134,0.000898,0.009194,-0.004306,86.176176,0.009200,
720,1170,3.386734,-8.675370,0.999997,0.000242,-0.004867,0.010161,-0.001087,0.010240,-0.004945,-85.884112,0.010242,
1580,540,-1.342007,-15.651644,0.999995,0.000255,-0.005228,0.010138,0.000775,0.010177,-0.005267,87.119329,0.010179,
800,180,0.707893,-18.878945,0.999997,0.000210,-0.003188,0.008809,0.001340,0.008957,-0.003336,83.705845,0.009053,
560,240,2.018639,-17.562290,0.999997,0.000000,-0.004930,0.009780,0.000037,0.009780,-0.004930,89.854513,0.009780,
1650,1520,-1.702981,-4.700238,0.999997,0.000210,-0.005332,0.010380,-0.000423,0.010391,-0.005343,-88.459736,0.010393,
1180,1870,0.055342,-1.039670,0.999998,0.000170,-0.001030,0.006610,-0.000115,0.006611,-0.001031,-89.138449,0.007114,
1520,170,-0.356800,-19.099410,0.999997,0.000202,-0.001779,0.007569,-0.000820,0.007641,-0.001850,-85.021827,0.007972,
1650,110,-0.375262,-19.487198,0.999996,0.000235,-0.001678,0.008030,-0.001831,0.008363,-0.002012,-79.667911,0.008731,
640,970,3.933238,-10.604934,0.999998,0.000186,-0.004350,0.009039,0.000200,0.009042,-0.004353,89.145233,0.009044,
1360,480,-0.343513,-16.922175,0.999997,0.000181,-0.003074,0.007615,0.000931,0.007695,-0.003154,85.057569,0.007737,
990,600,0.877727,-15.485151,0.999997,0.000231,-0.005174,0.009706,-0.001697,0.009897,-0.005365,-83.574874,0.009909,
760,60,0.215760,-19.850498,0.999997,0.000219,-0.000807,0.007659,0.002355,0.008270,-0.001418,75.455447,0.008845,
630,430,2.354089,-15.942363,0.999996,0.000243,-0.004986,0.010083,-0.000132,0.010084,-0.004987,-89.498503,0.010084,
1610,760,-2.154734,-13.106591,0.999996,0.000227,-0.006492,0.011679,-0.000472,0.011691,-0.006504,-88.513331,0.011715,
600,1950,0.976365,-1.033266,0.999994,0.000272,-0.004669,0.010753,-0.001970,0.011001,-0.004917,-82.835971,0.011021,
680,1790,1.553944,-2.383511,0.999995,0.000247,-0.004697,0.010078,-0.000525,0.010096,-0.004716,-87.966978,0.010103,
1530,1850,-0.465888,-1.342118,0.999997,0.000232,-0.002127,0.007992,0.000759,0.008048,-0.002183,85.735861,0.008324,
930,1040,2.801321,-9.936417,0.999996,0.000248,-0.003575,0.011554,-0.000273,0.011559,-0.003580,-88.965702,0.011835,
920,1460,1.248913,-4.931361,0.999995,0.000262,-0.005619,0.010298,0.001081,0.010371,-0.005692,86.132594,0.010388,
1250,350,-0.039076,-17.985640,0.999998,0.000173,-0.002120,0.007006,0.000168,0.007010,-0.002123,88.947830,0.007189,
1220,730,0.021872,-15.650474,0.999998,0.000143,-0.001949,0.003590,-0.000563,0.003647,-0.002006,-84.260175,0.003653,
1620,1770,-0.945101,-2.165509,0.999997,0.000212,-0.003505,0.009191,0.000530,0.009213,-0.003527,87.612717,0.009297,
1180,570,0.129774,-16.437838,0.999997,0.000184,-0.002694,0.006534,-0.000790,0.006601,-0.002762,-85.143126,0.006630,
1870,760,-3.588169,-12.487064,0.999996,0.000256,-0.004823,0.009777,-0.000322,0.009784,-0.004830,-88.738735,0.009784,
1700,1330,-2.571749,-6.901245,0.999993,0.000340,-0.005808,0.010887,0.000634,0.010911,-0.005832,87.827027,0.010920,
1630,1120,-3.005093,-9.105853,0.999995,0.000260,-0.004583,0.010752,0.001170,0.010841,-0.004672,85.662670,0.010876,
1650,1930,-0.437345,-0.797295,0.999997,0.000239,-0.001952,0.008141,0.001741,0.008433,-0.002244,80.483018,0.008735,
1190,2000,0.009398,-0.214047,0.999998,0.000153,-0.000208,0.006029,-0.000099,0.006030,-0.000210,-89.087221,0.006845,
1490,1110,-2.378064,-8.977427,0.999993,0.000292,-0.005341,0.013597,0.000986,0.013649,-0.005393,87.029093,0.013748,
920,1590,1.029452,-3.645325,0.999997,0.000240,-0.004473,0.009461,0.000752,0.009502,-0.004513,86.918233,0.009506,
1150,670,0.201054,-15.722373,0.999997,0.000228,-0.003117,0.006186,-0.002242,0.006698,-0.003630,-77.133242,0.006706,
740,580,2.218614,-14.750908,0.999995,0.000269,-0.005436,0.010510,-0.000089,0.010511,-0.005436,-89.681865,0.010513,
1830,520,-2.601774,-15.033962,0.999995,0.000273,-0.005113,0.010152,0.000083,0.010152,-0.005113,89.688486,0.010152,
1830,930,-3.899428,-10.967735,0.999996,0.000248,-0.004456,0.009217,-0.000590,0.009242,-0.004481,-87.535127,0.009244,
1400,540,-0.504512,-16.327855,0.999996,0.000242,-0.003757,0.008185,0.001450,0.008359,-0.003930,83.174486,0.008364,
1790,440,-2.166770,-15.981087,0.999997,0.000212,-0.004991,0.010121,0.000167,0.010123,-0.004993,89.368146,0.010123,
560,230,1.975942,-17.659902,0.999997,0.000000,-0.005061,0.009767,0.000135,0.009768,-0.005062,89.477426,0.009770,
1410,1740,-0.368408,-2.052571,0.999997,0.000223,-0.002626,0.007687,-0.000168,0.007689,-0.002628,-89.066971,0.007817,
860,330,1.000881,-17.617628,0.999997,0.000183,-0.003830,0.009366,0.000124,0.009367,-0.003831,89.460308,0.009419,
740,530,2.076125,-15.273706,0.999996,0.000225,-0.005250,0.010357,-0.000196,0.010359,-0.005252,-89.279157,0.010359,
1410,1700,-0.408625,-2.362891,0.999997,0.000237,-0.002904,0.007865,-0.000391,0.007879,-0.002918,-87.920895,0.007967,
1000,1780,0.444648,-1.813959,0.999996,0.000220,-0.002220,0.007881,-0.000228,0.007886,-0.002225,-88.707248,0.008132,
1230,1220,0.013827,-4.757888,0.999979,0.000560,-0.007050,0.002885,-0.000029,0.002885,-0.007050,-89.832853,0.007088,
1170,1200,0.530057,-5.159529,0.999993,0.000291,-0.005582,0.003040,0.000477,0.003066,-0.005608,86.842982,0.005616,
630,1880,1.332062,-1.628795,0.999996,0.000244,-0.004784,0.010412,-0.000911,0.010466,-0.004838,-86.581578,0.010476,
1780,1180,-3.534477,-8.616973,0.999995,0.000257,-0.004829,0.009904,0.000961,0.009967,-0.004891,86.283059,0.009968,
1830,1460,-2.829592,-5.894663,0.999996,0.000245,-0.005114,0.010194,0.000102,0.010195,-0.005115,89.618755,0.010195,
740,170,0.850303,-18.879395,0.999997,0.000203,-0.003087,0.009434,0.001861,0.009705,-0.003358,81.723681,0.009857,
1590,1200,-2.457603,-8.134370,0.999994,0.000323,-0.006063,0.011898,0.001276,0.011988,-0.006153,85.957918,0.011989,
1300,1900,-0.057950,-0.843989,0.999998,0.000155,-0.000782,0.006542,0.000190,0.006547,-0.000787,88.515924,0.007148,
800,380,1.383549,-16.982388,0.999996,0.000230,-0.004619,0.009796,-0.000112,0.009796,-0.004620,-89.555695,0.009802,
1630,1520,-1.597853,-4.631696,0.999995,0.000259,-0.005329,0.010364,-0.000518,0.010381,-0.005346,-88.112430,0.010383,
1650,130,-0.460476,-19.321154,0.999996,0.000242,-0.002044,0.008189,-0.001717,0.008470,-0.002325,-80.727475,0.008752,
630,450,2.412444,-15.739750,0.999996,0.000262,-0.005030,0.010114,-0.000143,0.010115,-0.005031,-89.458423,0.010115,
1580,520,-1.304527,-15.855127,0.999995,0.000252,-0.005084,0.010044,0.000756,0.010082,-0.005121,87.145542,0.010083,
1530,1830,-0.507537,-1.498173,0.999998,0.000202,-0.002330,0.008063,0.000605,0.008098,-0.002366,86.678391,0.008328,
1340,1870,-0.117756,-1.056208,0.999997,0.000194,-0.001298,0.006729,0.000167,0.006733,-0.001301,88.811553,0.007143,
800,230,0.909329,-18.422672,0.999997,0.000200,-0.003730,0.009251,0.000898,0.009313,-0.003792,86.060794,0.009366,
1570,1140,-2.635228,-8.810256,0.999996,0.000248,-0.005227,0.011755,0.001457,0.011880,-0.005352,85.130366,0.011899,
570,1950,1.114108,-1.179662,0.999983,0.000472,-0.004404,0.011487,-0.002117,0.011764,-0.004681,-82.541020,0.011846,
1740,1660,-1.790017,-3.559745,0.999996,0.000272,-0.004923,0.010126,-0.000111,0.010127,-0.004924,-89.578760,0.010128,
960,1560,0.893245,-3.791825,0.999996,0.000249,-0.004481,0.009286,0.001034,0.009363,-0.004559,85.727283,0.009364,
1250,330,-0.038460,-18.126557,0.999998,0.000174,-0.002002,0.007051,0.000121,0.007053,-0.002003,89.236286,0.007268,
710,1040,3.666266,-9.958410,0.999996,0.000234,-0.004289,0.009583,-0.000242,0.009588,-0.004294,-89.000455,0.009605,
1450,2000,-0.052994,-0.224706,0.999998,0.000191,-0.000229,0.006375,0.000666,0.006441,-0.000295,84.294887,0.007273,
1650,1910,-0.522321,-0.961448,0.999995,0.000263,-0.002247,0.008365,0.001630,0.008609,-0.002491,81.459072,0.008860,
750,1990,0.251584,-0.351680,0.999997,0.000193,-0.000872,0.007832,-0.002498,0.008498,-0.001538,-75.073669,0.009056,
1850,760,-3.490487,-12.542887,0.999996,0.000249,-0.004908,0.009819,-0.000470,0.009834,-0.004923,-88.173251,0.009834,
1810,1120,-3.820004,-9.222505,0.999996,0.000234,-0.004494,0.009394,0.000675,0.009427,-0.004527,87.225585,0.009429,
1830,950,-3.942658,-10.780901,0.999997,0.000216,-0.004362,0.009083,-0.000410,0.009095,-0.004375,-88.255895,0.009097,
990,580,0.855679,-15.677254,0.999997,0.000243,-0.005014,0.009549,-0.001649,0.009733,-0.005198,-83.621569,0.009741,
900,1590,1.118284,-3.707911,0.999997,0.000249,-0.004514,0.009529,0.000616,0.009555,-0.004541,87.493021,0.009559,
920,1440,1.285608,-5.138389,0.999995,0.000261,-0.005834,0.010472,0.001070,0.010542,-0.005903,86.262785,0.010567,
1680,1330,-2.453836,-6.851455,0.999994,0.000265,-0.005947,0.011045,0.000586,0.011066,-0.005968,88.025690,0.011077,
1490,1530,-0.873863,-4.027817,0.999996,0.000226,-0.004642,0.009312,-0.001267,0.009426,-0.004757,-84.854264,0.009426,
900,230,0.598406,-18.582739,0.999997,0.000196,-0.002617,0.008370,0.000690,0.008413,-0.002660,86.418236,0.008600,
560,220,1.934581,-17.763248,0.999993,0.000000,-0.005181,0.009782,0.000263,0.009786,-0.005185,88.992941,0.009792,
1150,690,0.196756,-15.599971,0.999996,0.000234,-0.003202,0.006006,-0.002598,0.006689,-0.003885,-75.283880,0.006718,
1390,1740,-0.319621,-2.026595,0.999997,0.000193,-0.002212,0.007537,-0.000078,0.007537,-0.002212,-89.542910,0.007749,
1200,730,0.059964,-15.611227,0.999996,0.000232,-0.002222,0.003891,-0.001481,0.004231,-0.002562,-77.074195,0.004262,
1220,1220,0.079009,-4.767403,0.999992,0.000324,-0.006797,0.002837,0.000031,0.002837,-0.006797,89.814007,0.006828,
750,140,0.664667,-19.166984,0.999996,0.000202,-0.002332,0.008915,0.002170,0.009320,-0.002736,79.449650,0.009581,
1240,1200,-0.099560,-4.838151,0.999983,0.000000,-0.010834,0.003155,0.000239,0.003159,-0.010838,89.021184,0.011147,
1810,540,-2.559906,-14.894060,0.999995,0.000271,-0.005137,0.010207,0.000056,0.010207,-0.005137,89.791405,0.010207,
1190,560,0.104902,-16.512606,0.999997,0.000184,-0.002573,0.006509,-0.000544,0.006542,-0.002605,-86.584508,0.006587,
1870,230,-1.812835,-17.801801,0.999997,0.000198,-0.004883,0.009871,-0.000249,0.009875,-0.004887,-89.035310,0.009876,
800,620,2.003153,-14.515540,0.999997,0.000214,-0.005747,0.010773,-0.000144,0.010774,-0.005748,-89.502098,0.010782,
1000,1760,0.479135,-1.974929,0.999996,0.000217,-0.002400,0.007960,-0.000129,0.007961,-0.002402,-89.286481,0.008167,
740,780,2.909778,-12.608963,0.999997,0.000280,-0.005472,0.010720,0.000963,0.010777,-0.005529,86.608660,0.010778,
1650,150,-0.542621,-19.158279,0.999996,0.000231,-0.002313,0.008456,-0.001613,0.008692,-0.002550,-81.662536,0.008936,
1080,1870,0.171111,-1.075618,0.999998,0.000184,-0.001136,0.006898,-0.000339,0.006912,-0.001150,-87.586947,0.007407,
630,470,2.469716,-15.535681,0.999996,0.000276,-0.005055,0.010152,-0.000145,0.010153,-0.005056,-89.452990,0.010153,
1890,1940,-1.184911,-1.272051,0.999996,0.000287,-0.004695,0.010986,0.001837,0.011198,-0.004908,83.405055,0.011226,
1730,160,-0.817100,-18.967643,0.999997,0.000225,-0.003162,0.009436,-0.001916,0.009721,-0.003447,-81.538879,0.009857,
960,1540,0.922439,-3.983308,0.999996,0.000246,-0.004704,0.009401,0.001136,0.009492,-0.004795,85.423146,0.009493,
1510,1580,-0.896464,-3.630198,0.999997,0.000227,-0.004351,0.009244,-0.000917,0.009306,-0.004412,-86.159718,0.009310,
1440,2000,-0.049913,-0.223950,0.999999,0.000148,-0.000274,0.006341,0.000609,0.006397,-0.000329,84.782527,0.007204,
800,210,0.830374,-18.605284,0.999996,0.000257,-0.003535,0.009090,0.001073,0.009181,-0.003625,85.175053,0.009248,
1130,40,0.013298,-20.035417,0.999999,0.000162,-0.000198,0.006005,0.000221,0.006013,-0.000206,87.964082,0.006827,
690,1040,3.751683,-9.960992,0.999998,0.000182,-0.004334,0.009475,-0.000224,0.009479,-0.004337,-89.070013,0.009490,
1830,760,-3.391828,-12.591841,0.999996,0.000258,-0.004957,0.009896,-0.000591,0.009920,-0.004980,-87.726419,0.009920,
1530,1810,-0.559826,-1.667650,0.999997,0.000217,-0.002575,0.008230,0.000537,0.008257,-0.002602,87.159882,0.008443,
1780,1160,-3.595204,-8.815097,0.999996,0.000239,-0.004705,0.009705,0.000818,0.009751,-0.004751,86.762710,0.009752,
1580,500,-1.266008,-16.054765,0.999996,0.000255,-0.004986,0.009887,0.000712,0.009921,-0.005020,87.267191,0.009922,
1250,310,-0.034247,-18.267850,0.999998,0.000193,-0.001930,0.007003,0.000112,0.007005,-0.001931,89.284099,0.007236,
1810,1460,-2.727210,-5.834120,0.999996,0.000243,-0.005164,0.010244,0.000094,0.010245,-0.005164,89.650041,0.010245,
820,1170,2.887418,-8.571876,0.999995,0.000259,-0.005226,0.011006,-0.001309,0.011111,-0.005331,-85.419412,0.011114,
850,980,3.051121,-10.580073,0.999996,0.000226,-0.004036,0.010637,0.000790,0.010679,-0.004078,86.926645,0.010778,
1820,2010,-0.236027,-0.232306,0.999991,0.000386,-0.002377,0.008972,0.003375,0.009900,-0.003305,74.628244,0.010080,
1790,1120,-3.729943,-9.205765,0.999996,0.000241,-0.004529,0.009546,0.000719,0.009583,-0.004565,87.084664,0.009586,
1490,1550,-0.847323,-3.838948,0.999997,0.000239,-0.004376,0.009207,-0.001097,0.009295,-0.004464,-85.413912,0.009297,
1890,1330,-3.564745,-7.390945,0.999995,0.000262,-0.004908,0.009730,0.000196,0.009733,-0.004911,89.231071,0.009733,
560,210,1.882543,-17.858542,0.999978,0.000000,-0.005443,0.010104,0.000378,0.010113,-0.005452,88.606670,0.010123,
1650,1890,-0.606059,-1.132991,0.999997,0.000210,-0.002551,0.008585,0.001509,0.008786,-0.002752,82.420773,0.008988,
1740,1640,-1.846687,-3.762293,0.999997,0.000230,-0.004926,0.010113,-0.000163,0.010114,-0.004927,-89.380769,0.010116,
1150,710,0.196883,-15.477975,0.999997,0.000223,-0.003296,0.005848,-0.002901,0.006691,-0.004139,-73.802825,0.006753,
920,1420,1.331545,-5.355298,0.999994,0.000288,-0.006019,0.010770,0.001075,0.010839,-0.006087,86.351614,0.010866,
1180,430,0.123619,-17.399117,0.999998,0.000179,-0.002397,0.007122,-0.000234,0.007128,-0.002403,-88.595662,0.007253,
1830,1390,-3.057755,-6.612080,0.999997,0.000198,-0.005106,0.010153,0.000302,0.010159,-0.005112,88.864852,0.010159,
750,1970,0.368382,-0.516297,0.999996,0.000220,-0.001317,0.008058,-0.002429,0.008650,-0.001909,-76.301047,0.009089,
1010,360,0.541059,-17.677837,0.999996,0.000236,-0.002921,0.008124,-0.000292,0.008132,-0.002929,-88.488380,0.008237,
1240,860,-0.140495,-15.315190,0.999976,0.000000,-0.012031,0.003160,-0.000441,0.003173,-0.012043,-88.339182,0.012485,
1720,1430,-2.339527,-5.877899,0.999995,0.000250,-0.005565,0.010558,0.000100,0.010559,-0.005565,89.646191,0.010564,
840,60,0.145773,-19.875234,0.999997,0.000205,-0.000505,0.007195,0.001747,0.007572,-0.000882,77.798869,0.008282,
1680,1550,-1.784325,-4.488614,0.999996,0.000232,-0.005161,0.010253,-0.000325,0.010260,-0.005168,-88.793279,0.010260,
1560,430,-1.042991,-16.795710,0.999998,0.000179,-0.004343,0.009408,0.000532,0.009428,-0.004363,87.786271,0.009437,
750,160,0.769110,-18.986736,0.999997,0.000197,-0.002757,0.009250,0.002001,0.009575,-0.003082,80.784128,0.009775,
570,1420,3.271230,-6.498257,0.999923,0.001052,-0.004564,0.010074,0.000024,0.010074,-0.004564,89.906505,0.010088,
750,110,0.493862,-19.439907,0.999997,0.000220,-0.001702,0.008713,0.002486,0.009276,-0.002265,77.242320,0.009672,
1670,1840,-0.877455,-1.613757,0.999997,0.000205,-0.003645,0.009139,0.001015,0.009219,-0.003726,85.486717,0.009275,
790,1590,1.650685,-4.056371,0.999995,0.000269,-0.005026,0.010090,0.000328,0.010097,-0.005033,88.757733,0.010097,
1000,1740,0.507999,-2.134004,0.999997,0.000186,-0.002553,0.008042,-0.000030,0.008042,-0.002553,-89.838190,0.008219,
1590,760,-2.023055,-13.171872,0.999995,0.000233,-0.006681,0.011883,-0.000315,0.011889,-0.006686,-89.028346,0.011919,
1650,590,-1.845598,-14.881245,0.999995,0.000252,-0.005620,0.010624,0.000290,0.010630,-0.005625,88.978238,0.010636,
1400,520,-0.496417,-16.490001,0.999996,0.000226,-0.003596,0.008115,0.001269,0.008251,-0.003732,83.887360,0.008263,
1230,560,0.004062,-16.544188,0.999997,0.000193,-0.002502,0.006389,-0.000031,0.006389,-0.002502,-89.802894,0.006438,
1870,220,-1.763173,-17.904182,0.999996,0.000214,-0.004886,0.009945,-0.000325,0.009952,-0.004893,-88.744326,0.009953,
780,1590,1.698950,-4.089711,0.999995,0.000234,-0.005015,0.010101,0.000306,0.010107,-0.005022,88.841693,0.010107,
830,980,3.132200,-10.574183,0.999996,0.000243,-0.004076,0.010436,0.000726,0.010473,-0.004112,87.143963,0.010553,
1710,160,-0.761471,-18.989832,0.999996,0.000229,-0.002778,0.009229,-0.001968,0.009543,-0.003092,-80.925858,0.009738,
1430,2000,-0.046433,-0.222624,0.999999,0.000145,-0.000357,0.006312,0.000551,0.006357,-0.000402,85.308928,0.007120,
1610,1120,-2.914527,-9.088847,0.999997,0.000214,-0.004617,0.011001,0.001292,0.011107,-0.004723,85.304292,0.011148,
1490,1570,-0.824910,-3.658140,0.999996,0.000240,-0.004139,0.009075,-0.000965,0.009145,-0.004209,-85.844932,0.009155,
1060,170,0.176978,-19.179155,0.999998,0.000169,-0.001319,0.006905,0.000357,0.006921,-0.001335,87.517051,0.007343,
580,700,3.444807,-13.037347,0.999994,0.000297,-0.005839,0.009219,0.000666,0.009249,-0.005868,87.472585,0.009360,
1780,1140,-3.639935,-9.005284,0.999997,0.000232,-0.004594,0.009531,0.000697,0.009566,-0.004629,87.183534,0.009567,
960,1520,0.948448,-4.173003,0.999997,0.000212,-0.004815,0.009510,0.001228,0.009615,-0.004920,85.134170,0.009616,
630,490,2.530239,-15.330094,0.999996,0.000256,-0.005053,0.010159,-0.000110,0.010160,-0.005053,-89.587384,0.010160,
1830,2010,-0.271253,-0.259727,0.999997,0.000233,-0.003461,0.009074,0.003014,0.009761,-0.004148,77.156198,0.009797,
1250,290,-0.035099,-18.407673,0.999997,0.000206,-0.001800,0.006992,0.000087,0.006993,-0.001800,89.433339,0.007262,
1530,1790,-0.602967,-1.828110,0.999996,0.000235,-0.002735,0.008259,0.000392,0.008273,-0.002749,87.958693,0.008427,
940,1290,1.575613,-6.762961,0.999994,0.000279,-0.007300,0.012350,0.000595,0.012368,-0.007318,88.267044,0.012437,
1110,1800,0.197149,-1.554549,0.999998,0.000164,-0.001755,0.007120,-0.000029,0.007120,-0.001755,-89.810647,0.007418,
660,1230,3.486481,-8.156226,0.999995,0.000246,-0.004873,0.009769,-0.000784,0.009811,-0.004915,-86.942903,0.009811,
930,40,0.052249,-20.020861,0.999998,0.000168,-0.000121,0.006490,0.001052,0.006653,-0.000284,81.169134,0.007523,
750,1950,0.467355,-0.677688,0.999996,0.000236,-0.001621,0.008533,-0.002466,0.009100,-0.002188,-77.045708,0.009500,
670,1040,3.840843,-9.962495,0.999998,0.000167,-0.004366,0.009334,-0.000219,0.009337,-0.004369,-89.083943,0.009344,
1760,790,-3.144432,-12.435852,0.999998,0.000202,-0.005193,0.010298,-0.000918,0.010352,-0.005247,-86.620660,0.010352,
1650,1870,-0.686198,-1.306180,0.999997,0.000223,-0.002832,0.008778,0.001336,0.008930,-0.002984,83.518521,0.009093,
1300,1880,-0.070237,-0.977953,0.999998,0.000167,-0.000932,0.006597,0.000142,0.006600,-0.000935,88.918921,0.007143,
900,1890,0.413534,-1.050786,0.999997,0.000194,-0.001895,0.007817,-0.001077,0.007935,-0.002013,-83.747742,0.008250,
1160,430,0.171100,-17.385962,0.999997,0.000225,-0.002524,0.007219,-0.000387,0.007235,-0.002539,-87.730056,0.007341,
1580,480,-1.223906,-16.254964,0.999995,0.000263,-0.004837,0.009792,0.000662,0.009822,-0.004867,87.412858,0.009822,
640,1170,3.767416,-8.768859,0.999996,0.000268,-0.004592,0.009344,-0.000627,0.009372,-0.004620,-87.430696,0.009372,
1830,1370,-3.126973,-6.814882,0.999997,0.000209,-0.005093,0.010115,0.000372,0.010124,-0.005102,88.599536,0.010125,
1630,1460,-1.745970,-5.265125,0.999995,0.000242,-0.005711,0.010684,-0.000436,0.010695,-0.005723,-88.476785,0.010704,
1560,410,-1.004894,-16.984719,0.999997,0.000202,-0.004232,0.009319,0.000445,0.009334,-0.004246,88.121704,0.009347,
1850,1560,-2.629763,-4.932996,0.999995,0.000240,-0.005034,0.010092,-0.000070,0.010093,-0.005034,-89.736211,0.010093,
1050,100,0.092882,-19.649454,0.999998,0.000203,-0.000786,0.006567,0.000482,0.006599,-0.000817,86.264357,0.007194,
1700,1650,-1.622776,-3.533889,0.999996,0.000230,-0.004783,0.010015,-0.000139,0.010016,-0.004785,-89.463758,0.010019,
1480,1390,-1.006435,-5.366405,0.999996,0.000214,-0.006098,0.010564,-0.001884,0.010774,-0.006308,-83.627929,0.010827,
1240,850,-0.087562,-15.337220,0.999982,0.000000,-0.009747,0.003174,-0.000295,0.003181,-0.009754,-88.690714,0.009948,
1150,730,0.201573,-15.356767,0.999996,0.000244,-0.003442,0.005644,-0.003264,0.006695,-0.004493,-72.150208,0.006825,
1000,1720,0.538764,-2.297796,0.999997,0.000210,-0.002723,0.008164,0.000091,0.008165,-0.002724,89.522906,0.008315,
720,1880,0.942151,-1.359961,0.999996,0.000217,-0.003917,0.009672,-0.001494,0.009835,-0.004079,-83.798381,0.009882,
840,800,2.406008,-12.600335,0.999993,0.000297,-0.006269,0.011620,0.000943,0.011670,-0.006319,86.989508,0.011683,
990,380,0.627111,-17.472010,0.999996,0.000239,-0.003360,0.008506,-0.000411,0.008520,-0.003374,-88.018281,0.008581,
790,1550,1.748875,-4.465658,0.999995,0.000232,-0.005173,0.010254,0.000353,0.010262,-0.005181,88.691535,0.010263,
1210,560,0.054395,-16.529754,0.999998,0.000181,-0.002509,0.006413,-0.000436,0.006434,-0.002530,-87.209940,0.006483,
630,1740,1.987098,-3.055794,0.999996,0.000236,-0.004830,0.009996,-0.000025,0.009996,-0.004830,-89.901880,0.009997,
1650,570,-1.792023,-15.093507,0.999996,0.000237,-0.005528,0.010491,0.000368,0.010499,-0.005537,88.684975,0.010504,
760,650,2.325993,-14.064341,0.999995,0.000286,-0.005705,0.010709,0.000165,0.010711,-0.005706,89.422995,0.010719,
1420,1870,-0.221914,-1.095600,0.999997,0.000194,-0.001594,0.007074,0.000345,0.007088,-0.001608,87.723737,0.007432,
1700,950,-3.355144,-10.857410,0.999996,0.000247,-0.004470,0.010095,-0.000920,0.010153,-0.004527,-86.399914,0.010173,
1530,1770,-0.650114,-1.999558,0.999997,0.000204,-0.002957,0.008478,0.000299,0.008486,-0.002965,88.504969,0.008614,
1250,270,-0.030012,-18.547439,0.999998,0.000185,-0.001695,0.006937,0.000071,0.006937,-0.001696,89.527191,0.007233,
960,1500,0.973244,-4.366375,0.999997,0.000184,-0.004932,0.009686,0.001279,0.009797,-0.005043,85.035284,0.009798,
630,930,3.912037,-10.965950,0.999997,0.000224,-0.004410,0.009163,0.000594,0.009189,-0.004436,87.497263,0.009191,
1070,940,1.760253,-12.359325,0.999977,0.000576,-0.005268,0.016266,-0.007583,0.018668,-0.007670,-72.421765,0.018767,
1310,40,-0.009750,-20.036897,0.999998,0.000147,-0.000130,0.005965,-0.000183,0.005971,-0.000136,-88.281919,0.006817,
1170,2000,0.013829,-0.213310,0.999998,0.000164,-0.000128,0.006046,-0.000162,0.006050,-0.000132,-88.497517,0.006911,
1590,1120,-2.820584,-9.068938,0.999996,0.000255,-0.004684,0.011253,0.001405,0.011376,-0.004807,85.001936,0.011422,
1490,1590,-0.802567,-3.479696,0.999997,0.000227,-0.003967,0.008936,-0.000850,0.008992,-0.004023,-86.245655,0.009008,
1130,1360,0.269043,-4.712564,0.999997,0.000204,-0.003708,0.006731,0.002995,0.007529,-0.004506,75.078225,0.007578,
1760,770,-3.071824,-12.642085,0.999997,0.000241,-0.005271,0.010358,-0.000832,0.010402,-0.005315,-86.959997,0.010403,
1650,1850,-0.766857,-1.485749,0.999997,0.000223,-0.003084,0.008969,0.001202,0.009087,-0.003203,84.362356,0.009218,
1880,970,-4.173131,-10.567208,0.999997,0.000215,-0.004068,0.008274,-0.000003,0.008274,-0.004068,-89.986786,0.008275,
1300,170,-0.066769,-19.215233,0.999998,0.000162,-0.000906,0.006578,-0.000154,0.006582,-0.000909,-88.824935,0.007133,
1890,1580,-2.771224,-4.855854,0.999996,0.000254,-0.004976,0.010049,-0.000066,0.010049,-0.004976,-89.749648,0.010049,
1240,30,-0.004372,-20.095683,0.999999,0.000000,-0.000201,0.005973,-0.000006,0.005973,-0.000201,-89.943481,0.006784,
1090,720,0.454525,-14.980454,0.999994,0.000311,-0.005223,0.008424,-0.003510,0.009274,-0.006073,-76.389793,0.009421,
1750,1140,-3.502651,-8.981997,0.999996,0.000243,-0.004646,0.009771,0.000812,0.009816,-0.004691,86.785099,0.009820,
1830,1350,-3.196516,-7.017815,0.999996,0.000241,-0.005047,0.010063,0.000417,0.010075,-0.005059,88.420245,0.010075,
1520,1270,-1.638103,-6.997050,0.999992,0.000316,-0.007393,0.012584,-0.000374,0.012591,-0.007400,-88.927978,0.012655,
1230,600,0.003720,-16.296583,0.999998,0.000173,-0.002406,0.005979,-0.000060,0.005980,-0.002407,-89.592600,0.006018,
1030,100,0.110266,-19.644914,0.999998,0.000164,-0.000791,0.006633,0.000574,0.006677,-0.000835,85.604198,0.007275,
640,50,0.290686,-19.877342,0.999992,0.000388,-0.002863,0.009068,0.003235,0.009889,-0.003683,75.766449,0.009995,
790,1010,3.325189,-10.257420,0.999997,0.000210,-0.004090,0.010101,0.000331,0.010109,-0.004097,88.663245,0.010169,
720,1840,1.143654,-1.756898,0.999996,0.000259,-0.004243,0.009836,-0.001030,0.009911,-0.004318,-85.838357,0.009938,
1740,1620,-1.903394,-3.966157,0.999997,0.000226,-0.004956,0.010114,-0.000179,0.010117,-0.004958,-89.318734,0.010117,
610,1740,2.082691,-3.131866,0.999998,0.000197,-0.004821,0.009944,0.000051,0.009945,-0.004821,89.800338,0.009946,
1650,550,-1.739306,-15.303675,0.999996,0.000242,-0.005421,0.010398,0.000412,0.010409,-0.005432,88.507396,0.010412,
1000,1700,0.566051,-2.460837,0.999997,0.000217,-0.002890,0.008195,0.000245,0.008201,-0.002895,88.735510,0.008318,
1160,230,0.097699,-18.812058,0.999998,0.000191,-0.001342,0.006839,0.000109,0.006840,-0.001344,89.237406,0.007248,
1880,1940,-1.137433,-1.224383,0.999996,0.000251,-0.004683,0.010872,0.001780,0.011073,-0.004884,83.555286,0.011098,
960,1480,0.998493,-4.557908,0.999996,0.000212,-0.005116,0.009861,0.001378,0.009986,-0.005242,84.787398,0.009990,
1150,1530,0.213586,-3.475918,0.999997,0.000210,-0.002918,0.007134,0.001024,0.007237,-0.003021,84.241260,0.007270,
750,1190,3.172095,-8.438057,0.999996,0.000247,-0.005055,0.010404,-0.001121,0.010485,-0.005136,-85.872780,0.010486,
920,1400,1.375817,-5.574252,0.999995,0.000277,-0.006229,0.011007,0.001053,0.011071,-0.006293,86.516214,0.011106,
1250,250,-0.030263,-18.686561,0.999998,0.000179,-0.001550,0.006840,0.000056,0.006840,-0.001551,89.620619,0.007173,
1690,1800,-1.110845,-2.034478,0.999997,0.000212,-0.003986,0.009526,0.000743,0.009567,-0.004026,86.860893,0.009606,
990,360,0.600167,-17.640882,0.999997,0.000194,-0.003110,0.008284,-0.000289,0.008291,-0.003117,-88.546618,0.008376,
1160,2000,0.014734,-0.214153,0.999998,0.000154,-0.000132,0.006046,-0.000194,0.006052,-0.000138,-88.198783,0.006910,
760,630,2.261795,-14.280656,0.999996,0.000291,-0.005657,0.010673,0.000058,0.010674,-0.005657,89.796716,0.010680,
840,760,2.236838,-13.068546,0.999994,0.000299,-0.006393,0.011582,0.000594,0.011601,-0.006413,88.110134,0.011623,
950,620,1.124864,-15.097068,0.999997,0.000235,-0.005717,0.010334,-0.001407,0.010457,-0.005840,-85.028874,0.010480,
870,920,2.770849,-11.259923,0.999995,0.000271,-0.004971,0.011343,0.001439,0.011469,-0.005097,84.998578,0.011493,
630,910,3.868840,-11.146661,0.999997,0.000221,-0.004403,0.009108,0.000516,0.009128,-0.004423,87.818096,0.009129,
1360,460,-0.335945,-17.073197,0.999997,0.000195,-0.002923,0.007598,0.000781,0.007655,-0.002980,85.778852,0.007718,
1300,40,-0.009533,-20.036950,0.999998,0.000148,-0.000058,0.005964,-0.000172,0.005969,-0.000063,-88.363633,0.006856,
1430,1100,-2.096368,-8.695929,0.999990,0.000387,-0.006706,0.016760,-0.002607,0.017046,-0.006992,-83.735631,0.017138,
1230,2020,-0.001798,-0.091314,0.999998,0.000000,-0.000206,0.005979,-0.000039,0.005980,-0.000206,-89.640609,0.006789,
1400,1100,-1.879794,-8.214896,0.999977,0.000599,-0.006686,0.018579,-0.007236,0.020505,-0.008612,-75.097999,0.020592,
1870,970,-4.131247,-10.573228,0.999997,0.000213,-0.004153,0.008418,-0.000041,0.008419,-0.004153,-89.811030,0.008419,
800,350,1.301197,-17.275293,0.999996,0.000228,-0.004586,0.009675,-0.000030,0.009675,-0.004586,-89.878945,0.009680,
1880,1330,-3.515941,-7.359673,0.999994,0.000280,-0.004917,0.009757,0.000225,0.009761,-0.004921,89.122619,0.009761,
1690,1120,-3.273076,-9.143399,0.999997,0.000214,-0.004568,0.010146,0.000905,0.010201,-0.004624,86.494995,0.010216,
1500,80,-0.122586,-19.760903,0.999998,0.000160,-0.000777,0.006752,-0.000887,0.006855,-0.000880,-83.370619,0.007460,
640,40,0.202999,-19.965153,0.999993,0.000355,-0.002676,0.008710,0.003309,0.009602,-0.003567,74.918109,0.009707,
1650,1830,-0.842969,-1.663669,0.999997,0.000224,-0.003305,0.009041,0.001006,0.009123,-0.003386,85.369957,0.009223,
1070,720,0.562758,-14.819472,0.999996,0.000241,-0.005726,0.009194,-0.003403,0.009934,-0.006466,-77.740679,0.010083,
1780,1270,-3.230357,-7.712222,0.999997,0.000235,-0.005134,0.010148,0.000843,0.010194,-0.005180,86.852190,0.010195,
560,200,1.829450,-17.954788,0.999953,0.000000,-0.005822,0.010242,0.000452,0.010254,-0.005834,88.390064,0.010287,
790,990,3.306349,-10.459996,0.999995,0.000251,-0.004151,0.010086,0.000414,0.010099,-0.004163,88.335485,0.010150,
1230,580,0.005102,-16.418706,0.999996,0.000233,-0.002461,0.006214,-0.000041,0.006214,-0.002461,-89.731650,0.006259,
1760,930,-3.581817,-11.024815,0.999996,0.000217,-0.004555,0.009702,-0.000766,0.009743,-0.004596,-86.933343,0.009749,
1530,1750,-0.690423,-2.169430,0.999997,0.000199,-0.003095,0.008435,0.000111,0.008436,-0.003096,89.448938,0.008535,
1460,1390,-0.885250,-5.254560,0.999995,0.000274,-0.005937,0.010231,-0.002192,0.010523,-0.006229,-82.415642,0.010582,
590,1740,2.179159,-3.204439,0.999997,0.000190,-0.004819,0.009883,0.000069,0.009883,-0.004819,89.731153,0.009884,
1010,190,0.280233,-19.005934,0.999997,0.000201,-0.001479,0.007282,0.000529,0.007314,-0.001511,86.559965,0.007722,
1650,530,-1.690453,-15.510328,0.999996,0.000223,-0.005294,0.010339,0.000438,0.010351,-0.005307,88.395275,0.010352,
1150,1510,0.215293,-3.618953,0.999997,0.000196,-0.002924,0.007001,0.001131,0.007128,-0.003051,83.580484,0.007153,
930,100,0.194990,-19.615019,0.999998,0.000157,-0.000876,0.007088,0.001111,0.007240,-0.001028,82.205299,0.007834,
710,1210,3.305968,-8.280925,0.999996,0.000240,-0.005029,0.010116,-0.001001,0.010182,-0.005095,-86.233172,0.010182,
1630,1440,-1.798840,-5.480392,0.999996,0.000226,-0.005824,0.010742,-0.000391,0.010751,-0.005833,-88.647173,0.010764,
1780,1120,-3.684399,-9.198622,0.999996,0.000241,-0.004550,0.009626,0.000752,0.009665,-0.004590,86.972408,0.009669,
1880,1580,-2.721182,-4.824899,0.999996,0.000275,-0.004987,0.010062,-0.000072,0.010062,-0.004987,-89.724764,0.010062,
1630,560,-1.656474,-15.267406,0.999995,0.000255,-0.005466,0.010444,0.000484,0.010459,-0.005481,88.258005,0.010463,
1250,230,-0.024911,-18.822673,0.999998,0.000185,-0.001457,0.006769,0.000036,0.006769,-0.001457,89.750590,0.007125,
1830,1560,-2.529138,-4.870861,0.999996,0.000245,-0.005058,0.010135,-0.000095,0.010135,-0.005059,-89.642659,0.010135,
1580,680,-1.676615,-14.146112,0.999994,0.000270,-0.006441,0.011328,0.000472,0.011340,-0.006454,88.479328,0.011376,
1350,2000,-0.025015,-0.217119,0.999998,0.000164,-0.000248,0.006138,0.000297,0.006151,-0.000262,87.346814,0.006957,
1740,1600,-1.960276,-4.169036,0.999996,0.000243,-0.005014,0.010138,-0.000221,0.010141,-0.005017,-89.165400,0.010141,
1710,1800,-1.188720,-2.083061,0.999997,0.000182,-0.003929,0.009716,0.000889,0.009773,-0.003986,86.289120,0.009828,
880,340,0.949821,-17.568496,0.999997,0.000190,-0.003980,0.009196,-0.000080,0.009196,-0.003981,-89.652612,0.009224,
740,650,2.437431,-14.006705,0.999994,0.000295,-0.005593,0.010628,0.000237,0.010631,-0.005597,89.164463,0.010636,
1140,230,0.127491,-18.804029,0.999998,0.000170,-0.001532,0.006895,0.000040,0.006895,-0.001532,89.730113,0.007241,
1360,660,-0.370672,-15.547944,0.999996,0.000246,-0.004104,0.007642,0.002690,0.008229,-0.004691,77.694599,0.008256,
850,920,2.870319,-11.235876,0.999995,0.000268,-0.004859,0.011143,0.001420,0.011268,-0.004984,84.968969,0.011293,
630,890,3.823228,-11.328738,0.999996,0.000244,-0.004495,0.009220,0.000521,0.009240,-0.004514,87.827323,0.009240,
960,1460,1.028556,-4.759837,0.999996,0.000242,-0.005393,0.010023,0.001483,0.010164,-0.005534,84.556082,0.010178,
1410,1070,-2.075935,-9.013816,0.999959,0.000756,-0.008707,0.022992,-0.004751,0.023689,-0.009403,-81.656325,0.023856,
1290,40,-0.008697,-20.036558,0.999998,0.000161,-0.000029,0.005948,-0.000145,0.005952,-0.000033,-88.610315,0.006854,
1230,1200,0.022821,-4.820533,0.999987,0.000000,-0.011023,0.003189,-0.000073,0.003189,-0.011024,-89.706321,0.011345,
1110,1360,0.345547,-4.834879,0.999996,0.000245,-0.004299,0.007436,0.003183,0.008244,-0.005107,75.763335,0.008322,
800,330,1.242310,-17.470821,0.999997,0.000220,-0.004460,0.009710,0.000090,0.009711,-0.004460,89.634817,0.009722,
1210,600,0.051918,-16.279595,0.999998,0.000157,-0.002430,0.006011,-0.000521,0.006043,-0.002462,-86.479267,0.006078,
1070,700,0.541185,-15.003561,0.999992,0.000327,-0.005384,0.008957,-0.003163,0.009624,-0.006051,-78.100076,0.009730,
1650,1810,-0.914096,-1.849838,0.999997,0.000227,-0.003474,0.009211,0.000846,0.009267,-0.003530,86.200317,0.009355,
1000,1170,1.785948,-7.965342,0.999992,0.000347,-0.007338,0.014008,0.000263,0.014011,-0.007342,89.295326,0.014016,
1500,60,-0.078394,-19.897241,0.999998,0.000173,-0.000577,0.006588,-0.000895,0.006698,-0.000687,-82.984105,0.007370,
910,100,0.212485,-19.608268,0.999998,0.000188,-0.000868,0.007200,0.001221,0.007381,-0.001049,81.581241,0.007986,
790,970,3.283174,-10.662176,0.999996,0.000260,-0.004286,0.010219,0.000740,0.010257,-0.004323,87.087454,0.010299,
750,1930,0.588865,-0.857983,0.999996,0.000234,-0.002057,0.008859,-0.002410,0.009368,-0.002565,-78.088255,0.009682,
1670,1120,-3.184178,-9.131622,0.999997,0.000211,-0.004532,0.010306,0.000986,0.010372,-0.004598,86.214328,0.010394,
1070,300,0.311428,-18.242510,0.999997,0.000217,-0.002163,0.007504,-0.000050,0.007504,-0.002164,-89.705480,0.007725,
1700,1420,-2.262202,-5.924150,0.999995,0.000278,-0.005663,0.010689,0.000097,0.010690,-0.005663,89.660789,0.010696,
560,190,1.790386,-18.072504,0.999915,0.000000,-0.006099,0.009424,0.000368,0.009433,-0.006108,88.641500,0.009569,
1870,1940,-1.091230,-1.176443,0.999995,0.000243,-0.004707,0.010781,0.001697,0.010965,-0.004891,83.821351,0.010986,
1190,360,0.088066,-17.904748,0.999997,0.000196,-0.002109,0.007082,-0.000148,0.007084,-0.002112,-89.077491,0.007274,
640,90,0.657998,-19.475844,0.999990,0.000361,-0.003601,0.010401,0.002919,0.010985,-0.004185,78.683337,0.011088,
920,1380,1.424855,-5.796763,0.999994,0.000317,-0.006477,0.011232,0.000956,0.011284,-0.006528,86.920090,0.011330,
1090,1800,0.231229,-1.569398,0.999997,0.000197,-0.001678,0.007213,-0.000141,0.007216,-0.001681,-89.088784,0.007551,
1400,500,-0.487177,-16.651186,0.999996,0.000216,-0.003504,0.008095,0.001160,0.008209,-0.003619,84.346128,0.008229,
1860,970,-4.088920,-10.581157,0.999997,0.000195,-0.004226,0.008586,-0.000067,0.008586,-0.004227,-89.700505,0.008587,
1010,210,0.319293,-18.853735,0.999997,0.000203,-0.001684,0.007438,0.000436,0.007458,-0.001705,87.271419,0.007816,
1530,1730,-0.727934,-2.337161,0.999997,0.000214,-0.003199,0.008768,0.000040,0.008768,-0.003199,89.806685,0.008874,
1790,420,-2.108813,-16.184793,0.999997,0.000183,-0.004955,0.010104,0.000165,0.010106,-0.004957,89.372746,0.010107,
710,1190,3.372238,-8.482232,0.999996,0.000240,-0.004932,0.010055,-0.001044,0.010128,-0.005005,-86.032616,0.010128,
1450,790,-1.125939,-13.566973,0.999995,0.000282,-0.007637,0.012288,0.002098,0.012507,-0.007856,84.054969,0.012643,
1760,910,-3.536652,-11.218097,0.999996,0.000223,-0.004639,0.009761,-0.000787,0.009804,-0.004682,-86.882427,0.009807,
930,620,1.238534,-15.009398,0.999995,0.000281,-0.005824,0.010485,-0.001183,0.010571,-0.005909,-85.872339,0.010595,
1150,1490,0.216095,-3.757836,0.999997,0.000187,-0.002937,0.006874,0.001235,0.007027,-0.003090,82.936367,0.007044,
840,740,2.160100,-13.299224,0.999994,0.000293,-0.006391,0.011538,0.000405,0.011547,-0.006400,88.707219,0.011570,
1290,1620,-0.140421,-2.800498,0.999998,0.000189,-0.002399,0.007124,-0.000268,0.007132,-0.002406,-88.388675,0.007256,
1580,1270,-2.060169,-7.253276,0.999994,0.000279,-0.006717,0.012092,0.000488,0.012104,-0.006729,88.515010,0.012129,
590,1730,2.214414,-3.305152,0.999997,0.000180,-0.004817,0.009841,0.000100,0.009841,-0.004818,89.607604,0.009842,
1530,1900,-0.332889,-0.952123,0.999997,0.000203,-0.001583,0.007556,0.000960,0.007656,-0.001683,84.068759,0.008046,
1490,50,-0.055352,-19.963053,0.999998,0.000146,-0.000418,0.006407,-0.000826,0.006505,-0.000517,-83.198739,0.007231,
820,1730,1.141753,-2.588519,0.999997,0.000223,-0.004055,0.009499,-0.000175,0.009501,-0.004058,-89.262296,0.009535,
1780,1100,-3.727177,-9.392974,0.999995,0.000257,-0.004491,0.009548,0.000585,0.009572,-0.004515,87.619294,0.009577,
1250,210,-0.025399,-18.957063,0.999998,0.000190,-0.001308,0.006660,0.000035,0.006660,-0.001309,89.751503,0.007057,
1290,1260,-0.171012,-4.931384,0.999996,0.000250,-0.003458,0.003709,-0.003108,0.004869,-0.004619,-69.531362,0.005483,
1200,780,0.074883,-15.451782,0.999996,0.000240,-0.002564,0.002781,-0.001826,0.003345,-0.003128,-72.831871,0.003744,
810,800,2.590595,-12.530697,0.999994,0.000314,-0.005951,0.011325,0.001017,0.011384,-0.006010,86.642216,0.011390,
960,1440,1.059519,-4.966636,0.999996,0.000237,-0.005648,0.010163,0.001509,0.010306,-0.005791,84.595737,0.010332,
1750,90,-0.462157,-19.572766,0.999995,0.000264,-0.002812,0.008527,-0.002389,0.009010,-0.003295,-78.575746,0.009118,
1470,1200,-1.628942,-7.607020,0.999993,0.000326,-0.007683,0.013640,-0.000512,0.013653,-0.007695,-88.626633,0.013690,
1050,750,0.731157,-14.353660,0.999994,0.000267,-0.006669,0.010479,-0.003271,0.011082,-0.007271,-79.559111,0.011261,
1610,1460,-1.630099,-5.190706,0.999995,0.000254,-0.005730,0.010641,-0.000581,0.010662,-0.005750,-87.969963,0.010673,
1650,510,-1.644593,-15.720064,0.999995,0.000248,-0.005204,0.010296,0.000424,0.010307,-0.005215,88.432915,0.010307,
1360,1200,-0.811081,-6.222616,0.999989,0.000429,-0.005196,0.008306,-0.004558,0.009700,-0.006590,-72.988094,0.009906,
1300,1860,-0.076950,-1.109611,0.999998,0.000161,-0.001062,0.006698,0.000155,0.006701,-0.001065,88.859687,0.007201,
1170,360,0.130478,-17.895805,0.999998,0.000147,-0.002117,0.007132,-0.000104,0.007133,-0.002118,-89.355223,0.007326,
1810,760,-3.292022,-12.638498,0.999996,0.000240,-0.005024,0.009997,-0.000655,0.010025,-0.005053,-87.507813,0.010025,
1830,1330,-3.267948,-7.218459,0.999995,0.000239,-0.004999,0.010004,0.000477,0.010019,-0.005014,88.180617,0.010019,
1390,300,-0.305776,-18.245614,0.999997,0.000198,-0.002094,0.007526,0.000032,0.007526,-0.002094,89.812344,0.007769,
1890,1120,-4.169344,-9.313308,0.999997,0.000203,-0.004182,0.008634,0.000289,0.008640,-0.004189,88.709373,0.008642,
1700,1400,-2.326329,-6.139802,0.999995,0.000276,-0.005713,0.010706,0.000205,0.010708,-0.005716,89.283435,0.010717,
880,320,0.903628,-17.751007,0.999998,0.000173,-0.003824,0.009082,0.000064,0.009082,-0.003824,89.716942,0.009120,
560,180,1.745193,-18.172474,0.999821,0.000000,-0.006171,0.008851,0.000570,0.008872,-0.006192,87.831894,0.009101,
1060,970,1.968568,-11.584770,0.999980,0.000519,-0.007646,0.021192,-0.006336,0.022522,-0.008976,-78.139584,0.022676,
1490,1990,-0.082482,-0.294088,0.999998,0.000192,-0.000537,0.006619,0.000875,0.006725,-0.000643,83.127290,0.007422,
980,1170,1.928674,-8.113349,0.999994,0.000261,-0.007029,0.013678,-0.000376,0.013685,-0.007036,-88.958992,0.013687,
920,1580,1.044576,-3.739996,0.999996,0.000244,-0.004515,0.009465,0.000783,0.009508,-0.004559,86.804818,0.009511,
1580,920,-2.707842,-11.277137,0.999996,0.000240,-0.005016,0.011529,-0.001432,0.011652,-0.005139,-85.088347,0.011679,
1350,720,-0.343897,-15.156731,0.999995,0.000303,-0.004540,0.007404,0.003582,0.008395,-0.005532,74.522481,0.008536,
1880,960,-4.165025,-10.649823,0.999997,0.000203,-0.004104,0.008316,-0.000021,0.008316,-0.004104,-89.904386,0.008316,
630,870,3.771932,-11.520031,0.999996,0.000227,-0.004604,0.009453,0.000681,0.009485,-0.004637,87.232915,0.009486,
1010,230,0.346054,-18.706132,0.999998,0.000193,-0.001854,0.007560,0.000371,0.007574,-0.001868,87.747108,0.007892,
810,1800,0.960864,-1.950071,0.999996,0.000236,-0.003655,0.009268,-0.000731,0.009310,-0.003696,-86.772811,0.009375,
1090,1360,0.439246,-4.975951,0.999996,0.000223,-0.004827,0.008201,0.003189,0.008940,-0.005566,76.958420,0.009029,
1650,1790,-0.982356,-2.034699,0.999996,0.000253,-0.003636,0.009252,0.000661,0.009286,-0.003670,87.070350,0.009353,
750,1890,0.797001,-1.218908,0.999996,0.000210,-0.002846,0.009300,-0.001958,0.009608,-0.003154,-81.063874,0.009795,
1400,480,-0.477763,-16.813344,0.999996,0.000249,-0.003459,0.008064,0.001058,0.008161,-0.003555,84.795124,0.008183,
1630,540,-1.608728,-15.475624,0.999994,0.000279,-0.005339,0.010346,0.000527,0.010364,-0.005357,88.076140,0.010366,
1190,600,0.101067,-16.259625,0.999997,0.000196,-0.002578,0.006163,-0.000752,0.006227,-0.002642,-85.117158,0.006251,
880,510,1.300065,-15.944743,0.999995,0.000271,-0.005022,0.009980,-0.000693,0.010012,-0.005054,-87.359530,0.010012,
1740,1990,-0.286250,-0.366912,0.999993,0.000322,-0.001654,0.008288,0.002753,0.008999,-0.002365,75.512245,0.009331,
620,1590,2.506549,-4.605438,0.999995,0.000247,-0.005057,0.010156,0.000127,0.010157,-0.005058,89.521194,0.010157,
1090,810,0.636480,-14.160414,0.999992,0.000330,-0.006647,0.009725,-0.004337,0.010802,-0.007725,-76.043775,0.011131,
1500,170,-0.317491,-19.118426,0.999998,0.000183,-0.001837,0.007439,-0.000694,0.007491,-0.001888,-85.744357,0.007792,
710,1170,3.435434,-8.685852,0.999996,0.000243,-0.004836,0.010083,-0.001038,0.010155,-0.004908,-86.039005,0.010157,
1310,1620,-0.189209,-2.818071,0.999998,0.000200,-0.002638,0.007242,-0.000521,0.007270,-0.002666,-86.989114,0.007356,
1530,1710,-0.769123,-2.520692,0.999997,0.000214,-0.003255,0.008885,-0.000020,0.008886,-0.003255,-89.904129,0.008991,
1780,90,-0.556473,-19.527620,0.999996,0.000237,-0.002502,0.009240,-0.003068,0.009993,-0.003255,-76.205752,0.010193,
1780,1710,-1.828118,-3.181396,0.999997,0.000188,-0.004837,0.010041,0.000017,0.010041,-0.004837,89.933532,0.010044,
970,1280,1.393741,-6.715699,0.999994,0.000323,-0.007525,0.012456,0.001084,0.012515,-0.007583,86.903768,0.012608,
1780,1080,-3.751967,-9.581133,0.999996,0.000217,-0.004403,0.009412,0.000275,0.009417,-0.004409,88.860416,0.009424,
1430,1680,-0.492876,-2.565776,0.999998,0.000232,-0.003028,0.008181,-0.000407,0.008195,-0.003043,-87.925719,0.008285,
1250,190,-0.022149,-19.090200,0.999998,0.000177,-0.001180,0.006613,0.000014,0.006613,-0.001180,89.898418,0.007054,
640,70,0.468015,-19.682733,0.999992,0.000333,-0.003176,0.010201,0.003215,0.010933,-0.003909,77.164293,0.011080,
1790,400,-2.050197,-16.388754,0.999997,0.000191,-0.004930,0.010118,0.000124,0.010119,-0.004931,89.529445,0.010120,
1450,770,-1.047382,-13.814337,0.999995,0.000271,-0.007443,0.011877,0.002236,0.012133,-0.007698,83.482636,0.012278,
780,390,1.502549,-16.825922,0.999997,0.000208,-0.004649,0.009854,-0.000103,0.009855,-0.004650,-89.595041,0.009860,
1300,1490,-0.177416,-3.724933,0.999998,0.000133,-0.002881,0.006761,-0.001135,0.006892,-0.003013,-83.377028,0.006910,
1230,850,0.018858,-15.345443,0.999980,0.000000,-0.010004,0.003389,-0.000135,0.003391,-0.010005,-89.424560,0.010177,
840,720,2.083848,-13.533260,0.999995,0.000285,-0.006335,0.011466,0.000224,0.011469,-0.006338,89.279468,0.011490,
1570,1900,-0.395766,-0.978700,0.999998,0.000194,-0.001877,0.007800,0.001154,0.007936,-0.002013,83.291529,0.008251,
1040,1130,1.827966,-8.135202,0.999992,0.000335,-0.006555,0.014780,0.002862,0.015157,-0.006932,82.489843,0.015175,
1750,110,-0.586549,-19.395392,0.999995,0.000269,-0.003271,0.009127,-0.002285,0.009535,-0.003679,-79.882407,0.009618,
1350,1870,-0.130301,-1.058409,0.999998,0.000177,-0.001253,0.006760,0.000194,0.006764,-0.001257,88.613146,0.007195,
1790,760,-3.190464,-12.682212,0.999997,0.000209,-0.005133,0.010144,-0.000721,0.010178,-0.005167,-87.303073,0.010179,
1150,1470,0.212661,-3.895708,0.999997,0.000198,-0.002937,0.006764,0.001326,0.006942,-0.003115,82.356206,0.006954,
1640,950,-3.088533,-10.888750,0.999995,0.000257,-0.004372,0.010502,-0.001026,0.010572,-0.004442,-86.072754,0.010617,
1830,1120,-3.909101,-9.238177,0.999996,0.000246,-0.004430,0.009235,0.000595,0.009261,-0.004455,87.513055,0.009263,
1230,360,0.002938,-17.921852,0.999998,0.000174,-0.002185,0.007011,-0.000010,0.007011,-0.002185,-89.937544,0.007175,
1420,1330,-0.730818,-5.602044,0.999996,0.000223,-0.006332,0.010239,-0.003011,0.010770,-0.006862,-80.012789,0.010904,
1050,730,0.694753,-14.561103,0.999994,0.000263,-0.006303,0.010134,-0.003185,0.010729,-0.006899,-79.408307,0.010874,
920,1820,0.564279,-1.596066,0.999997,0.000217,-0.002399,0.008277,-0.000683,0.008320,-0.002442,-86.355436,0.008553,
1490,420,-0.746420,-17.078939,0.999997,0.000194,-0.003795,0.008768,0.000660,0.008803,-0.003830,87.000302,0.008827,
1650,1770,-1.049077,-2.222190,0.999997,0.000227,-0.003787,0.009434,0.000517,0.009454,-0.003807,87.763306,0.009513,
1270,1260,-0.109510,-4.792354,0.999997,0.000199,-0.003117,0.002792,-0.002138,0.003484,-0.003809,-72.053447,0.004223,
1700,1380,-2.391395,-6.354361,0.999996,0.000262,-0.005777,0.010822,0.000306,0.010828,-0.005783,88.944363,0.010836,
560,280,2.178301,-17.184220,0.999978,0.000000,-0.004384,0.009543,-0.000088,0.009543,-0.004384,-89.636243,0.009554,
1660,1010,-3.271903,-10.259047,0.999997,0.000203,-0.004039,0.010143,-0.000334,0.010151,-0.004047,-88.650029,0.010220,
790,1800,1.040800,-1.994710,0.999998,0.000167,-0.004014,0.009408,-0.000676,0.009442,-0.004048,-87.125614,0.009474,
630,850,3.708017,-11.711685,0.999996,0.000215,-0.004700,0.009550,0.000702,0.009585,-0.004734,87.188087,0.009585,
1070,680,0.528531,-15.181573,0.999994,0.000282,-0.005066,0.008764,-0.002912,0.009352,-0.005654,-78.582815,0.009420,
1450,1200,-1.472929,-7.429894,0.999992,0.000316,-0.007883,0.013721,-0.001231,0.013791,-0.007953,-86.749023,0.013845,
1570,1890,-0.427977,-1.055133,0.999997,0.000216,-0.001999,0.007865,0.001087,0.007983,-0.002118,83.786204,0.008271,
1190,580,0.102350,-16.383594,0.999998,0.000140,-0.002589,0.006375,-0.000635,0.006420,-0.002634,-85.971320,0.006454,
1400,900,-1.458613,-12.730687,0.999985,0.000416,-0.005958,0.012465,0.004480,0.013497,-0.006989,77.031574,0.013500,
1300,1840,-0.088909,-1.246112,0.999998,0.000174,-0.001231,0.006790,0.000128,0.006792,-0.001233,89.085355,0.007237,
1830,1310,-3.340202,-7.419464,0.999996,0.000214,-0.004975,0.009896,0.000525,0.009914,-0.004993,87.979009,0.009915,
880,300,0.849285,-17.938142,0.999998,0.000167,-0.003696,0.008897,0.000196,0.008900,-0.003699,89.109753,0.008942,
1170,1620,0.148298,-2.801634,0.999998,0.000182,-0.002451,0.007133,0.000306,0.007143,-0.002461,88.174320,0.007257,
640,1530,2.581312,-5.153354,0.999995,0.000250,-0.005112,0.010180,0.000079,0.010181,-0.005112,89.703652,0.010181,
1390,1700,-0.354476,-2.331739,0.999998,0.000195,-0.002511,0.007675,-0.000266,0.007682,-0.002518,-88.507403,0.007833,
710,1150,3.492970,-8.886621,0.999996,0.000243,-0.004703,0.009871,-0.000870,0.009923,-0.004754,-86.595986,0.009925,
1530,1690,-0.809901,-2.698369,0.999997,0.000186,-0.003409,0.008720,-0.000178,0.008723,-0.003411,-89.160169,0.008792,
1390,1150,-1.456988,-7.269147,0.999990,0.000369,-0.004696,0.011550,-0.005666,0.013331,-0.006476,-72.552516,0.013332,
1780,1060,-3.766440,-9.771519,0.999996,0.000221,-0.004347,0.009413,0.000289,0.009419,-0.004353,88.796491,0.009428,
800,1630,1.500125,-3.623873,0.999995,0.000266,-0.004751,0.009910,0.000229,0.009914,-0.004754,89.106894,0.009917,
1040,1110,1.990279,-8.448256,0.999986,0.000491,-0.006727,0.016074,0.003369,0.016562,-0.007215,81.767916,0.016608,
860,510,1.399216,-15.877548,0.999997,0.000263,-0.005075,0.010037,-0.000595,0.010060,-0.005098,-87.749031,0.010060,
840,700,2.014716,-13.760689,0.999995,0.000268,-0.006284,0.011347,0.000055,0.011347,-0.006284,89.820463,0.011369,
1350,1830,-0.165155,-1.337293,0.999998,0.000186,-0.001562,0.007017,0.000094,0.007018,-0.001563,89.374336,0.007369,
1010,250,0.385641,-18.549640,0.999997,0.000185,-0.002038,0.007711,0.000311,0.007721,-0.002047,88.172375,0.008000,
1750,130,-0.712861,-19.210190,0.999996,0.000254,-0.003589,0.009301,-0.002080,0.009629,-0.003917,-81.055297,0.009684,
580,1120,4.139729,-9.303908,0.999998,0.000192,-0.004043,0.008596,-0.000291,0.008603,-0.004049,-88.682865,0.008608,
1250,170,-0.019184,-19.222217,0.999998,0.000167,-0.001012,0.006548,0.000024,0.006548,-0.001012,89.816554,0.007050,
750,1870,0.895411,-1.406212,0.999996,0.000221,-0.003120,0.009436,-0.001667,0.009654,-0.003338,-82.565273,0.009806,
1470,300,-0.503715,-18.135586,0.999996,0.000221,-0.002539,0.008008,-0.000123,0.008010,-0.002540,-89.333896,0.008186,
560,1940,1.237522,-1.333519,0.999982,0.000000,-0.004166,0.011114,-0.001717,0.011305,-0.004356,-83.667395,0.011403,
1050,710,0.666027,-14.760523,0.999994,0.000278,-0.005949,0.009784,-0.002999,0.010336,-0.006501,-79.564147,0.010450,
1450,750,-0.988994,-14.046098,0.999995,0.000295,-0.007156,0.011485,0.002389,0.011786,-0.007458,82.812340,0.011924,
1870,260,-1.948265,-17.510273,0.999996,0.000240,-0.004863,0.009862,-0.000122,0.009863,-0.004864,-89.525727,0.009864,
1640,630,-1.898012,-14.484450,0.999997,0.000216,-0.005867,0.010851,0.000230,0.010854,-0.005870,89.212574,0.010866,
680,910,3.642063,-11.199220,0.999997,0.000263,-0.004594,0.009531,0.000682,0.009564,-0.004627,87.240553,0.009566,
960,1490,0.986286,-4.461924,0.999997,0.000190,-0.005006,0.009772,0.001326,0.009890,-0.005124,84.911439,0.009892,
1210,1800,0.035544,-1.510431,0.999998,0.000178,-0.001587,0.006849,0.000069,0.006849,-0.001588,89.533710,0.007170,
790,1300,2.527788,-7.167608,0.999995,0.000260,-0.005978,0.011134,-0.000769,0.011169,-0.006013,-87.431380,0.011180,
1580,1390,-1.634403,-5.841371,0.999996,0.000248,-0.006320,0.011201,-0.000570,0.011219,-0.006338,-88.137243,0.011251,
1650,1750,-1.111908,-2.413843,0.999997,0.000224,-0.003943,0.009455,0.000337,0.009464,-0.003951,88.560765,0.009507,
1230,30,0.001178,-20.096961,0.999999,0.000000,-0.000245,0.005967,-0.000004,0.005967,-0.000245,-89.960836,0.006753,
1860,1330,-3.416986,-7.300495,0.999995,0.000246,-0.004961,0.009830,0.000327,0.009837,-0.004969,88.732942,0.009838,
1700,1360,-2.463962,-6.574743,0.999995,0.000283,-0.005821,0.010885,0.000452,0.010897,-0.005833,88.449957,0.010906,
920,840,2.075729,-12.350863,0.999995,0.000269,-0.006825,0.012696,0.000796,0.012728,-0.006858,87.669267,0.012741,
700,1230,3.286989,-8.092050,0.999995,0.000272,-0.005088,0.010188,-0.000995,0.010253,-0.005152,-86.288896,0.010253,
1110,720,0.353304,-15.131141,0.999994,0.000311,-0.004637,0.007516,-0.003584,0.008494,-0.005616,-74.734127,0.008640,
1570,1850,-0.544456,-1.379521,0.999997,0.000223,-0.002494,0.008276,0.000877,0.008347,-0.002565,85.372717,0.008551,
710,60,0.275738,-19.827074,0.999993,0.000341,-0.001777,0.008533,0.003043,0.009365,-0.002608,74.722955,0.009666,
1550,1900,-0.364981,-0.963966,0.999998,0.000203,-0.001540,0.007660,0.001110,0.007792,-0.001672,83.217701,0.008205,
1220,590,0.028134,-16.349936,0.999998,0.000163,-0.002435,0.006103,-0.000340,0.006116,-0.002449,-87.722346,0.006157,
1300,1820,-0.094841,-1.382892,0.999998,0.000174,-0.001347,0.006893,0.000110,0.006895,-0.001348,89.237330,0.007309,
1110,1620,0.307715,-2.888380,0.999997,0.000206,-0.002723,0.007484,0.000592,0.007518,-0.002757,86.690145,0.007606,
1210,360,0.047564,-17.913655,0.999998,0.000191,-0.002135,0.007039,-0.000176,0.007042,-0.002138,-88.904367,0.007221,
1150,1450,0.212634,-4.029554,0.999998,0.000191,-0.002946,0.006626,0.001465,0.006845,-0.003165,81.487725,0.006851,
1620,950,-3.003432,-10.899797,0.999997,0.000222,-0.004384,0.010684,-0.001070,0.010760,-0.004460,-85.956734,0.010812,
880,280,0.802012,-18.111169,0.999997,0.000208,-0.003552,0.008831,0.000355,0.008841,-0.003562,88.359263,0.008896,
630,830,3.644253,-11.900979,0.999996,0.000227,-0.004719,0.009489,0.000631,0.009517,-0.004746,87.461492,0.009517,
1390,1140,-1.551527,-7.383216,0.999989,0.000391,-0.004403,0.012403,-0.006437,0.014586,-0.006585,-71.272675,0.014609,
1400,1160,-1.414415,-7.365691,0.999986,0.000458,-0.006130,0.012255,-0.004207,0.013172,-0.007047,-77.704311,0.013183,
860,490,1.358314,-16.077527,0.999995,0.000274,-0.004957,0.009943,-0.000580,0.009966,-0.004980,-87.772934,0.009966,
830,1540,1.566870,-4.434884,0.999995,0.000244,-0.005229,0.010230,0.000505,0.010247,-0.005246,88.132653,0.010248,
1780,1040,-3.786291,-9.959391,0.999997,0.000215,-0.004347,0.009462,0.000241,0.009466,-0.004351,89.000205,0.009476,
1840,1650,-2.312427,-3.990331,0.999997,0.000210,-0.004997,0.010017,-0.000128,0.010018,-0.004998,-89.509730,0.010018,
1250,150,-0.017767,-19.352795,0.999998,0.000170,-0.000887,0.006472,-0.000018,0.006472,-0.000887,-89.861784,0.007017,
1270,1880,-0.040224,-0.973114,0.999998,0.000179,-0.000985,0.006520,0.000056,0.006520,-0.000986,89.574259,0.007029,
1020,1110,2.108207,-8.665803,0.999993,0.000302,-0.006072,0.015487,0.001153,0.015548,-0.006134,86.946349,0.015663,
560,920,4.186509,-10.952527,0.999978,0.000000,-0.003976,0.008526,0.000094,0.008527,-0.003977,89.569393,0.008533,
1350,1290,-0.378233,-5.336749,0.999995,0.000294,-0.005151,0.007669,-0.004233,0.008941,-0.006422,-73.281767,0.009220,
1750,150,-0.834115,-19.020450,0.999997,0.000243,-0.003874,0.009547,-0.001775,0.009778,-0.004105,-82.593278,0.009820,
1340,2000,-0.022034,-0.216164,0.999999,0.000152,-0.000290,0.006130,0.000264,0.006141,-0.000301,87.645313,0.006924,
930,920,2.464289,-11.370899,0.999994,0.000321,-0.005474,0.012475,0.001433,0.012588,-0.005588,85.464214,0.012615,
640,1130,3.855179,-9.138921,0.999996,0.000295,-0.004490,0.009272,-0.000620,0.009300,-0.004517,-87.426965,0.009302,
1640,1010,-3.191673,-10.261863,0.999997,0.000222,-0.003965,0.010273,-0.000333,0.010281,-0.003973,-88.662163,0.010369,
670,1580,2.282559,-4.545795,0.999996,0.000267,-0.005095,0.010193,0.000165,0.010195,-0.005096,89.382837,0.010195,
970,300,0.565105,-18.101659,0.999997,0.000208,-0.002989,0.008150,0.000031,0.008150,-0.002989,89.838071,0.008245,
1530,1670,-0.841594,-2.870018,0.999998,0.000169,-0.003595,0.008826,-0.000308,0.008834,-0.003602,-88.580270,0.008884,
1490,40,-0.037698,-20.027609,0.999999,0.000138,-0.000337,0.006332,-0.000815,0.006430,-0.000435,-83.131749,0.007187,
1050,690,0.645506,-14.953101,0.999993,0.000287,-0.005657,0.009464,-0.002882,0.009995,-0.006187,-79.568099,0.010089,
670,730,3.098382,-12.984817,0.999996,0.000233,-0.005167,0.010244,0.000623,0.010269,-0.005193,87.687106,0.010269,
1700,1340,-2.534852,-6.792105,0.999994,0.000322,-0.005822,0.010890,0.000573,0.010909,-0.005841,88.037044,0.010919,
770,1300,2.643761,-7.213627,0.999996,0.000238,-0.005780,0.010935,-0.000816,0.010974,-0.005820,-87.212716,0.010981,
710,1130,3.538862,-9.082150,0.999997,0.000204,-0.004594,0.009721,-0.000777,0.009763,-0.004636,-86.902950,0.009767,
920,800,1.873856,-12.860162,0.999995,0.000253,-0.007101,0.012468,0.000250,0.012472,-0.007104,89.268193,0.012512,
1870,250,-1.904300,-17.608924,0.999997,0.000223,-0.004868,0.009820,-0.000151,0.009821,-0.004870,-89.411284,0.009821,
1450,730,-0.936667,-14.276840,0.999996,0.000278,-0.006836,0.011122,0.002431,0.011445,-0.007159,82.425725,0.011565,
960,1420,1.094384,-5.173370,0.999996,0.000238,-0.005867,0.010336,0.001543,0.010482,-0.006013,84.609721,0.010520,
1540,1770,-0.677104,-2.014504,0.999997,0.000202,-0.002885,0.008553,0.000366,0.008565,-0.002897,88.167820,0.008713,
940,1490,1.088543,-4.543289,0.999997,0.000200,-0.005244,0.010011,0.001199,0.010104,-0.005338,85.533410,0.010110,
970,1420,1.035061,-5.122701,0.999996,0.000228,-0.005845,0.010231,0.001689,0.010407,-0.006020,84.065000,0.010449,
1220,2020,0.001007,-0.091263,0.999998,0.000000,-0.000266,0.005967,-0.000004,0.005967,-0.000266,-89.959531,0.006742,
1220,570,0.028832,-16.475358,0.999998,0.000169,-0.002478,0.006314,-0.000307,0.006325,-0.002489,-88.000309,0.006373,
680,1230,3.388521,-8.125474,0.999994,0.000279,-0.004990,0.009987,-0.000912,0.010042,-0.005046,-86.527015,0.010042,
840,680,1.947087,-13.987773,0.999997,0.000228,-0.006190,0.011161,-0.000068,0.011162,-0.006191,-89.776523,0.011184,
1300,1800,-0.106499,-1.521522,0.999998,0.000153,-0.001493,0.006939,0.000087,0.006940,-0.001494,89.408489,0.007305,
730,1360,2.650047,-6.661490,0.999994,0.000277,-0.005611,0.010668,-0.000500,0.010683,-0.005626,-88.243709,0.010688,
1130,100,0.048314,-19.664485,0.999998,0.000188,-0.000611,0.006356,0.000237,0.006364,-0.000620,88.051490,0.007018,
1650,1730,-1.171347,-2.604765,0.999997,0.000206,-0.004138,0.009559,0.000150,0.009561,-0.004140,89.373397,0.009590,
880,260,0.742266,-18.290598,0.999997,0.000194,-0.003372,0.008679,0.000470,0.008697,-0.003390,87.770618,0.008767,
1570,1310,-1.830880,-6.735289,0.999995,0.000270,-0.006820,0.011940,-0.000082,0.011940,-0.006821,-89.751001,0.011981,
1070,580,0.490404,-16.025973,0.999994,0.000307,-0.004055,0.008179,-0.001871,0.008459,-0.004335,-81.495107,0.008460,
1710,140,-0.658603,-19.174133,0.999997,0.000212,-0.002360,0.008898,-0.002139,0.009290,-0.002753,-79.598303,0.009544,
1390,1130,-1.637619,-7.509537,0.999983,0.000523,-0.004415,0.013758,-0.007166,0.016244,-0.006901,-70.869345,0.016305,
560,940,4.226335,-10.779091,0.999967,0.000000,-0.003717,0.008192,0.000008,0.008192,-0.003717,89.961503,0.008203,
1250,130,-0.012818,-19.481334,0.999998,0.000165,-0.000743,0.006372,-0.000026,0.006372,-0.000743,-89.789218,0.006968,
1780,1020,-3.787006,-10.151255,0.999997,0.000194,-0.004330,0.009471,-0.000142,0.009472,-0.004332,-89.411019,0.009483,
1840,1630,-2.374326,-4.189870,0.999995,0.000284,-0.004985,0.010043,-0.000129,0.010044,-0.004986,-89.508342,0.010044,
600,1610,2.548542,-4.467127,0.999997,0.000201,-0.004980,0.010042,0.000110,0.010043,-0.004981,89.581111,0.010043,
1400,1180,-1.249266,-7.099634,0.999988,0.000404,-0.006952,0.012092,-0.003422,0.012688,-0.007548,-80.116847,0.012764,
960,910,2.230229,-11.605476,0.999996,0.000259,-0.006092,0.013299,0.001078,0.013358,-0.006151,86.827159,0.013372,
630,810,3.583380,-12.092717,0.999996,0.000232,-0.004807,0.009586,0.000615,0.009612,-0.004833,87.559129,0.009612,
1060,1570,0.491031,-3.395419,0.999995,0.000245,-0.003477,0.008127,0.001095,0.008229,-0.003579,84.654519,0.008252,
960,1170,2.067899,-8.217991,0.999995,0.000290,-0.006701,0.013356,-0.000856,0.013393,-0.006738,-87.560690,0.013393,
1530,1650,-0.873227,-3.049180,0.999997,0.000186,-0.003797,0.008959,-0.000416,0.008972,-0.003811,-88.135130,0.009006,
1830,1290,-3.410379,-7.614987,0.999995,0.000240,-0.004940,0.009888,0.000582,0.009911,-0.004963,87.753988,0.009911,
1350,1270,-0.412008,-5.494248,0.999994,0.000307,-0.005546,0.007830,-0.004488,0.009196,-0.006912,-73.067369,0.009577,
690,1780,1.547261,-2.452573,0.999994,0.000280,-0.004766,0.010064,-0.000416,0.010075,-0.004777,-88.393907,0.010080,
970,1040,2.656171,-9.919778,0.999996,0.000274,-0.004048,0.013127,-0.000205,0.013130,-0.004050,-89.316939,0.013447,
620,1130,3.944624,-9.161768,0.999998,0.000181,-0.004406,0.009104,-0.000553,0.009126,-0.004429,-87.659447,0.009128,
1750,590,-2.396353,-14.563439,0.999994,0.000275,-0.005388,0.010403,-0.000020,0.010403,-0.005389,-89.926764,0.010406,
1780,690,-2.887068,-13.428345,0.999996,0.000254,-0.005288,0.010358,-0.000467,0.010372,-0.005302,-88.292731,0.010373,
1200,760,0.063081,-15.511026,0.999997,0.000213,-0.002320,0.003175,-0.001731,0.003674,-0.002820,-73.897006,0.003845,
1010,690,0.879954,-14.690357,0.999995,0.000255,-0.006238,0.010480,-0.002347,0.010803,-0.006561,-82.158817,0.010886,
950,300,0.626862,-18.062145,0.999997,0.000210,-0.003109,0.008312,0.000083,0.008312,-0.003109,89.583428,0.008400,
1700,1320,-2.608329,-7.010978,0.999994,0.000306,-0.005799,0.010866,0.000696,0.010895,-0.005828,87.613095,0.010904,
1180,1490,0.130063,-3.691454,0.999997,0.000198,-0.002660,0.006572,0.000777,0.006637,-0.002725,85.222801,0.006672,
1050,670,0.625578,-15.143462,0.999995,0.000267,-0.005363,0.009221,-0.002713,0.009710,-0.005851,-79.795742,0.009778,
1750,560,-2.306471,-14.875351,0.999995,0.000284,-0.005314,0.010375,0.000068,0.010375,-0.005314,89.753202,0.010376,
1650,490,-1.592223,-15.925143,0.999995,0.000264,-0.005134,0.010143,0.000403,0.010154,-0.005145,88.491048,0.010154,
750,1850,0.987694,-1.599383,0.999996,0.000243,-0.003427,0.009594,-0.001464,0.009756,-0.003589,-83.663039,0.009869,
1450,710,-0.896913,-14.494560,0.999995,0.000282,-0.006492,0.010754,0.002410,0.011085,-0.006823,82.193869,0.011183,
1870,240,-1.859182,-17.705705,0.999997,0.000207,-0.004877,0.009801,-0.000182,0.009803,-0.004879,-89.290606,0.009803,
1520,1770,-0.620089,-1.983345,0.999997,0.000205,-0.002990,0.008398,0.000225,0.008402,-0.002994,88.868663,0.008517,
1160,170,0.068369,-19.215033,0.999998,0.000198,-0.000874,0.006601,0.000176,0.006605,-0.000878,88.655801,0.007174,
750,780,2.854171,-12.629555,0.999996,0.000289,-0.005564,0.010821,0.000973,0.010879,-0.005621,86.615054,0.010881,
1770,1840,-1.268688,-1.839632,0.999995,0.000266,-0.004549,0.010006,0.000984,0.010072,-0.004615,86.150696,0.010084,
920,260,0.630346,-18.351296,0.999997,0.000221,-0.002597,0.008345,0.000491,0.008367,-0.002619,87.437328,0.008559,
1650,1710,-1.226074,-2.796703,0.999996,0.000240,-0.004380,0.009608,0.000042,0.009608,-0.004381,89.826647,0.009620,
1600,1330,-1.957271,-6.609905,0.999995,0.000259,-0.006535,0.011646,0.000058,0.011647,-0.006536,89.816415,0.011676,
590,1300,3.585494,-7.632306,0.999996,0.000269,-0.004855,0.009721,-0.000254,0.009725,-0.004860,-89.002393,0.009725,
560,1660,2.747405,-4.106410,0.999824,0.000000,-0.011227,0.010826,-0.000490,0.010837,-0.011238,-88.726653,0.012751,
1150,360,0.173508,-17.884720,0.999997,0.000199,-0.002256,0.007246,-0.000236,0.007252,-0.002261,-88.575787,0.007421,
1580,950,-2.829827,-10.932164,0.999996,0.000229,-0.004451,0.011226,-0.001211,0.011319,-0.004544,-85.607576,0.011392,
710,1110,3.583413,-9.277950,0.999996,0.000227,-0.004557,0.009818,-0.000790,0.009861,-0.004601,-86.862239,0.009868,
1710,120,-0.550527,-19.349782,0.999996,0.000221,-0.001968,0.008814,-0.002433,0.009337,-0.002492,-77.856696,0.009670,
590,1620,2.568253,-4.399864,0.999995,0.000246,-0.005183,0.009941,0.000213,0.009944,-0.005186,89.192755,0.009947,
730,900,3.386269,-11.339744,0.999996,0.000245,-0.004781,0.010135,0.001038,0.010206,-0.004852,86.039182,0.010210,
1250,110,-0.009970,-19.609824,0.999998,0.000162,-0.000612,0.006279,-0.000019,0.006280,-0.000612,-89.838093,0.006925,
1220,1200,0.130014,-4.831639,0.999983,0.000000,-0.010396,0.003106,-0.000375,0.003116,-0.010406,-88.412026,0.010681,
1200,590,0.076668,-16.330369,0.999998,0.000146,-0.002496,0.006182,-0.000546,0.006216,-0.002530,-86.413581,0.006252,
1400,1200,-1.093315,-6.844086,0.999993,0.000319,-0.007345,0.011795,-0.003128,0.012293,-0.007844,-80.949587,0.012449,
1350,1250,-0.468466,-5.655544,0.999992,0.000342,-0.005700,0.007947,-0.004559,0.009330,-0.007083,-73.126731,0.009739,
1090,790,0.564262,-14.357275,0.999993,0.000313,-0.006430,0.009377,-0.004257,0.010451,-0.007503,-75.847086,0.010777,
1150,1430,0.211154,-4.158027,0.999998,0.000185,-0.002986,0.006505,0.001674,0.006792,-0.003273,80.282567,0.006793,
1780,1000,-3.770959,-10.339851,0.999997,0.000202,-0.004339,0.009459,-0.000298,0.009465,-0.004346,-88.762306,0.009476,
1820,1650,-2.213352,-3.921395,0.999997,0.000201,-0.004973,0.010080,-0.000138,0.010081,-0.004975,-89.475979,0.010082,
1730,1080,-3.534769,-9.567150,0.999996,0.000242,-0.004339,0.009772,0.000449,0.009786,-0.004354,88.177980,0.009806,
1050,650,0.611034,-15.328703,0.999994,0.000281,-0.005048,0.009029,-0.002513,0.009465,-0.005483,-80.175480,0.009504,
980,230,0.406768,-18.678855,0.999997,0.000203,-0.002152,0.007757,0.000413,0.007774,-0.002169,87.615190,0.008024,
1070,620,0.505386,-15.691464,0.999996,0.000233,-0.004454,0.008291,-0.002342,0.008708,-0.004871,-79.908824,0.008728,
1750,570,-2.334622,-14.770425,0.999994,0.000279,-0.005341,0.010364,0.000037,0.010365,-0.005341,89.865671,0.010366,
1450,1140,-1.923093,-8.291174,0.999992,0.000314,-0.006626,0.014499,-0.000509,0.014511,-0.006638,-88.619514,0.014528,
1700,1300,-2.685471,-7.230200,0.999995,0.000256,-0.005748,0.010858,0.000828,0.010900,-0.005789,87.153799,0.010907,
930,360,0.809041,-17.499575,0.999997,0.000214,-0.003354,0.008785,-0.000095,0.008786,-0.003355,-89.552920,0.008867,
950,1420,1.153286,-5.216603,0.999996,0.000237,-0.005887,0.010443,0.001387,0.010560,-0.006004,85.179515,0.010593,
680,1770,1.634754,-2.585666,0.999994,0.000273,-0.004770,0.010113,-0.000358,0.010122,-0.004779,-88.622903,0.010127,
750,1830,1.078682,-1.793214,0.999997,0.000210,-0.003625,0.009613,-0.001201,0.009721,-0.003733,-84.856802,0.009808,
1810,1200,-3.615271,-8.459930,0.999996,0.000223,-0.004759,0.009693,0.000824,0.009740,-0.004806,86.748401,0.009740,
1790,380,-1.989825,-16.591359,0.999996,0.000234,-0.004917,0.010104,0.000051,0.010104,-0.004917,89.806793,0.010106,
950,1040,2.732575,-9.928478,0.999996,0.000259,-0.003690,0.012176,-0.000270,0.012181,-0.003695,-89.026001,0.012491,
1450,1130,-2.003714,-8.446752,0.999993,0.000303,-0.006408,0.014602,-0.000535,0.014616,-0.006421,-88.542125,0.014652,
1530,1630,-0.903825,-3.227179,0.999998,0.000200,-0.004041,0.009103,-0.000576,0.009128,-0.004066,-87.494296,0.009146,
630,790,3.512553,-12.287716,0.999996,0.000241,-0.004882,0.009839,0.000632,0.009866,-0.004910,87.547049,0.009866,
1570,1290,-1.910922,-6.976012,0.999994,0.000260,-0.006850,0.012045,0.000136,0.012046,-0.006851,89.587973,0.012084,
1330,1800,-0.153455,-1.537468,0.999998,0.000174,-0.001778,0.007061,-0.000045,0.007061,-0.001778,-89.705226,0.007345,
1300,1780,-0.113340,-1.660577,0.999998,0.000170,-0.001594,0.007025,0.000058,0.007025,-0.001595,89.612361,0.007366,
1580,1330,-1.823866,-6.535380,0.999997,0.000199,-0.006683,0.011757,-0.000154,0.011758,-0.006684,-89.521712,0.011795,
1660,180,-0.697214,-18.883243,0.999996,0.000221,-0.003065,0.008787,-0.001357,0.008941,-0.003218,-83.553177,0.009057,
920,240,0.576148,-18.522695,0.999997,0.000213,-0.002413,0.008332,0.000660,0.008372,-0.002454,86.498345,0.008608,
560,1650,2.781749,-4.237528,0.999902,0.000000,-0.011017,0.010336,0.000734,0.010362,-0.011042,88.032978,0.012376,
1160,1490,0.184941,-3.733575,0.999997,0.000216,-0.002886,0.006771,0.001185,0.006915,-0.003030,83.103130,0.006932,
880,240,0.689118,-18.462679,0.999997,0.000213,-0.003180,0.008662,0.000625,0.008695,-0.003213,86.985578,0.008793,
840,660,1.886454,-14.209952,0.999997,0.000194,-0.006114,0.011102,-0.000206,0.011105,-0.006116,-89.315141,0.011124,
1770,1820,-1.361379,-2.039576,0.999995,0.000274,-0.004617,0.010017,0.000751,0.010055,-0.004656,87.068895,0.010064,
830,1520,1.613758,-4.643049,0.999993,0.000301,-0.005307,0.010340,0.000500,0.010356,-0.005323,88.172990,0.010358,
730,780,2.964149,-12.589691,0.999997,0.000266,-0.005388,0.010607,0.000941,0.010662,-0.005444,86.645049,0.010663,
1390,1120,-1.712571,-7.651343,0.999981,0.000520,-0.004711,0.015286,-0.007784,0.017959,-0.007383,-71.050228,0.018053,
1250,90,-0.008626,-19.734351,0.999998,0.000163,-0.000491,0.006116,-0.000005,0.006116,-0.000491,-89.953018,0.006796,
1760,750,-2.999074,-12.851621,0.999996,0.000256,-0.005334,0.010427,-0.000746,0.010462,-0.005369,-87.295099,0.010463,
800,1870,0.729367,-1.326109,0.999996,0.000243,-0.003204,0.008886,-0.001294,0.009023,-0.003341,-83.958553,0.009124,
1490,1970,-0.121218,-0.428734,0.999998,0.000198,-0.000742,0.006755,0.000870,0.006855,-0.000842,83.467398,0.007477,
680,550,2.449440,-14.875299,0.999997,0.000206,-0.005225,0.010258,-0.000044,0.010258,-0.005225,-89.835645,0.010258,
790,950,3.234072,-10.872238,0.999996,0.000243,-0.004410,0.010291,0.000955,0.010353,-0.004472,86.297244,0.010385,
650,400,2.164465,-16.312538,0.999996,0.000239,-0.004968,0.010091,-0.000117,0.010092,-0.004969,-89.555436,0.010092,
1010,670,0.850090,-14.898402,0.999995,0.000258,-0.005936,0.010153,-0.002265,0.010465,-0.006249,-82.139022,0.010531,
580,1620,2.617497,-4.430924,0.999994,0.000272,-0.005967,0.009759,0.000646,0.009786,-0.005994,87.651488,0.009868,
1860,450,-2.548773,-15.652693,0.999995,0.000249,-0.004988,0.010078,0.000119,0.010079,-0.004989,89.548224,0.010079,
750,1960,0.416908,-0.595023,0.999996,0.000234,-0.001467,0.008243,-0.002409,0.008808,-0.002032,-76.803167,0.009224,
1780,980,-3.757091,-10.533021,0.999997,0.000208,-0.004358,0.009386,-0.000265,0.009391,-0.004363,-88.897409,0.009399,
1410,300,-0.350052,-18.221601,0.999997,0.000210,-0.002488,0.007624,0.000132,0.007625,-0.002490,89.251950,0.007777,
1200,570,0.078265,-16.455728,0.999997,0.000187,-0.002520,0.006357,-0.000487,0.006384,-0.002547,-86.868839,0.006427,
710,1090,3.625084,-9.477567,0.999996,0.000245,-0.004463,0.009711,-0.000509,0.009730,-0.004481,-87.945402,0.009740,
1830,1270,-3.479438,-7.814784,0.999996,0.000235,-0.004891,0.009897,0.000635,0.009925,-0.004918,87.545576,0.009925,
1350,1230,-0.556772,-5.811352,0.999993,0.000311,-0.005893,0.007799,-0.004383,0.009082,-0.007175,-73.685123,0.009578,
590,1680,2.381676,-3.799808,0.999996,0.000251,-0.005126,0.009876,0.000011,0.009876,-0.005126,89.957893,0.009878,
1750,550,-2.276190,-14.979278,0.999995,0.000272,-0.005282,0.010343,0.000104,0.010344,-0.005283,89.617867,0.010345,
1860,690,-3.296078,-13.209144,0.999997,0.000221,-0.004997,0.010031,-0.000254,0.010035,-0.005001,-89.031195,0.010035,
1560,290,-0.746812,-18.070841,0.999998,0.000162,-0.003120,0.008731,-0.000359,0.008741,-0.003131,-88.265710,0.008858,
1050,630,0.599028,-15.503985,0.999994,0.000277,-0.004750,0.008784,-0.002289,0.009160,-0.005127,-80.655485,0.009182,
1560,950,-2.740984,-10.956408,0.999996,0.000256,-0.004459,0.011568,-0.001297,0.011672,-0.004564,-85.404810,0.011764,
1700,1280,-2.761712,-7.446504,0.999996,0.000232,-0.005695,0.010941,0.000931,0.010993,-0.005747,86.806932,0.010997,
1790,1200,-3.518967,-8.431249,0.999994,0.000271,-0.004850,0.009833,0.000891,0.009887,-0.004904,86.538614,0.009887,
1300,1760,-0.123957,-1.802341,0.999998,0.000153,-0.001754,0.007073,0.000006,0.007074,-0.001754,89.958332,0.007367,
890,1360,1.676724,-6.155307,0.999995,0.000278,-0.006527,0.011451,0.000466,0.011463,-0.006539,88.515890,0.011501,
1400,1640,-0.433476,-2.823477,0.999997,0.000218,-0.003181,0.007925,-0.000758,0.007976,-0.003233,-86.114956,0.008024,
1130,360,0.222135,-17.861472,0.999996,0.000235,-0.002465,0.007372,-0.000371,0.007386,-0.002479,-87.845366,0.007518,
1710,1140,-3.319665,-8.953909,0.999994,0.000277,-0.004716,0.010115,0.000988,0.010180,-0.004782,86.205835,0.010186,
880,220,0.628099,-18.637113,0.999997,0.000217,-0.002972,0.008411,0.000750,0.008460,-0.003021,86.244922,0.008575,
670,710,3.026561,-13.190030,0.999996,0.000217,-0.005203,0.010239,0.000548,0.010259,-0.005222,87.971249,0.010259,
560,1640,2.813170,-4.339486,0.999919,0.000000,-0.010199,0.009406,0.002456,0.009709,-0.010502,82.965912,0.011696,
960,1400,1.127665,-5.380724,0.999996,0.000252,-0.006112,0.010677,0.001565,0.010822,-0.006257,84.719051,0.010866,
1200,740,0.061091,-15.579160,0.999997,0.000205,-0.002241,0.003663,-0.001564,0.004052,-0.002630,-76.039913,0.004111,
1720,630,-2.356572,-14.229367,0.999994,0.000293,-0.005597,0.010630,-0.000147,0.010631,-0.005598,-89.480882,0.010636,
1070,600,0.496269,-15.861085,0.999996,0.000246,-0.004266,0.008259,-0.002129,0.008611,-0.004618,-80.613664,0.008619,
1790,360,-1.923830,-16.794670,0.999997,0.000224,-0.004884,0.010076,-0.000021,0.010076,-0.004884,-89.919032,0.010077,
1890,40,-0.363814,-19.834390,0.999992,0.000347,-0.000653,0.014609,-0.007692,0.017813,-0.003857,-67.385679,0.018743,
1430,1520,-0.620333,-3.899320,0.999996,0.000210,-0.004191,0.008630,-0.001524,0.008809,-0.004370,-83.311785,0.008809,
1600,1010,-3.039482,-10.268282,0.999997,0.000226,-0.003744,0.010614,-0.000337,0.010622,-0.003752,-88.655537,0.010773,
1090,1490,0.412727,-3.940801,0.999996,0.000216,-0.003646,0.007733,0.001653,0.007968,-0.003881,81.899217,0.007969,
1660,200,-0.781411,-18.702267,0.999996,0.000245,-0.003274,0.009012,-0.001184,0.009125,-0.003387,-84.544981,0.009226,
820,910,2.979701,-11.315095,0.999997,0.000217,-0.004914,0.010891,0.001354,0.011006,-0.005030,85.138953,0.011019,
1250,70,-0.008123,-19.855243,0.999998,0.000162,-0.000374,0.006088,-0.000050,0.006089,-0.000374,-89.552612,0.006825,
1290,1940,-0.034935,-0.586064,0.999998,0.000156,-0.000513,0.006367,0.000189,0.006372,-0.000518,88.427352,0.007077,
790,930,3.187289,-11.076278,0.999996,0.000238,-0.004594,0.010330,0.001015,0.010399,-0.004663,86.126039,0.010417,
1710,320,-1.419189,-17.442793,0.999996,0.000237,-0.004386,0.009848,-0.000269,0.009853,-0.004392,-88.916258,0.009873,
1560,1650,-0.993633,-3.130306,0.999997,0.000198,-0.004210,0.009290,-0.000436,0.009304,-0.004224,-88.151592,0.009318,
1050,1800,0.303450,-1.601502,0.999997,0.000220,-0.002162,0.007406,-0.000069,0.007406,-0.002162,-89.584303,0.007617,
1650,470,-1.545445,-16.127714,0.999995,0.000274,-0.004997,0.010029,0.000397,0.010039,-0.005008,88.489017,0.010039,
1490,1950,-0.163140,-0.565424,0.999998,0.000207,-0.000994,0.006948,0.000832,0.007035,-0.001080,84.086064,0.007576,
630,400,2.264078,-16.244385,0.999995,0.000254,-0.004958,0.010065,-0.000134,0.010066,-0.004960,-89.487977,0.010066,
1880,1710,-2.316311,-3.527677,0.999997,0.000169,-0.004967,0.009799,-0.000068,0.009799,-0.004967,-89.738070,0.009800,
1010,650,0.824880,-15.099436,0.999995,0.000273,-0.005617,0.009846,-0.002161,0.010142,-0.005913,-82.190604,0.010189,
1270,1240,-0.152697,-4.839791,0.999996,0.000242,-0.003954,0.002676,-0.001797,0.003131,-0.004410,-75.771677,0.004538,
1140,1490,0.244213,-3.781989,0.999998,0.000179,-0.002979,0.006997,0.001242,0.007150,-0.003131,83.011051,0.007168,
920,220,0.529734,-18.684349,0.999997,0.000215,-0.002200,0.008084,0.000740,0.008137,-0.002253,85.905733,0.008402,
1450,1150,-1.843600,-8.149032,0.999992,0.000322,-0.006874,0.014342,-0.000531,0.014356,-0.006887,-88.567335,0.014360,
1350,1210,-0.683440,-5.968004,0.999990,0.000402,-0.005210,0.007629,-0.004288,0.008929,-0.006510,-73.129690,0.009236,
750,1810,1.157507,-1.985980,0.999997,0.000217,-0.003845,0.009770,-0.001003,0.009844,-0.003918,-85.807123,0.009911,
1560,690,-1.578933,-14.115639,0.999995,0.000275,-0.006546,0.011386,0.000660,0.011411,-0.006571,87.893904,0.011454,
590,1690,2.348146,-3.701408,0.999997,0.000224,-0.005038,0.009879,-0.000001,0.009879,-0.005038,-89.997713,0.009879,
1830,1250,-3.553142,-8.014429,0.999996,0.000235,-0.004823,0.009679,0.000648,0.009708,-0.004852,87.445266,0.009708,
1750,530,-2.220086,-15.185259,0.999995,0.000265,-0.005251,0.010291,0.000132,0.010292,-0.005253,89.514638,0.010293,
1800,1570,-2.347697,-4.671774,0.999996,0.000239,-0.005103,0.010202,-0.000139,0.010203,-0.005105,-89.479286,0.010203,
1780,1400,-2.765801,-6.365317,0.999996,0.000266,-0.005291,0.010393,0.000318,0.010399,-0.005297,88.837819,0.010400,
1750,1500,-2.292287,-5.233226,0.999996,0.000218,-0.005298,0.010373,-0.000091,0.010373,-0.005299,-89.666490,0.010374,
1550,500,-1.118516,-16.157465,0.999997,0.000209,-0.004735,0.009635,0.000833,0.009684,-0.004783,86.691657,0.009684,
630,770,3.441186,-12.487909,0.999996,0.000233,-0.004942,0.009892,0.000572,0.009913,-0.004964,87.796622,0.009914,
1840,690,-3.196829,-13.266763,0.999996,0.000235,-0.005053,0.010072,-0.000349,0.010080,-0.005061,-88.680633,0.010080,
1530,1200,-2.070119,-7.946019,0.999996,0.000229,-0.006865,0.012868,0.000839,0.012903,-0.006901,87.569629,0.012914,
1530,1610,-0.938379,-3.413897,0.999998,0.000197,-0.004297,0.009247,-0.000716,0.009284,-0.004334,-86.983720,0.009291,
1050,610,0.591783,-15.677750,0.999995,0.000248,-0.004572,0.008700,-0.002112,0.009028,-0.004900,-81.173208,0.009039,
1330,2000,-0.020236,-0.215392,0.999999,0.000151,-0.000297,0.006116,0.000247,0.006126,-0.000307,87.796756,0.006903,
1840,1330,-3.317541,-7.246070,0.999995,0.000246,-0.004983,0.009949,0.000438,0.009962,-0.004996,88.320266,0.009962,
1290,360,-0.124273,-17.896153,0.999997,0.000191,-0.002085,0.007107,0.000101,0.007108,-0.002086,89.369363,0.007308,
1700,630,-2.244464,-14.289698,0.999995,0.000259,-0.005663,0.010720,-0.000071,0.010721,-0.005663,-89.753336,0.010726,
1110,100,0.060903,-19.661879,0.999998,0.000159,-0.000566,0.006385,0.000325,0.006400,-0.000581,87.331790,0.007079,
880,200,0.570053,-18.802160,0.999996,0.000236,-0.002729,0.008336,0.000911,0.008410,-0.002803,85.326813,0.008565,
1300,1740,-0.129375,-1.944307,0.999998,0.000170,-0.001875,0.007118,-0.000030,0.007119,-0.001875,-89.808648,0.007379,
560,1630,2.744421,-4.408668,0.999868,0.000000,-0.008629,0.008741,0.002794,0.009179,-0.009067,81.083234,0.010535,
1580,1010,-2.963733,-10.271813,0.999996,0.000247,-0.003704,0.010847,-0.000387,0.010857,-0.003714,-88.475920,0.011036,
1240,550,-0.021383,-16.604896,0.999998,0.000156,-0.002520,0.006473,0.000219,0.006478,-0.002526,88.603601,0.006530,
1310,1940,-0.044252,-0.587880,0.999998,0.000161,-0.000560,0.006376,0.000212,0.006382,-0.000566,88.250516,0.007065,
1380,1160,-1.318486,-6.942908,0.999989,0.000414,-0.004464,0.009970,-0.005409,0.011772,-0.006266,-71.574862,0.011780,
1490,1520,-0.885725,-4.122784,0.999997,0.000215,-0.004752,0.009388,-0.001311,0.009509,-0.004873,-84.746061,0.009510,
1240,1980,-0.005453,-0.335123,0.999998,0.000158,-0.000383,0.006122,0.000019,0.006122,-0.000383,89.832530,0.006859,
800,910,3.077875,-11.295000,0.999997,0.000237,-0.004827,0.010695,0.001299,0.010803,-0.004935,85.248141,0.010817,
1490,1930,-0.201530,-0.707938,0.999998,0.000198,-0.001217,0.007090,0.000799,0.007167,-0.001293,84.553223,0.007639,
1870,1710,-2.267001,-3.492351,0.999997,0.000194,-0.004925,0.009854,-0.000103,0.009855,-0.004926,-89.601414,0.009855,
670,690,2.955909,-13.393261,0.999997,0.000212,-0.005251,0.010248,0.000480,0.010263,-0.005265,88.229020,0.010264,
1200,720,0.059995,-15.654354,0.999997,0.000209,-0.002226,0.004133,-0.001406,0.004430,-0.002523,-78.075139,0.004444,
710,1070,3.643804,-9.667920,0.999996,0.000223,-0.004345,0.009587,-0.000283,0.009593,-0.004351,-88.835246,0.009606,
1350,700,-0.334789,-15.308135,0.999995,0.000267,-0.004253,0.007311,0.003214,0.008144,-0.005086,75.468149,0.008228,
1750,510,-2.159341,-15.391719,0.999995,0.000251,-0.005191,0.010287,0.000167,0.010288,-0.005193,89.382909,0.010288,
930,500,1.040413,-16.214096,0.999997,0.000243,-0.004616,0.009543,-0.000890,0.009599,-0.004672,-86.415583,0.009600,
630,750,3.371651,-12.685116,0.999995,0.000242,-0.004963,0.009851,0.000522,0.009869,-0.004981,87.982672,0.009869,
1650,450,-1.499235,-16.328626,0.999996,0.000254,-0.004849,0.009954,0.000324,0.009961,-0.004856,88.747888,0.009962,
1530,1590,-0.970335,-3.602672,0.999998,0.000204,-0.004483,0.009398,-0.000814,0.009446,-0.004531,-86.656051,0.009448,
1010,630,0.805651,-15.289658,0.999996,0.000248,-0.005357,0.009588,-0.002067,0.009868,-0.005638,-82.268024,0.009902,
1780,1420,-2.699433,-6.157301,0.999995,0.000266,-0.005318,0.010328,0.000242,0.010332,-0.005322,89.112559,0.010334,
640,470,2.419542,-15.568620,0.999996,0.000252,-0.005059,0.010156,-0.000140,0.010157,-0.005060,-89.472730,0.010157,
1090,1510,0.407230,-3.786044,0.999996,0.000220,-0.003580,0.007804,0.001569,0.008016,-0.003792,82.296571,0.008020,
1660,220,-0.857601,-18.522950,0.999997,0.000213,-0.003534,0.009116,-0.000975,0.009190,-0.003609,-85.618448,0.009261,
610,1880,1.429297,-1.722623,0.999997,0.000213,-0.004875,0.010328,-0.000724,0.010363,-0.004909,-87.278180,0.010367,
1010,2000,0.053521,-0.223561,0.999998,0.000136,-0.000253,0.006400,-0.000701,0.006473,-0.000326,-84.051076,0.007293,
1400,1620,-0.449189,-2.984511,0.999997,0.000216,-0.003298,0.007990,-0.000853,0.008054,-0.003362,-85.702980,0.008091,
1560,270,-0.697175,-18.244503,0.999996,0.000218,-0.002924,0.008549,-0.000468,0.008568,-0.002943,-87.667821,0.008707,
790,910,3.126392,-11.286907,0.999996,0.000256,-0.004807,0.010603,0.001263,0.010706,-0.004909,85.344556,0.010718,
1460,1330,-0.993084,-5.896866,0.999995,0.000269,-0.006820,0.011135,-0.002237,0.011409,-0.007095,-83.002955,0.011522,
1350,100,-0.059335,-19.661766,0.999999,0.000159,-0.000551,0.006373,-0.000300,0.006386,-0.000564,-87.524500,0.007071,
1310,230,-0.106417,-18.811493,0.999997,0.000190,-0.001406,0.006882,-0.000087,0.006883,-0.001406,-89.395804,0.007273,
1880,40,-0.362776,-19.834044,0.999991,0.000358,-0.000679,0.013366,-0.006782,0.016107,-0.003419,-67.998559,0.016972,
880,420,1.122587,-16.823252,0.999996,0.000231,-0.004348,0.009433,-0.000394,0.009445,-0.004359,-88.364517,0.009454,
1740,950,-3.534452,-10.838998,0.999996,0.000233,-0.004486,0.009893,-0.000799,0.009937,-0.004530,-86.830650,0.009950,
560,1620,2.708591,-4.488399,0.999869,0.000000,-0.007244,0.009132,0.001957,0.009363,-0.007475,83.277927,0.009903,
1700,1260,-2.841536,-7.669652,0.999997,0.000216,-0.005586,0.010862,0.001024,0.010926,-0.005649,86.451843,0.010928,
1050,590,0.580641,-15.851149,0.999995,0.000256,-0.004437,0.008606,-0.001966,0.008896,-0.004727,-81.610453,0.008902,
900,790,1.967385,-12.906874,0.999993,0.000329,-0.006908,0.012240,0.000363,0.012247,-0.006915,88.912900,0.012281,
920,200,0.474961,-18.849694,0.999997,0.000214,-0.002026,0.008040,0.000871,0.008115,-0.002101,85.093440,0.008424,
1330,1680,-0.222839,-2.406960,0.999997,0.000204,-0.002516,0.007415,-0.000427,0.007433,-0.002534,-87.541998,0.007558,
1430,970,-2.184205,-11.195055,0.999992,0.000450,-0.007138,0.017826,0.002531,0.018080,-0.007392,84.269294,0.018180,
1410,1460,-0.571145,-4.338205,0.999996,0.000242,-0.004456,0.008595,-0.002034,0.008905,-0.004765,-81.345140,0.008912,
1490,1910,-0.244488,-0.848532,0.999997,0.000194,-0.001443,0.007190,0.000793,0.007262,-0.001515,84.792097,0.007662,
1240,1960,-0.004814,-0.456967,0.999998,0.000161,-0.000525,0.006182,0.000003,0.006182,-0.000525,89.971487,0.006855,
960,1380,1.168893,-5.599669,0.999996,0.000254,-0.006381,0.011004,0.001559,0.011142,-0.006519,84.915504,0.011196,
1230,1940,0.000764,-0.581617,0.999999,0.000130,-0.000667,0.006303,-0.000005,0.006303,-0.000667,-89.954983,0.006925,
1820,750,-3.306503,-12.716097,0.999996,0.000260,-0.004993,0.009956,-0.000593,0.009980,-0.005016,-87.732937,0.009980,
580,840,3.906229,-11.696712,0.999997,0.000180,-0.004515,0.009189,0.000248,0.009194,-0.004519,88.964319,0.009194,
1270,1220,-0.229298,-4.891875,0.999990,0.000367,-0.005486,0.002946,-0.000648,0.002995,-0.005535,-85.629610,0.005541,
710,1050,3.656668,-9.863214,0.999997,0.000227,-0.004304,0.009580,-0.000321,0.009587,-0.004311,-88.675351,0.009603,
1770,220,-1.292315,-18.269705,0.999997,0.000221,-0.004572,0.009983,-0.000921,0.010041,-0.004630,-86.393151,0.010051,
1240,570,-0.021208,-16.477669,0.999998,0.000180,-0.002490,0.006311,0.000244,0.006317,-0.002497,88.410743,0.006364,
1350,1190,-0.873085,-6.107195,0.999991,0.000363,-0.003941,0.006519,-0.003983,0.007863,-0.005286,-71.353695,0.008017,
890,660,1.574782,-14.402607,0.999996,0.000253,-0.006311,0.011190,-0.000688,0.011217,-0.006338,-87.752030,0.011249,
1740,490,-2.054546,-15.631261,0.999996,0.000248,-0.005113,0.010279,0.000214,0.010282,-0.005116,89.201992,0.010282,
1240,1490,-0.020409,-3.650547,0.999998,0.000165,-0.002498,0.006354,-0.000236,0.006360,-0.002504,-88.476322,0.006408,
1860,1710,-2.217801,-3.456687,0.999997,0.000202,-0.004868,0.009898,-0.000130,0.009899,-0.004869,-89.496222,0.009900,
610,1680,2.285548,-3.728169,0.999997,0.000205,-0.004919,0.010009,0.000090,0.010009,-0.004920,89.655181,0.010010,
1030,1800,0.349620,-1.627177,0.999996,0.000262,-0.002190,0.007522,-0.000160,0.007525,-0.002192,-89.056171,0.007740,
1800,1550,-2.404829,-4.875841,0.999996,0.000282,-0.005130,0.010169,-0.000148,0.010171,-0.005132,-89.447282,0.010171,
750,1790,1.241715,-2.184364,0.999995,0.000246,-0.003998,0.009777,-0.000805,0.009824,-0.004045,-86.668860,0.009875,
1750,490,-2.105872,-15.600078,0.999996,0.000248,-0.005119,0.010278,0.000192,0.010280,-0.005122,89.284732,0.010280,
1660,240,-0.934621,-18.335374,0.999997,0.000201,-0.003699,0.009307,-0.000816,0.009358,-0.003750,-86.425243,0.009419,
1090,1530,0.401398,-3.626616,0.999996,0.000223,-0.003520,0.007824,0.001442,0.008004,-0.003701,82.866650,0.008012,
770,1040,3.411823,-9.954919,0.999997,0.000232,-0.004169,0.009941,-0.000268,0.009946,-0.004174,-88.912993,0.009988,
1020,230,0.328804,-18.715591,0.999998,0.000199,-0.001902,0.007521,0.000312,0.007531,-0.001912,88.107086,0.007829,
1780,1440,-2.634063,-5.950523,0.999995,0.000272,-0.005294,0.010328,0.000135,0.010329,-0.005295,89.506615,0.010330,
1870,1330,-3.466475,-7.329300,0.999995,0.000270,-0.004923,0.009793,0.000262,0.009798,-0.004928,88.980293,0.009798,
1830,1230,-3.615080,-8.205270,0.999996,0.000236,-0.004758,0.009514,0.000652,0.009544,-0.004788,87.391463,0.009544,
700,1930,0.732685,-0.934523,0.999997,0.000213,-0.003653,0.009463,-0.002225,0.009830,-0.004020,-80.629881,0.009884,
1090,300,0.273329,-18.260966,0.999998,0.000178,-0.002009,0.007387,-0.000012,0.007387,-0.002009,-89.928582,0.007639,
1450,1170,-1.683500,-7.859189,0.999992,0.000349,-0.007388,0.014031,-0.000713,0.014054,-0.007412,-88.096090,0.014061,
790,890,3.055387,-11.501836,0.999997,0.000253,-0.005010,0.010673,0.001278,0.010777,-0.005113,85.370788,0.010781,
880,180,0.503495,-18.971538,0.999996,0.000235,-0.002524,0.008093,0.000987,0.008185,-0.002615,84.732374,0.008360,
1370,1160,-1.277973,-6.726172,0.999991,0.000350,-0.003576,0.008794,-0.005538,0.010911,-0.005693,-69.079396,0.010915,
620,470,2.521214,-15.503200,0.999995,0.000308,-0.005035,0.010158,-0.000126,0.010159,-0.005036,-89.524669,0.010159,
1310,250,-0.118788,-18.671437,0.999998,0.000176,-0.001554,0.006944,-0.000064,0.006945,-0.001555,-89.569390,0.007289,
1370,360,-0.310514,-17.815090,0.999997,0.000196,-0.002383,0.007481,0.000261,0.007488,-0.002390,88.483781,0.007649,
720,1550,2.111474,-4.692831,0.999996,0.000220,-0.005173,0.010269,0.000195,0.010271,-0.005176,89.278426,0.010271,
1090,100,0.071900,-19.657559,0.999998,0.000155,-0.000474,0.006420,0.000395,0.006443,-0.000497,86.734477,0.007170,
1510,1200,-1.928520,-7.857875,0.999993,0.000350,-0.007132,0.013183,0.000520,0.013197,-0.007146,88.535664,0.013212,
1040,770,0.852664,-14.046635,0.999992,0.000336,-0.007176,0.011223,-0.002997,0.011699,-0.007652,-80.977742,0.011882,
560,1610,2.743172,-4.598936,0.999833,0.000000,-0.005893,0.010003,0.000387,0.010012,-0.005902,88.607026,0.010066,
1490,1890,-0.288772,-0.996726,0.999997,0.000201,-0.001651,0.007311,0.000715,0.007368,-0.001707,85.470152,0.007713,
1800,750,-3.206242,-12.761187,0.999998,0.000180,-0.005116,0.010106,-0.000667,0.010135,-0.005145,-87.496490,0.010135,
810,840,2.756653,-12.079012,0.999996,0.000256,-0.005638,0.011127,0.001239,0.011218,-0.005729,85.796438,0.011219,
1250,1940,-0.013277,-0.583739,0.999998,0.000167,-0.000631,0.006308,0.000012,0.006308,-0.000631,89.902367,0.006948,
960,1360,1.212723,-5.820847,0.999997,0.000238,-0.006638,0.011262,0.001479,0.011383,-0.006760,85.309405,0.011450,
1070,660,0.519220,-15.351932,0.999996,0.000240,-0.004802,0.008603,-0.002692,0.009123,-0.005322,-79.057836,0.009165,
1700,1240,-2.917754,-7.885997,0.999997,0.000208,-0.005462,0.010717,0.001103,0.010792,-0.005537,86.117839,0.010793,
1720,950,-3.444581,-10.847740,0.999997,0.000207,-0.004496,0.010002,-0.000862,0.010053,-0.004547,-86.608759,0.010068,
1240,1940,-0.006705,-0.581438,0.999998,0.000145,-0.000640,0.006301,0.000004,0.006301,-0.000640,89.970179,0.006936,
1870,1820,-1.838752,-2.404914,0.999997,0.000259,-0.004897,0.009857,0.000200,0.009860,-0.004900,89.224298,0.009860,
1850,1140,-3.953282,-9.076607,0.999997,0.000193,-0.004402,0.009000,0.000479,0.009017,-0.004419,87.954969,0.009018,
710,1030,3.676749,-10.052969,0.999996,0.000227,-0.004283,0.009626,-0.000058,0.009626,-0.004283,-89.761127,0.009645,
1180,610,0.125932,-16.181773,0.999996,0.000217,-0.002710,0.006191,-0.001111,0.006328,-0.002846,-82.991932,0.006338,
1540,1650,-0.911628,-3.073938,0.999997,0.000195,-0.003929,0.009064,-0.000428,0.009078,-0.003943,-88.117127,0.009104,
1260,1220,-0.174901,-4.829995,0.999992,0.000349,-0.005876,0.002918,-0.000303,0.002928,-0.005887,-88.028656,0.005887,
1770,200,-1.194055,-18.471022,0.999996,0.000229,-0.004469,0.010067,-0.001130,0.010154,-0.004556,-85.581893,0.010172,
1370,1800,-0.227315,-1.567909,0.999997,0.000201,-0.001672,0.007220,0.000132,0.007222,-0.001674,89.152030,0.007560,
1050,570,0.570823,-16.025638,0.999996,0.000244,-0.004316,0.008512,-0.001826,0.008767,-0.004571,-82.052645,0.008769,
1750,470,-2.050978,-15.805140,0.999996,0.000234,-0.005069,0.010175,0.000186,0.010177,-0.005071,89.301402,0.010177,
1480,750,-1.204634,-13.835862,0.999994,0.000343,-0.007261,0.011898,0.001645,0.012038,-0.007402,85.127631,0.012144,
1140,1750,0.170654,-1.886214,0.999998,0.000150,-0.002064,0.007147,0.000149,0.007150,-0.002066,89.073352,0.007359,
1520,1590,-0.926666,-3.569498,0.999997,0.000203,-0.004381,0.009300,-0.000844,0.009351,-0.004433,-86.483034,0.009356,
750,1770,1.313052,-2.380489,0.999996,0.000215,-0.004149,0.009853,-0.000596,0.009878,-0.004174,-87.564990,0.009917,
1780,1460,-2.570726,-5.742299,0.999995,0.000263,-0.005269,0.010344,0.000074,0.010344,-0.005269,89.727344,0.010345,
1220,1490,0.028879,-3.653573,0.999998,0.000198,-0.002479,0.006351,0.000301,0.006361,-0.002489,88.051960,0.006411,
1000,230,0.366944,-18.696230,0.999998,0.000185,-0.001856,0.007613,0.000412,0.007630,-0.001874,87.511759,0.007953,
1350,870,-0.927813,-14.024605,0.999991,0.000351,-0.003572,0.006321,0.004049,0.007767,-0.005018,70.346588,0.007877,
670,670,2.885346,-13.601355,0.999997,0.000223,-0.005254,0.010349,0.000359,0.010357,-0.005263,88.683845,0.010357,
1200,700,0.062554,-15.736396,0.999997,0.000193,-0.002246,0.004547,-0.001232,0.004764,-0.002463,-80.031123,0.004765,
560,1600,2.794662,-4.701790,0.999922,0.000000,-0.005377,0.010221,-0.000145,0.010222,-0.005379,-89.467767,0.010227,
880,140,0.375759,-19.289284,0.999997,0.000209,-0.001977,0.007770,0.001217,0.007919,-0.002127,82.989123,0.008197,
1090,1550,0.394723,-3.467055,0.999997,0.000206,-0.003423,0.007823,0.001289,0.007969,-0.003568,83.543089,0.007984,
1310,270,-0.127147,-18.532463,0.999998,0.000169,-0.001672,0.007048,-0.000020,0.007048,-0.001672,-89.866920,0.007365,
1010,610,0.785942,-15.481820,0.999996,0.000255,-0.005162,0.009509,-0.001959,0.009766,-0.005419,-82.524539,0.009785,
1660,680,-2.174714,-13.866532,0.999995,0.000254,-0.006020,0.011020,-0.000156,0.011022,-0.006022,-89.475361,0.011037,
1620,1310,-2.158919,-6.909545,0.999996,0.000282,-0.006402,0.011533,0.000419,0.011543,-0.006411,88.660941,0.011566,
1730,360,-1.635327,-16.988087,0.999995,0.000260,-0.004854,0.009997,-0.000058,0.009997,-0.004854,-89.777631,0.009999,
1710,2000,-0.201472,-0.276165,0.999997,0.000224,-0.000611,0.007658,0.002456,0.008332,-0.001285,74.646620,0.008972,
1490,480,-0.820453,-16.547672,0.999997,0.000201,-0.004137,0.009007,0.000941,0.009074,-0.004204,85.925129,0.009082,
620,1920,1.115064,-1.256631,0.999996,0.000222,-0.004914,0.010514,-0.001252,0.010615,-0.005015,-85.389142,0.010621,
790,870,2.984823,-11.714729,0.999996,0.000252,-0.005211,0.010777,0.001250,0.010874,-0.005308,85.555635,0.010875,
1870,2010,-0.427638,-0.387082,0.999952,0.000829,-0.001996,0.011218,0.004942,0.012861,-0.003640,71.601774,0.013259,
1530,1570,-1.003585,-3.794412,0.999997,0.000230,-0.004584,0.009457,-0.000871,0.009510,-0.004637,-86.463782,0.009511,
1400,1600,-0.463321,-3.144522,0.999997,0.000209,-0.003392,0.008012,-0.000950,0.008091,-0.003470,-85.269554,0.008118,
1000,2000,0.056553,-0.225021,0.999998,0.000150,-0.000239,0.006414,-0.000760,0.006500,-0.000325,-83.565098,0.007325,
1650,430,-1.450229,-16.526092,0.999995,0.000263,-0.004737,0.009875,0.000274,0.009880,-0.004742,88.925078,0.009882,
610,740,3.435197,-12.730292,0.999995,0.000237,-0.004945,0.009808,0.000413,0.009819,-0.004956,88.395987,0.009819,
700,1550,2.213954,-4.757263,0.999995,0.000264,-0.005158,0.010261,0.000156,0.010262,-0.005160,89.421193,0.010262,
950,1940,0.214060,-0.647274,0.999997,0.000197,-0.001210,0.007170,-0.000988,0.007285,-0.001325,-83.364093,0.007761,
1750,780,-3.055311,-12.558383,0.999998,0.000216,-0.005293,0.010430,-0.000890,0.010480,-0.005343,-86.770137,0.010481,
1490,1870,-0.328229,-1.144042,0.999996,0.000223,-0.001894,0.007508,0.000621,0.007549,-0.001935,86.240375,0.007842,
1070,100,0.082538,-19.654560,0.999998,0.000184,-0.000545,0.006475,0.000444,0.006503,-0.000573,86.392982,0.007201,
1580,1830,-0.633364,-1.561322,0.999997,0.000213,-0.002977,0.008444,0.000722,0.008489,-0.003022,86.398442,0.008606,
1240,1920,-0.004697,-0.709026,0.999998,0.000150,-0.000801,0.006379,-0.000011,0.006379,-0.000801,-89.914329,0.006949,
710,1010,3.663060,-10.250172,0.999996,0.000219,-0.004310,0.009684,0.000295,0.009690,-0.004316,88.792631,0.009709,
1210,620,0.049522,-16.160819,0.999998,0.000161,-0.002380,0.005779,-0.000548,0.005816,-0.002417,-86.172678,0.005843,
1510,680,-1.226366,-14.468296,0.999997,0.000228,-0.006497,0.011118,0.001412,0.011230,-0.006610,85.445010,0.011289,
1200,680,0.066521,-15.832803,0.999998,0.000160,-0.002305,0.004913,-0.001058,0.005065,-0.002457,-81.827388,0.005066,
1750,450,-1.994215,-16.008898,0.999996,0.000222,-0.005041,0.010119,0.000188,0.010122,-0.005043,89.287979,0.010122,
560,1590,2.830980,-4.804103,0.999955,0.000000,-0.005524,0.009951,0.000125,0.009952,-0.005525,89.537618,0.009972,
1660,660,-2.108959,-14.087197,0.999996,0.000232,-0.005931,0.010944,-0.000039,0.010944,-0.005931,-89.866250,0.010957,
1090,1990,0.038524,-0.279284,0.999998,0.000153,-0.000230,0.006248,-0.000422,0.006275,-0.000258,-86.287669,0.007102,
1780,1900,-0.985044,-1.260981,0.999996,0.000221,-0.003978,0.010018,0.001883,0.010266,-0.004227,82.470483,0.010320,
1560,490,-1.148197,-16.222181,0.999997,0.000227,-0.004707,0.009683,0.000737,0.009721,-0.004744,87.074916,0.009722,
1700,2000,-0.190525,-0.271434,0.999998,0.000169,-0.000701,0.007561,0.002295,0.008156,-0.001296,75.471401,0.008766,
880,120,0.315075,-19.441120,0.999997,0.000215,-0.001685,0.007645,0.001316,0.007827,-0.001867,82.121553,0.008175,
1310,290,-0.137636,-18.389610,0.999998,0.000162,-0.001793,0.007096,0.000015,0.007096,-0.001793,89.903138,0.007380,
620,350,2.152400,-16.717537,0.999994,0.000284,-0.004853,0.009977,-0.000075,0.009978,-0.004854,-89.709081,0.009979,
630,730,3.300463,-12.883018,0.999995,0.000258,-0.004995,0.009940,0.000472,0.009955,-0.005010,88.190856,0.009955,
790,850,2.907961,-11.937652,0.999996,0.000247,-0.005411,0.010946,0.001263,0.011043,-0.005508,85.611717,0.011043,
1490,460,-0.797320,-16.724377,0.999998,0.000175,-0.003971,0.008877,0.000827,0.008930,-0.004024,86.332828,0.008944,
1840,130,-1.062013,-18.969202,0.999997,0.000202,-0.004818,0.010563,-0.001327,0.010677,-0.004932,-85.104288,0.010687,
1050,550,0.558818,-16.198406,0.999996,0.000219,-0.004131,0.008453,-0.001625,0.008659,-0.004337,-82.760900,0.008659,
790,1040,3.329733,-9.952765,0.999995,0.000258,-0.004104,0.010066,-0.000254,0.010071,-0.004108,-88.973349,0.010127,
920,180,0.424824,-19.008060,0.999997,0.000224,-0.001791,0.007782,0.000932,0.007871,-0.001881,84.493479,0.008221,
1530,1550,-1.033965,-3.983171,0.999998,0.000216,-0.004662,0.009519,-0.000916,0.009578,-0.004721,-86.319800,0.009578,
640,1970,0.610779,-0.634876,0.999991,0.000361,-0.003527,0.010423,-0.003031,0.011053,-0.004157,-78.256527,0.011165,
690,1360,2.866916,-6.765101,0.999996,0.000233,-0.005307,0.010369,-0.000502,0.010385,-0.005323,-88.166946,0.010386,
960,1340,1.263965,-6.050495,0.999996,0.000238,-0.006868,0.011501,0.001410,0.011609,-0.006975,85.635062,0.011687,
810,820,2.674704,-12.301329,0.999996,0.000272,-0.005797,0.011254,0.001144,0.011331,-0.005874,86.177831,0.011333,
990,2000,0.059108,-0.225928,0.999998,0.000158,-0.000290,0.006428,-0.000799,0.006521,-0.000383,-83.312095,0.007319,
1400,1580,-0.474422,-3.306415,0.999996,0.000242,-0.003425,0.008077,-0.001042,0.008171,-0.003518,-84.867190,0.008197,
1070,640,0.512763,-15.525486,0.999995,0.000249,-0.004614,0.008463,-0.002528,0.008935,-0.005086,-79.429099,0.008963,
1200,1490,0.078061,-3.671717,0.999999,0.000197,-0.002541,0.006413,0.000487,0.006439,-0.002568,86.897138,0.006483,
620,1750,1.996406,-2.992738,0.999998,0.000172,-0.004818,0.009984,-0.000019,0.009984,-0.004818,-89.926261,0.009986,
1680,570,-1.955577,-14.993822,0.999996,0.000240,-0.005470,0.010481,0.000250,0.010485,-0.005474,89.102412,0.010489,
1350,850,-0.718586,-14.147698,0.999987,0.000448,-0.004924,0.007448,0.004251,0.008768,-0.006244,72.751523,0.009027,
670,650,2.818354,-13.811336,0.999996,0.000255,-0.005256,0.010318,0.000271,0.010323,-0.005261,89.001916,0.010323,
1350,360,-0.262415,-17.840610,0.999997,0.000180,-0.002430,0.007445,0.000326,0.007456,-0.002441,88.113386,0.007603,
1430,1200,-1.313327,-7.236099,0.999993,0.000299,-0.007607,0.013338,-0.002017,0.013530,-0.007800,-84.548913,0.013583,
1690,1440,-2.141526,-5.677328,0.999996,0.000238,-0.005643,0.010711,-0.000071,0.010711,-0.005643,-89.749629,0.010716,
680,770,3.191003,-12.596835,0.999995,0.000248,-0.005151,0.010153,0.000796,0.010194,-0.005193,87.030902,0.010195,
1750,760,-2.981584,-12.767126,0.999997,0.000222,-0.005372,0.010489,-0.000799,0.010529,-0.005412,-87.122414,0.010530,
1580,1910,-0.386342,-0.907452,0.999998,0.000180,-0.001980,0.007779,0.001200,0.007924,-0.002125,83.093675,0.008203,
1490,1850,-0.371428,-1.296664,0.999998,0.000195,-0.002070,0.007641,0.000561,0.007673,-0.002102,86.705949,0.007930,
1890,1810,-1.979453,-2.589495,0.999997,0.000184,-0.004835,0.009691,0.000104,0.009691,-0.004836,89.588478,0.009691,
1410,100,-0.093564,-19.651342,0.999998,0.000154,-0.000759,0.006536,-0.000492,0.006569,-0.000792,-86.159668,0.007172,
1250,410,-0.044020,-17.560672,0.999998,0.000191,-0.002327,0.007070,0.000223,0.007075,-0.002332,88.640557,0.007211,
710,990,3.646644,-10.445327,0.999995,0.000239,-0.004330,0.009579,0.000289,0.009585,-0.004336,88.809504,0.009599,
1220,630,0.025800,-16.116187,0.999998,0.000155,-0.002319,0.005581,-0.000367,0.005598,-0.002336,-87.344841,0.005624,
1450,1190,-1.542510,-7.569864,0.999993,0.000325,-0.007767,0.013886,-0.001021,0.013935,-0.007815,-87.305521,0.013969,
1830,1210,-3.677655,-8.396870,0.999996,0.000221,-0.004733,0.009565,0.000705,0.009600,-0.004768,87.185459,0.009600,
1750,430,-1.939378,-16.211309,0.999996,0.000227,-0.004995,0.010124,0.000178,0.010126,-0.004998,89.324378,0.010127,
1090,1970,0.060593,-0.408271,0.999998,0.000157,-0.000366,0.006370,-0.000416,0.006396,-0.000392,-86.480366,0.007170,
1660,640,-2.045245,-14.305591,0.999996,0.000210,-0.005839,0.010877,0.000070,0.010878,-0.005839,89.760213,0.010887,
750,1750,1.384175,-2.579650,0.999996,0.000243,-0.004274,0.009819,-0.000415,0.009831,-0.004286,-88.315809,0.009858,
1780,1880,-1.106165,-1.466351,0.999996,0.000226,-0.004195,0.010006,0.001562,0.010176,-0.004364,83.797692,0.010210,
700,1910,0.856518,-1.120914,0.999997,0.000218,-0.003989,0.009661,-0.001880,0.009915,-0.004243,-82.299668,0.009949,
560,1580,2.844003,-4.899939,0.999960,0.000000,-0.005604,0.009811,0.000327,0.009818,-0.005611,88.786554,0.009852,
1700,1220,-2.994538,-8.098901,0.999997,0.000215,-0.005349,0.010715,0.001197,0.010804,-0.005437,85.762447,0.010804,
880,100,0.246126,-19.595150,0.999997,0.000217,-0.001444,0.007393,0.001340,0.007592,-0.001643,81.565990,0.007989,
1360,1160,-1.245515,-6.509068,0.999988,0.000401,-0.002914,0.007776,-0.005484,0.010089,-0.005227,-67.130209,0.010091,
600,1750,2.094868,-3.067842,0.999997,0.000211,-0.004869,0.009897,0.000018,0.009897,-0.004869,89.931263,0.009897,
1050,530,0.546415,-16.370037,0.999996,0.000222,-0.003898,0.008397,-0.001424,0.008560,-0.004061,-83.480709,0.008563,
620,330,2.085552,-16.916401,0.999997,0.000203,-0.004855,0.009921,-0.000096,0.009922,-0.004855,-89.628280,0.009922,
1320,1470,-0.235236,-3.912928,0.999998,0.000207,-0.003011,0.006868,-0.001371,0.007055,-0.003198,-82.242893,0.007066,
790,830,2.827949,-12.153888,0.999996,0.000229,-0.005570,0.010957,0.001190,0.011042,-0.005655,85.901523,0.011043,
1490,440,-0.772914,-16.903107,0.999998,0.000162,-0.003868,0.008826,0.000742,0.008869,-0.003911,86.667946,0.008890,
980,1550,0.817960,-3.817115,0.999996,0.000235,-0.004299,0.009093,0.001092,0.009181,-0.004388,85.370445,0.009184,
1560,470,-1.113723,-16.414963,0.999996,0.000244,-0.004502,0.009577,0.000652,0.009607,-0.004532,87.355624,0.009612,
1820,1330,-3.218529,-7.191389,0.999996,0.000216,-0.005041,0.010059,0.000512,0.010076,-0.005058,88.061310,0.010076,
940,690,1.331578,-14.289428,0.999993,0.000301,-0.006618,0.011295,-0.001184,0.011373,-0.006696,-86.235089,0.011432,
1310,730,-0.189126,-15.381335,0.999996,0.000238,-0.003318,0.005523,0.003180,0.006548,-0.004343,72.134172,0.006664,
790,840,2.868737,-12.044839,0.999995,0.000241,-0.005501,0.010945,0.001232,0.011037,-0.005593,85.738879,0.011038,
580,1300,3.633579,-7.662597,0.999997,0.000258,-0.005245,0.009492,0.000024,0.009492,-0.005245,89.908414,0.009510,
1490,1090,-2.490254,-9.243960,0.999994,0.000272,-0.004789,0.013342,0.000863,0.013383,-0.004830,87.280276,0.013555,
1700,1010,-3.436785,-10.254694,0.999996,0.000244,-0.004212,0.009916,-0.000331,0.009923,-0.004220,-88.658815,0.009960,
1350,830,-0.590454,-14.313604,0.999992,0.000351,-0.005808,0.007852,0.004387,0.009140,-0.007095,73.643810,0.009594,
1250,430,-0.043741,-17.418229,0.999997,0.000229,-0.002397,0.007061,0.000245,0.007068,-0.002403,88.518377,0.007187,
960,1320,1.321088,-6.283830,0.999996,0.000222,-0.007091,0.011797,0.001266,0.011881,-0.007176,86.181735,0.011967,
1350,1800,-0.191081,-1.552922,0.999998,0.000201,-0.001788,0.007136,0.000014,0.007136,-0.001788,89.909625,0.007426,
1010,590,0.763379,-15.676013,0.999997,0.000244,-0.004961,0.009304,-0.001829,0.009535,-0.005192,-82.808410,0.009548,
1880,1810,-1.931224,-2.546100,0.999997,0.000212,-0.004853,0.009763,0.000118,0.009764,-0.004854,89.537670,0.009764,
1010,1940,0.151750,-0.624800,0.999998,0.000187,-0.000808,0.006853,-0.000729,0.006922,-0.000876,-84.614753,0.007538,
1750,410,-1.883085,-16.416354,0.999996,0.000237,-0.004940,0.010139,0.000127,0.010140,-0.004941,89.518599,0.010141,
700,590,2.465941,-14.522078,0.999996,0.000232,-0.005343,0.010409,0.000038,0.010409,-0.005344,89.861151,0.010410,
1200,630,0.072781,-16.092444,0.999998,0.000186,-0.002424,0.005714,-0.000705,0.005774,-0.002484,-85.086935,0.005793,
1060,1230,0.919820,-6.539384,0.999995,0.000274,-0.007550,0.011719,0.003262,0.012257,-0.008087,80.647842,0.012464,
880,80,0.186551,-19.736308,0.999997,0.000192,-0.001100,0.007166,0.001394,0.007395,-0.001329,80.680752,0.007885,
1710,1080,-3.449753,-9.560783,0.999996,0.000241,-0.004344,0.009910,0.000501,0.009928,-0.004362,87.989676,0.009952,
1520,1650,-0.836984,-3.025013,0.999998,0.000181,-0.003724,0.008856,-0.000445,0.008872,-0.003740,-87.977299,0.008908,
670,640,2.783624,-13.912717,0.999994,0.000291,-0.005258,0.010270,0.000247,0.010274,-0.005261,89.088726,0.010275,
1220,430,0.027217,-17.422474,0.999998,0.000181,-0.002404,0.007060,-0.000162,0.007062,-0.002406,-89.021779,0.007181,
1860,750,-3.503865,-12.614815,0.999997,0.000208,-0.004880,0.009798,-0.000382,0.009808,-0.004890,-88.509447,0.009808,
690,720,2.957830,-13.134628,0.999996,0.000222,-0.005307,0.010338,0.000632,0.010363,-0.005332,87.689271,0.010365,
1250,1220,-0.115614,-4.794538,0.999987,0.000418,-0.006461,0.002892,-0.000145,0.002894,-0.006463,-89.114459,0.006475,
1660,620,-1.985532,-14.524233,0.999996,0.000210,-0.005757,0.010805,0.000161,0.010807,-0.005759,89.442475,0.010815,
1780,1860,-1.212170,-1.664334,0.999996,0.000250,-0.004409,0.010073,0.001254,0.010181,-0.004517,85.085817,0.010202,
790,810,2.748215,-12.376241,0.999996,0.000233,-0.005709,0.011073,0.001103,0.011145,-0.005781,86.256686,0.011148,
750,1730,1.447074,-2.773880,0.999996,0.000244,-0.004431,0.009870,-0.000249,0.009874,-0.004435,-89.002197,0.009891,
1450,1630,-0.602918,-3.014965,0.999996,0.000252,-0.003419,0.008374,-0.000668,0.008411,-0.003457,-86.768779,0.008456,
1620,410,-1.262141,-16.816034,0.999997,0.000180,-0.004485,0.009660,0.000271,0.009665,-0.004490,88.903848,0.009673,
1530,1530,-1.062698,-4.172765,0.999997,0.000224,-0.004811,0.009671,-0.000980,0.009737,-0.004877,-86.146666,0.009737,
1830,450,-2.396912,-15.749829,0.999996,0.000216,-0.005050,0.010123,0.000139,0.010124,-0.005051,89.476051,0.010124,
1270,1190,-0.479077,-4.955519,0.999948,0.000000,-0.008654,0.001964,0.000229,0.001969,-0.008659,88.763214,0.009078,
1310,710,-0.185873,-15.496097,0.999996,0.000249,-0.003220,0.005726,0.002842,0.006552,-0.004046,73.783820,0.006612,
960,1550,0.906971,-3.888599,0.999995,0.000270,-0.004601,0.009375,0.001086,0.009459,-0.004685,85.584072,0.009459,
630,690,3.162850,-13.287776,0.999997,0.000210,-0.005088,0.010087,0.000363,0.010096,-0.005097,88.628710,0.010096,
1030,760,0.894961,-14.071577,0.999995,0.000261,-0.007159,0.011275,-0.002782,0.011685,-0.007569,-81.602148,0.011854,
1570,1270,-1.992757,-7.219297,0.999995,0.000265,-0.006832,0.012178,0.000383,0.012186,-0.006840,88.845940,0.012216,
1400,1560,-0.485140,-3.470176,0.999995,0.000249,-0.003470,0.008113,-0.001123,0.008221,-0.003578,-84.513141,0.008244,
1890,690,-3.445269,-13.114153,0.999995,0.000279,-0.004931,0.009970,-0.000098,0.009971,-0.004932,-89.622087,0.009971,
1090,2000,0.031468,-0.218629,0.999998,0.000149,-0.000178,0.006143,-0.000384,0.006167,-0.000201,-86.532410,0.007007,
1100,1750,0.255275,-1.926353,0.999998,0.000193,-0.002076,0.007323,0.000087,0.007324,-0.002077,89.469779,0.007549,
560,1570,2.872444,-5.000549,0.999980,0.000000,-0.005421,0.009779,0.000297,0.009785,-0.005427,88.879343,0.009804,
1490,1830,-0.411717,-1.448618,0.999997,0.000207,-0.002260,0.007762,0.000427,0.007781,-0.002278,87.564704,0.008000,
1050,510,0.538166,-16.535104,0.999996,0.000245,-0.003691,0.008290,-0.001222,0.008414,-0.003815,-84.233715,0.008426,
1330,1240,-0.403019,-5.462689,0.999991,0.000411,-0.005058,0.006254,-0.004298,0.007701,-0.006506,-71.383310,0.008289,
1350,810,-0.483614,-14.462334,0.999991,0.000377,-0.005771,0.007907,0.004494,0.009252,-0.007116,73.344984,0.009688,
1580,110,-0.276052,-19.521246,0.999998,0.000187,-0.001525,0.007553,-0.001338,0.007746,-0.001718,-81.789532,0.008136,
1400,230,-0.246471,-18.756738,0.999998,0.000182,-0.001731,0.007259,-0.000214,0.007264,-0.001736,-88.636036,0.007587,
1250,450,-0.045080,-17.276838,0.999997,0.000220,-0.002461,0.007007,0.000264,0.007015,-0.002468,88.403807,0.007117,
750,1040,3.495117,-9.956223,0.999997,0.000207,-0.004249,0.009841,-0.000257,0.009846,-0.004254,-88.957181,0.009876,
1010,570,0.745813,-15.863502,0.999997,0.000239,-0.004690,0.009118,-0.001654,0.009314,-0.004885,-83.262113,0.009318,
1200,660,0.068931,-15.931542,0.999998,0.000180,-0.002352,0.005254,-0.000905,0.005360,-0.002458,-83.309892,0.005366,
680,590,2.570575,-14.460519,0.999996,0.000236,-0.005219,0.010360,0.000054,0.010360,-0.005219,89.800424,0.010360,
1190,1800,0.066841,-1.514272,0.999998,0.000146,-0.001516,0.006872,0.000013,0.006872,-0.001516,89.910991,0.007221,
1740,1590,-1.986702,-4.271375,0.999996,0.000243,-0.005051,0.010176,-0.000233,0.010180,-0.005054,-89.124610,0.010180,
1740,1580,-2.014280,-4.374044,0.999997,0.000216,-0.005080,0.010214,-0.000231,0.010217,-0.005083,-89.134632,0.010217,
1420,970,-2.103544,-11.312893,0.999980,0.000648,-0.007811,0.019147,0.003930,0.019708,-0.008373,81.872087,0.019782,
880,60,0.120676,-19.883573,0.999997,0.000182,-0.000812,0.006999,0.001412,0.007246,-0.001059,80.062478,0.007827,
1160,730,0.168631,-15.424298,0.999996,0.000274,-0.003139,0.005209,-0.002991,0.006170,-0.004100,-72.189152,0.006280,
1870,1810,-1.882162,-2.502824,0.999997,0.000246,-0.004891,0.009842,0.000149,0.009844,-0.004893,89.421829,0.009844,
1890,1050,-4.241501,-9.889483,0.999997,0.000209,-0.004058,0.008288,0.000243,0.008292,-0.004063,88.873086,0.008293,
1770,340,-1.763601,-17.060398,0.999997,0.000197,-0.004792,0.010038,-0.000032,0.010038,-0.004792,-89.876774,0.010041,
1100,1350,0.396225,-4.984477,0.999995,0.000249,-0.004709,0.007891,0.003363,0.008733,-0.005551,75.952972,0.008839,
1240,1220,-0.061646,-4.765071,0.999988,0.000435,-0.006944,0.002877,-0.000042,0.002877,-0.006944,-89.752652,0.006978,
1480,40,-0.035334,-20.028080,0.999998,0.000138,-0.000231,0.006273,-0.000793,0.006368,-0.000327,-83.146101,0.007172,
700,1890,0.975797,-1.322821,0.999997,0.000243,-0.004230,0.009858,-0.001573,0.010031,-0.004403,-83.704352,0.010056,
1270,1200,-0.373428,-4.953134,0.999990,0.000000,-0.007605,0.002522,0.000280,0.002530,-0.007612,88.417133,0.007754,
1620,390,-1.215231,-17.008494,0.999997,0.000175,-0.004267,0.009555,0.000154,0.009557,-0.004269,89.363676,0.009575,
750,1710,1.507607,-2.974147,0.999996,0.000233,-0.004530,0.009895,-0.000177,0.009897,-0.004533,-89.297058,0.009909,
1780,1840,-1.316572,-1.869515,0.999995,0.000264,-0.004531,0.010067,0.001025,0.010139,-0.004603,86.003908,0.010153,
1660,600,-1.928071,-14.741935,0.999996,0.000214,-0.005637,0.010662,0.000213,0.010665,-0.005640,89.250609,0.010671,
670,720,3.061750,-13.087021,0.999996,0.000221,-0.005184,0.010252,0.000587,0.010274,-0.005207,87.825171,0.010274,
560,1560,2.901619,-5.096736,0.999982,0.000000,-0.005203,0.009920,0.000088,0.009921,-0.005203,89.667970,0.009925,
1450,1610,-0.623301,-3.182753,0.999996,0.000249,-0.003661,0.008466,-0.000847,0.008524,-0.003719,-86.024697,0.008548,
1840,750,-3.405655,-12.666715,0.999997,0.000200,-0.004941,0.009844,-0.000530,0.009863,-0.004960,-87.951264,0.009863,
940,1550,1.000992,-3.958869,0.999997,0.000202,-0.004650,0.009514,0.000957,0.009579,-0.004715,86.153912,0.009579,
790,790,2.667681,-12.599325,0.999995,0.000266,-0.005835,0.011133,0.001002,0.011192,-0.005894,86.633845,0.011198,
1310,690,-0.186606,-15.617598,0.999996,0.000224,-0.003142,0.005932,0.002507,0.006579,-0.003789,75.536086,0.006604,
1490,1790,-0.490791,-1.767802,0.999996,0.000228,-0.002627,0.008014,0.000227,0.008019,-0.002632,88.775825,0.008175,
1530,1950,-0.201709,-0.580726,0.999997,0.000191,-0.000966,0.007171,0.001102,0.007317,-0.001112,82.422479,0.007886,
1400,1540,-0.494520,-3.631863,0.999996,0.000229,-0.003564,0.008101,-0.001234,0.008230,-0.003693,-84.024838,0.008244,
1570,1250,-2.086725,-7.465613,0.999996,0.000266,-0.006767,0.012301,0.000615,0.012320,-0.006787,88.154953,0.012342,
1270,360,-0.083246,-17.905665,0.999998,0.000155,-0.002129,0.007050,0.000150,0.007052,-0.002131,89.063170,0.007234,
1080,1750,0.296914,-1.944596,0.999997,0.000203,-0.002085,0.007427,0.000034,0.007427,-0.002086,89.793025,0.007661,
570,1300,3.678112,-7.692834,0.999821,0.001654,-0.005438,0.009224,0.000221,0.009228,-0.005441,89.135710,0.009277,
1010,760,1.038954,-13.908869,0.999994,0.000283,-0.007354,0.011741,-0.002244,0.012001,-0.007614,-83.386432,0.012145,
840,640,1.826305,-14.434524,0.999995,0.000234,-0.006017,0.011013,-0.000317,0.011018,-0.006023,-88.934236,0.011034,
1150,1410,0.203751,-4.284670,0.999997,0.000233,-0.003035,0.006425,0.001912,0.006796,-0.003407,78.997212,0.006796,
1880,690,-3.394983,-13.147336,0.999996,0.000248,-0.004946,0.009985,-0.000140,0.009986,-0.004947,-89.464465,0.009986,
1350,790,-0.428273,-14.625823,0.999994,0.000330,-0.005613,0.007903,0.004500,0.009264,-0.006974,73.171698,0.009650,
900,1050,2.897578,-9.829530,0.999996,0.000252,-0.003674,0.011094,-0.000501,0.011111,-0.003690,-88.058880,0.011318,
1250,470,-0.047401,-17.136826,0.999998,0.000204,-0.002497,0.006913,0.000276,0.006922,-0.002505,88.319194,0.007009,
1010,550,0.730238,-16.040377,0.999996,0.000236,-0.004442,0.008978,-0.001468,0.009136,-0.004601,-83.831148,0.009136,
1600,1770,-0.876285,-2.128399,0.999998,0.000170,-0.003612,0.008994,0.000387,0.009006,-0.003624,88.243186,0.009063,
1890,1790,-2.067236,-2.784057,0.999997,0.000219,-0.004844,0.009678,0.000080,0.009679,-0.004845,89.685842,0.009679,
1740,1570,-2.041443,-4.477544,0.999997,0.000202,-0.005100,0.010248,-0.000222,0.010251,-0.005104,-89.171319,0.010251,
1380,230,-0.215473,-18.769092,0.999998,0.000184,-0.001497,0.007140,-0.000224,0.007146,-0.001503,-88.517653,0.007535,
1690,2010,-0.140030,-0.196627,0.999997,0.000228,-0.000669,0.007317,0.002097,0.007834,-0.001186,76.143416,0.008445,
1750,390,-1.822413,-16.619991,0.999996,0.000241,-0.004902,0.010143,0.000094,0.010143,-0.004902,89.642869,0.010145,
1700,1200,-3.072692,-8.317334,0.999997,0.000219,-0.005201,0.010623,0.001200,0.010714,-0.005291,85.687203,0.010714,
1890,1040,-4.248828,-9.974348,0.999997,0.000199,-0.004049,0.008374,0.000202,0.008377,-0.004053,89.067218,0.008379,
1530,1140,-2.418870,-8.717083,0.999997,0.000240,-0.005610,0.012579,0.001418,0.012689,-0.005720,85.567808,0.012710,
870,1990,0.145958,-0.314314,0.999997,0.000202,-0.000854,0.007146,-0.001494,0.007415,-0.001124,-79.760173,0.007993,
750,1910,0.691491,-1.034956,0.999996,0.000231,-0.002424,0.008978,-0.002135,0.009365,-0.002811,-79.733763,0.009611,
1530,1520,-1.075262,-4.270712,0.999997,0.000226,-0.004919,0.009763,-0.001026,0.009835,-0.004990,-86.022342,0.009835,
1180,730,0.110609,-15.530321,0.999998,0.000193,-0.002628,0.004450,-0.002314,0.005139,-0.003317,-73.411795,0.005211,
630,670,3.090807,-13.488958,0.999997,0.000201,-0.005094,0.010120,0.000308,0.010126,-0.005100,88.838826,0.010126,
1310,670,-0.191855,-15.731708,0.999997,0.000210,-0.003052,0.006104,0.002202,0.006606,-0.003554,77.152788,0.006612,
1660,580,-1.873347,-14.953676,0.999996,0.000236,-0.005538,0.010524,0.000285,0.010529,-0.005543,88.983055,0.010534,
1830,1190,-3.742361,-8.587690,0.999995,0.000238,-0.004649,0.009518,0.000706,0.009553,-0.004684,87.152617,0.009554,
1450,1590,-0.643351,-3.357269,0.999997,0.000229,-0.003865,0.008588,-0.001025,0.008672,-0.003949,-85.325224,0.008684,
1490,1770,-0.528274,-1.931233,0.999997,0.000203,-0.002767,0.008122,0.000151,0.008124,-0.002769,89.207054,0.008260,
1690,760,-2.646008,-12.897569,0.999996,0.000238,-0.005809,0.010927,-0.000827,0.010967,-0.005850,-87.178985,0.010976,
1470,40,-0.034406,-20.027710,0.999999,0.000133,-0.000113,0.006239,-0.000781,0.006334,-0.000207,-83.088913,0.007197,
1050,490,0.526220,-16.696748,0.999996,0.000251,-0.003524,0.008206,-0.001071,0.008303,-0.003621,-84.825417,0.008326,
1350,770,-0.384179,-14.785680,0.999995,0.000280,-0.005262,0.007659,0.004303,0.008961,-0.006564,73.166818,0.009279,
1570,1230,-2.180870,-7.714317,0.999993,0.000312,-0.006660,0.012304,0.000848,0.012342,-0.006698,87.445422,0.012357,
790,770,2.586671,-12.823515,0.999995,0.000266,-0.005900,0.011121,0.000886,0.011167,-0.005946,87.029011,0.011175,
860,170,0.525854,-19.026256,0.999997,0.000235,-0.002352,0.008166,0.001176,0.008295,-0.002482,83.697162,0.008516,
1250,360,-0.039648,-17.916062,0.999998,0.000168,-0.002158,0.007018,0.000183,0.007022,-0.002162,88.856276,0.007192,
1780,1820,-1.408345,-2.070082,0.999995,0.000270,-0.004622,0.010058,0.000777,0.010099,-0.004663,86.977642,0.010109,
1010,740,0.984634,-14.140209,0.999995,0.000249,-0.007033,0.011344,-0.002365,0.011643,-0.007333,-82.783199,0.011773,
660,2000,0.304661,-0.306871,0.999996,0.000259,-0.001067,0.009016,-0.003877,0.010334,-0.002385,-71.220354,0.010822,
680,1050,3.788057,-9.866889,0.999998,0.000160,-0.004353,0.009408,-0.000304,0.009415,-0.004360,-88.737154,0.009423,
560,1550,2.926688,-5.196369,0.999992,0.000000,-0.005143,0.010001,0.000056,0.010001,-0.005143,89.787084,0.010003,
680,570,2.509194,-14.667809,0.999996,0.000220,-0.005220,0.010290,-0.000009,0.010290,-0.005220,-89.964981,0.010290,
840,620,1.772266,-14.651331,0.999996,0.000213,-0.005899,0.010754,-0.000430,0.010765,-0.005910,-88.523220,0.010782,
1150,1390,0.201413,-4.409509,0.999997,0.000226,-0.003102,0.006239,0.002169,0.006718,-0.003581,77.542542,0.006723,
1790,340,-1.859018,-16.995680,0.999996,0.000218,-0.004859,0.010035,-0.000017,0.010035,-0.004859,-89.935369,0.010036,
1530,1970,-0.159556,-0.442336,0.999998,0.000184,-0.000722,0.006946,0.001100,0.007100,-0.000876,81.993941,0.007743,
1200,640,0.071442,-16.037292,0.999998,0.000179,-0.002409,0.005582,-0.000750,0.005652,-0.002479,-84.681339,0.005666,
1400,1520,-0.501441,-3.791838,0.999996,0.000227,-0.003719,0.008140,-0.001399,0.008303,-0.003882,-83.361176,0.008309,
1080,1350,0.492195,-5.128456,0.999995,0.000243,-0.005199,0.008617,0.003278,0.009355,-0.005938,77.306410,0.009468,
1270,2020,-0.007869,-0.093783,0.999999,0.000000,-0.000079,0.005968,0.000051,0.005968,-0.000079,89.516397,0.006846,
1010,530,0.715796,-16.218314,0.999997,0.000237,-0.004277,0.008912,-0.001370,0.009053,-0.004418,-84.133300,0.009054,
890,1420,1.510298,-5.481888,0.999995,0.000246,-0.006083,0.010932,0.000775,0.010968,-0.006118,87.397310,0.010992,
760,690,2.460978,-13.632824,0.999996,0.000278,-0.005748,0.010839,0.000428,0.010850,-0.005759,88.523026,0.010857,
1300,1750,-0.126185,-1.873216,0.999998,0.000159,-0.001824,0.007098,-0.000020,0.007098,-0.001824,-89.869367,0.007372,
1530,1800,-0.583763,-1.749944,0.999996,0.000231,-0.002652,0.008210,0.000455,0.008229,-0.002671,87.603561,0.008396,
1540,1270,-1.783604,-7.094066,0.999997,0.000181,-0.007205,0.012408,-0.000014,0.012408,-0.007205,-89.959781,0.012461,
1010,840,1.401602,-12.903917,0.999993,0.000306,-0.007901,0.013357,-0.001448,0.013456,-0.007999,-86.121086,0.013535,
1250,1290,-0.036066,-4.626433,0.999998,0.000176,-0.002229,0.002827,-0.001045,0.003034,-0.002436,-78.773684,0.003214,
760,200,0.929467,-18.624577,0.999997,0.000198,-0.003410,0.009512,0.001464,0.009676,-0.003574,83.614705,0.009786,
1700,1620,-1.704657,-3.837374,0.999996,0.000229,-0.004971,0.010114,-0.000227,0.010117,-0.004975,-89.139133,0.010118,
1470,1060,-2.516659,-9.597020,0.999993,0.000306,-0.004786,0.014954,0.000176,0.014956,-0.004787,89.488549,0.015275,
1510,1520,-0.981980,-4.199482,0.999997,0.000224,-0.004793,0.009557,-0.001154,0.009649,-0.004885,-85.430460,0.009649,
1450,1570,-0.662269,-3.531639,0.999995,0.000254,-0.004052,0.008693,-0.001159,0.008797,-0.004157,-84.846909,0.008802,
1750,350,-1.699550,-17.023193,0.999994,0.000269,-0.004831,0.010037,-0.000041,0.010037,-0.004831,-89.843631,0.010040,
1210,40,0.004409,-20.036971,0.999999,0.000140,-0.000165,0.005982,0.000018,0.005982,-0.000165,89.829426,0.006814,
1310,800,-0.258378,-15.015958,0.999992,0.000339,-0.004162,0.004918,0.003829,0.006317,-0.005561,69.926757,0.006900,
1310,650,-0.195126,-15.854464,0.999997,0.000211,-0.002982,0.006265,0.001914,0.006646,-0.003363,78.754591,0.006646,
1740,1550,-2.096683,-4.684306,0.999997,0.000216,-0.005151,0.010280,-0.000213,0.010283,-0.005154,-89.208422,0.010283,
860,370,1.100180,-17.238841,0.999997,0.000194,-0.004083,0.009310,-0.000120,0.009311,-0.004084,-89.484610,0.009335,
840,600,1.719667,-14.866258,0.999995,0.000237,-0.005772,0.010692,-0.000478,0.010706,-0.005786,-88.338124,0.010718,
1690,2000,-0.182001,-0.268422,0.999998,0.000186,-0.000854,0.007489,0.002167,0.008019,-0.001383,76.272823,0.008573,
560,1540,2.957400,-5.299031,0.999995,0.000000,-0.005088,0.010111,0.000017,0.010111,-0.005088,89.934765,0.010111,
660,510,2.433834,-15.222792,0.999996,0.000268,-0.005165,0.010219,-0.000130,0.010220,-0.005167,-89.516362,0.010220,
840,170,0.569932,-19.006624,0.999997,0.000220,-0.002198,0.008374,0.001377,0.008551,-0.002374,82.698786,0.008828,
630,650,3.024576,-13.694133,0.999997,0.000213,-0.005084,0.010200,0.000226,0.010203,-0.005087,89.151439,0.010203,
1780,1800,-1.496350,-2.273263,0.999997,0.000238,-0.004696,0.010090,0.000623,0.010116,-0.004723,87.591670,0.010123,
1490,1750,-0.564079,-2.091446,0.999997,0.000204,-0.002939,0.008172,0.000028,0.008172,-0.002939,89.853737,0.008279,
1550,1140,-2.531291,-8.770059,0.999994,0.000278,-0.005386,0.012144,0.001455,0.012264,-0.005506,85.287728,0.012286,
650,2000,0.312839,-0.310224,0.999995,0.000277,-0.001840,0.009165,-0.003604,0.010240,-0.002915,-73.387631,0.010552,
1350,750,-0.360739,-14.934954,0.999996,0.000265,-0.004980,0.007535,0.004012,0.008711,-0.006155,73.668477,0.008955,
660,1050,3.875388,-9.870045,0.999997,0.000189,-0.004352,0.009287,-0.000311,0.009294,-0.004359,-88.694374,0.009300,
1050,470,0.516273,-16.861595,0.999996,0.000245,-0.003400,0.008135,-0.000965,0.008215,-0.003480,-85.250209,0.008247,
1280,30,-0.006510,-20.093938,0.999999,0.000000,0.000066,0.005917,-0.000126,0.005920,0.000063,-88.768406,0.006872,
1850,320,-2.086935,-16.990089,0.999998,0.000201,-0.004857,0.009950,0.000056,0.009950,-0.004857,89.781562,0.009951,
630,80,0.607730,-19.534447,0.999996,0.000239,-0.004193,0.010726,0.002726,0.011209,-0.004676,79.963977,0.011260,
1150,1370,0.197227,-4.529409,0.999997,0.000212,-0.003187,0.006051,0.002490,0.006679,-0.003815,75.836912,0.006702,
1890,1800,-2.022632,-2.686082,0.999997,0.000204,-0.004841,0.009679,0.000096,0.009680,-0.004841,89.621035,0.009680,
950,1300,1.464317,-6.583121,0.999995,0.000255,-0.007271,0.012219,0.000890,0.012260,-0.007312,87.391498,0.012336,
1830,1150,-3.843246,-8.962592,0.999995,0.000261,-0.004459,0.009163,0.000521,0.009183,-0.004479,87.812949,0.009184,
1200,620,0.073104,-16.150445,0.999998,0.000178,-0.002440,0.005846,-0.000670,0.005900,-0.002494,-85.410470,0.005924,
1240,1410,-0.019002,-4.122892,0.999998,0.000149,-0.002229,0.005335,-0.000288,0.005346,-0.002240,-87.825649,0.005370,
1010,510,0.698666,-16.396136,0.999996,0.000234,-0.004173,0.008820,-0.001275,0.008944,-0.004297,-84.447679,0.008946,
1760,1270,-3.126639,-7.672472,0.999997,0.000200,-0.005230,0.010284,0.000901,0.010336,-0.005282,86.687947,0.010337,
1570,1210,-2.280983,-7.959076,0.999994,0.000300,-0.006458,0.012248,0.001107,0.012313,-0.006524,86.624378,0.012321,
1700,1640,-1.650624,-3.634131,0.999996,0.000231,-0.004849,0.010036,-0.000174,0.010038,-0.004851,-89.328685,0.010040,
1440,910,-1.815072,-12.037156,0.999989,0.000391,-0.006738,0.014579,0.001197,0.014646,-0.006805,86.795743,0.014658,
740,690,2.575260,-13.579837,0.999993,0.000359,-0.005667,0.010717,0.000457,0.010730,-0.005680,88.404636,0.010736,
1200,40,0.006352,-20.036842,0.999999,0.000117,-0.000129,0.005983,0.000048,0.005983,-0.000130,89.550396,0.006835,
1660,560,-1.822102,-15.164568,0.999996,0.000244,-0.005461,0.010457,0.000342,0.010465,-0.005468,88.768366,0.010468,
1580,1770,-0.800981,-2.084515,0.999997,0.000202,-0.003549,0.008824,0.000315,0.008832,-0.003557,88.542609,0.008888,
1720,650,-2.421237,-14.016825,0.999995,0.000279,-0.005620,0.010626,-0.000235,0.010629,-0.005623,-89.171440,0.010635,
1450,1550,-0.682289,-3.708491,0.999995,0.000278,-0.004184,0.008783,-0.001280,0.008908,-0.004309,-84.416050,0.008910,
1250,800,-0.054979,-15.448098,0.999996,0.000253,-0.003149,0.002245,0.001079,0.002453,-0.003357,79.095832,0.003474,
750,1170,3.238227,-8.646021,0.999996,0.000236,-0.004949,0.010386,-0.001179,0.010476,-0.005039,-85.630391,0.010479,
1310,630,-0.200129,-15.976655,0.999997,0.000210,-0.002934,0.006404,0.001700,0.006704,-0.003234,79.997921,0.006705,
1620,870,-2.699933,-11.791789,0.999993,0.000315,-0.005594,0.011442,-0.001415,0.011559,-0.005710,-85.284975,0.011559,
1750,330,-1.634979,-17.226804,0.999995,0.000250,-0.004790,0.010040,-0.000079,0.010040,-0.004790,-89.696009,0.010044,
870,1970,0.215326,-0.462302,0.999997,0.000209,-0.001170,0.007261,-0.001436,0.007499,-0.001408,-80.596336,0.007971,
1400,1530,-0.498127,-3.712297,0.999997,0.000213,-0.003635,0.008103,-0.001311,0.008247,-0.003779,-83.702903,0.008257,
1650,410,-1.400845,-16.725612,0.999996,0.000232,-0.004684,0.009856,0.000210,0.009859,-0.004687,89.172298,0.009863,
1250,1270,-0.045984,-4.677044,0.999997,0.000218,-0.002652,0.002430,-0.001144,0.002676,-0.002898,-77.879885,0.003226,
1490,1730,-0.600454,-2.260777,0.999996,0.000221,-0.003140,0.008429,-0.000100,0.008430,-0.003141,-89.504920,0.008520,
730,1620,1.868557,-3.943769,0.999995,0.000283,-0.004970,0.010072,0.000191,0.010075,-0.004972,89.274096,0.010075,
1340,430,-0.270796,-17.329514,0.999998,0.000192,-0.002730,0.007436,0.000609,0.007473,-0.002767,86.582871,0.007556,
620,970,4.018506,-10.593625,0.999996,0.000238,-0.004247,0.008796,0.000122,0.008798,-0.004248,89.462521,0.008799,
840,1170,2.782450,-8.545421,0.999996,0.000268,-0.005354,0.011311,-0.001399,0.011428,-0.005470,-85.232850,0.011431,
1350,730,-0.345310,-15.081002,0.999996,0.000283,-0.004674,0.007449,0.003744,0.008512,-0.005737,74.148959,0.008682,
630,630,2.958750,-13.899104,0.999997,0.000202,-0.005093,0.010175,0.000159,0.010176,-0.005095,89.403495,0.010176,
790,750,2.508041,-13.046830,0.999994,0.000285,-0.005958,0.011118,0.000739,0.011150,-0.005990,87.527967,0.011160,
750,2010,0.152453,-0.201637,0.999997,0.000225,-0.000335,0.007593,-0.002514,0.008323,-0.001065,-73.805161,0.009059,
1860,2010,-0.399094,-0.362487,0.999970,0.000611,-0.002980,0.010310,0.003971,0.011407,-0.004076,74.567949,0.011560,
840,580,1.664903,-15.081829,0.999996,0.000238,-0.005623,0.010554,-0.000491,0.010569,-0.005638,-88.263707,0.010577,
1530,1990,-0.103558,-0.300800,0.999998,0.000184,-0.000490,0.006788,0.001108,0.006953,-0.000655,81.533138,0.007679,
1150,1350,0.196496,-4.652678,0.999996,0.000221,-0.003280,0.005869,0.002848,0.006683,-0.004094,74.046085,0.006740,
1000,1750,0.494352,-2.054707,0.999997,0.000189,-0.002471,0.007972,-0.000074,0.007973,-0.002472,-89.593149,0.008162,
1890,910,-4.114647,-11.064744,0.999997,0.000197,-0.004264,0.008563,-0.000270,0.008569,-0.004270,-88.796823,0.008569,
1400,1500,-0.506547,-3.953023,0.999997,0.000229,-0.003912,0.008217,-0.001613,0.008428,-0.004123,-82.551165,0.008429,
1870,600,-3.048869,-14.092014,0.999995,0.000266,-0.005046,0.010146,-0.000038,0.010146,-0.005046,-89.857505,0.010146,
1880,50,-0.512798,-19.696937,0.999958,0.000819,-0.002085,0.012916,-0.005730,0.014855,-0.004024,-71.311268,0.015366,
1050,450,0.503953,-17.022139,0.999996,0.000227,-0.003317,0.008068,-0.000854,0.008132,-0.003381,-85.733167,0.008170,
1830,1130,-3.887136,-9.145919,0.999996,0.000239,-0.004452,0.009223,0.000597,0.009249,-0.004478,87.503724,0.009250,
1740,1270,-3.021110,-7.636855,0.999997,0.000252,-0.005335,0.010479,0.000944,0.010535,-0.005391,86.597096,0.010536,
1450,1530,-0.696927,-3.886638,0.999996,0.000260,-0.004266,0.008834,-0.001371,0.008976,-0.004408,-84.087502,0.008977,
960,1870,0.356405,-1.156954,0.999997,0.000185,-0.002032,0.007581,-0.000641,0.007623,-0.002074,-86.204222,0.007883,
1000,1680,0.590134,-2.626882,0.999996,0.000229,-0.003080,0.008354,0.000335,0.008363,-0.003090,88.325030,0.008458,
1310,610,-0.204608,-16.106401,0.999997,0.000201,-0.002910,0.006542,0.001521,0.006781,-0.003148,81.077519,0.006787,
1850,300,-2.012752,-17.191202,0.999996,0.000244,-0.004830,0.009996,-0.000035,0.009996,-0.004830,-89.862838,0.009998,
1200,600,0.076439,-16.268915,0.999998,0.000168,-0.002484,0.006072,-0.000581,0.006112,-0.002524,-86.130103,0.006142,
1190,40,0.007327,-20.036776,0.999999,0.000126,-0.000079,0.005988,0.000077,0.005989,-0.000080,89.276382,0.006870,
1800,1770,-1.714548,-2.641937,0.999998,0.000192,-0.004766,0.010128,0.000361,0.010136,-0.004775,88.612150,0.010142,
1570,1190,-2.385067,-8.205271,0.999995,0.000279,-0.006184,0.012175,0.001280,0.012264,-0.006273,86.029537,0.012265,
750,1130,3.358057,-9.056872,0.999997,0.000219,-0.004612,0.010011,-0.000893,0.010065,-0.004666,-86.516518,0.010074,
1450,1660,-0.573347,-2.768119,0.999996,0.000262,-0.003108,0.008248,-0.000463,0.008267,-0.003126,-87.667650,0.008348,
1750,310,-1.568748,-17.429287,0.999996,0.000253,-0.004758,0.010026,-0.000193,0.010029,-0.004760,-89.251981,0.010033,
1380,1530,-0.427280,-3.650114,0.999997,0.000215,-0.003575,0.007888,-0.001431,0.008064,-0.003751,-82.990699,0.008070,
1720,670,-2.488493,-13.801998,0.999993,0.000317,-0.005652,0.010656,-0.000358,0.010664,-0.005660,-88.743111,0.010670,
560,1530,2.985427,-5.400765,0.999995,0.000000,-0.005059,0.010206,-0.000025,0.010207,-0.005060,-89.907409,0.010207,
860,350,1.052346,-17.425781,0.999998,0.000142,-0.003935,0.009356,0.000013,0.009356,-0.003935,89.941823,0.009395,
870,1950,0.277512,-0.606936,0.999997,0.000209,-0.001530,0.007527,-0.001417,0.007743,-0.001746,-81.313475,0.008123,
1660,540,-1.767675,-15.374124,0.999996,0.000230,-0.005362,0.010367,0.000367,0.010376,-0.005371,88.664821,0.010378,
1060,490,0.492216,-16.723141,0.999995,0.000259,-0.003473,0.008100,-0.001107,0.008205,-0.003578,-84.584407,0.008227,
1250,1250,-0.061010,-4.719038,0.999996,0.000238,-0.003466,0.002127,-0.001050,0.002318,-0.003657,-79.709166,0.003700,
740,670,2.505889,-13.793380,0.999993,0.000320,-0.005635,0.010629,0.000348,0.010636,-0.005643,88.774661,0.010643,
1600,870,-2.585503,-11.828103,0.999991,0.000358,-0.005757,0.011688,-0.001392,0.011798,-0.005867,-85.465000,0.011798,
1490,1710,-0.632336,-2.427867,0.999996,0.000213,-0.003361,0.008416,-0.000289,0.008423,-0.003369,-88.597494,0.008479,
1430,460,-0.565674,-16.901165,0.999996,0.000229,-0.003468,0.008289,0.000879,0.008354,-0.003534,85.746977,0.008387,
1350,710,-0.338601,-15.234112,0.999995,0.000274,-0.004398,0.007336,0.003395,0.008247,-0.005310,74.972611,0.008360,
1320,1180,-0.900571,-5.598524,0.999997,0.000000,-0.003483,0.003727,-0.002202,0.004346,-0.004103,-74.291275,0.004884,
1700,1660,-1.595089,-3.433498,0.999997,0.000224,-0.004710,0.009967,-0.000111,0.009968,-0.004711,-89.568341,0.009973,
1730,1140,-3.411304,-8.968330,0.999994,0.000274,-0.004660,0.009935,0.000894,0.009990,-0.004714,86.508999,0.009995,
1480,170,-0.281859,-19.133255,0.999998,0.000189,-0.001522,0.007315,-0.000686,0.007368,-0.001575,-85.585319,0.007760,
1780,1780,-1.581151,-2.474351,0.999997,0.000224,-0.004768,0.010093,0.000417,0.010105,-0.004780,88.392414,0.010109,
1890,900,-4.091354,-11.150788,0.999997,0.000184,-0.004271,0.008533,-0.000210,0.008536,-0.004274,-89.060335,0.008536,
790,730,2.432428,-13.269750,0.999995,0.000245,-0.006009,0.011123,0.000601,0.011144,-0.006030,87.992200,0.011157,
980,1750,0.544447,-2.081994,0.999997,0.000211,-0.002832,0.008150,-0.000034,0.008150,-0.002832,-89.822979,0.008276,
1850,600,-2.948046,-14.153478,0.999995,0.000262,-0.005058,0.010137,-0.000081,0.010137,-0.005058,-89.695153,0.010137,
960,1850,0.404173,-1.312430,0.999996,0.000266,-0.002223,0.007726,-0.000557,0.007757,-0.002254,-86.803804,0.007981,
630,610,2.894590,-14.102595,0.999997,0.000214,-0.005137,0.010200,0.000142,0.010201,-0.005138,89.471422,0.010201,
1310,590,-0.204556,-16.237344,0.999997,0.000201,-0.002923,0.006718,0.001377,0.006911,-0.003115,82.029105,0.006922,
1450,1510,-0.714774,-4.062634,0.999997,0.000226,-0.004350,0.008901,-0.001440,0.009056,-0.004504,-83.867408,0.009056,
1540,60,-0.097036,-19.889210,0.999998,0.000177,-0.000343,0.006742,-0.001144,0.006922,-0.000524,-81.050942,0.007709,
1480,1070,-2.526215,-9.478088,0.999993,0.000291,-0.004599,0.013974,0.000482,0.013986,-0.004612,88.514503,0.014254,
1050,430,0.487144,-17.185872,0.999997,0.000211,-0.003274,0.008070,-0.000770,0.008122,-0.003326,-86.136773,0.008167,
1400,1480,-0.516274,-4.119043,0.999995,0.000261,-0.004141,0.008306,-0.001843,0.008573,-0.004408,-81.750652,0.008574,
1170,1240,0.241504,-5.030139,0.999995,0.000228,-0.004031,0.003643,0.002985,0.004668,-0.005055,71.059986,0.005627,
1780,1770,-1.619282,-2.576866,0.999996,0.000225,-0.004793,0.010097,0.000328,0.010104,-0.004801,88.740363,0.010109,
750,2000,0.203784,-0.277689,0.999998,0.000187,-0.000634,0.007694,-0.002493,0.008383,-0.001323,-74.545539,0.009014,
1010,490,0.681261,-16.573948,0.999996,0.000253,-0.004085,0.008751,-0.001180,0.008859,-0.004193,-84.791854,0.008863,
1570,1170,-2.484723,-8.444869,0.999994,0.000320,-0.005842,0.012062,0.001450,0.012178,-0.005959,85.399734,0.012179,
660,490,2.376823,-15.427273,0.999997,0.000238,-0.005120,0.010221,-0.000150,0.010223,-0.005122,-89.438363,0.010223,
1300,1470,-0.175052,-3.860423,0.999998,0.000188,-0.002897,0.006605,-0.001268,0.006771,-0.003063,-82.528592,0.006781,
1090,1950,0.075078,-0.534882,0.999998,0.000169,-0.000496,0.006461,-0.000413,0.006486,-0.000521,-86.611346,0.007207,
900,850,2.259869,-12.162098,0.999994,0.000277,-0.006453,0.012357,0.001111,0.012422,-0.006519,86.632555,0.012427,
1750,290,-1.495321,-17.629931,0.999995,0.000253,-0.004730,0.010021,-0.000319,0.010028,-0.004737,-88.761395,0.010033,
930,300,0.691556,-18.027714,0.999996,0.000238,-0.003019,0.008474,0.000186,0.008477,-0.003022,89.074210,0.008593,
710,970,3.630140,-10.635172,0.999994,0.000271,-0.004401,0.009642,0.000444,0.009656,-0.004415,88.192753,0.009668,
1660,520,-1.719147,-15.583217,0.999996,0.000208,-0.005231,0.010342,0.000393,0.010352,-0.005241,88.555441,0.010352,
750,590,2.194465,-14.677223,0.999995,0.000253,-0.005477,0.010574,-0.000069,0.010575,-0.005477,-89.753259,0.010577,
1300,1200,-0.570526,-5.243650,0.999995,0.000259,-0.005155,0.003142,-0.000842,0.003226,-0.005240,-84.261564,0.005287,
630,560,2.736277,-14.616992,0.999996,0.000233,-0.005118,0.010223,-0.000031,0.010223,-0.005118,-89.884992,0.010223,
920,160,0.367521,-19.161909,0.999997,0.000225,-0.001599,0.007684,0.001067,0.007805,-0.001720,83.527161,0.008202,
1650,630,-1.956484,-14.450529,0.999996,0.000223,-0.005832,0.010855,0.000172,0.010857,-0.005833,89.410274,0.010867,
840,780,2.321565,-12.833843,0.999993,0.000293,-0.006372,0.011637,0.000783,0.011671,-0.006406,87.514069,0.011690,
1150,230,0.112538,-18.810476,0.999998,0.000177,-0.001446,0.006868,0.000081,0.006869,-0.001446,89.442302,0.007242,
1540,830,-2.003506,-12.493703,0.999994,0.000282,-0.006986,0.012742,-0.000603,0.012760,-0.007004,-88.251445,0.012780,
1350,690,-0.331739,-15.384524,0.999996,0.000244,-0.004127,0.007310,0.003045,0.008070,-0.004888,75.981699,0.008130,
960,40,0.043625,-20.024812,0.999998,0.000190,-0.000416,0.006379,0.000815,0.006476,-0.000512,83.257602,0.007200,
1160,1550,0.183455,-3.311594,0.999996,0.000226,-0.002815,0.007073,0.000790,0.007135,-0.002878,85.460462,0.007180,
1200,580,0.076983,-16.391221,0.999998,0.000158,-0.002507,0.006283,-0.000517,0.006313,-0.002537,-86.644060,0.006354,
1430,480,-0.580474,-16.735368,0.999996,0.000225,-0.003647,0.008416,0.001051,0.008507,-0.003737,85.058472,0.008528,
1830,1110,-3.932246,-9.331292,0.999996,0.000243,-0.004382,0.009179,0.000505,0.009198,-0.004400,87.868229,0.009200,
1670,1800,-1.028109,-1.988524,0.999997,0.000199,-0.004014,0.009367,0.000654,0.009399,-0.004046,87.209641,0.009430,
1890,890,-4.069968,-11.236756,0.999998,0.000154,-0.004274,0.008524,-0.000141,0.008525,-0.004276,-89.368887,0.008525,
1490,1690,-0.663658,-2.599453,0.999997,0.000198,-0.003526,0.008523,-0.000421,0.008537,-0.003541,-88.000589,0.008579,
1450,1490,-0.728764,-4.238912,0.999996,0.000244,-0.004544,0.009053,-0.001614,0.009242,-0.004733,-83.322830,0.009243,
1310,570,-0.207693,-16.376823,0.999998,0.000180,-0.002933,0.006853,0.001267,0.007015,-0.003094,82.739199,0.007031,
730,700,2.666759,-13.445537,0.999994,0.000308,-0.005629,0.010691,0.000522,0.010708,-0.005646,88.171362,0.010713,
1220,1750,0.022013,-1.854420,0.999998,0.000206,-0.001907,0.006992,0.000082,0.006993,-0.001908,89.473242,0.007229,
870,1930,0.348177,-0.763916,0.999997,0.000214,-0.001777,0.007705,-0.001364,0.007898,-0.001969,-81.976668,0.008222,
1260,1410,-0.064658,-4.144525,0.999998,0.000186,-0.002337,0.005452,-0.000715,0.005517,-0.002402,-84.800592,0.005532,
940,1170,2.199494,-8.310418,0.999995,0.000249,-0.006378,0.012918,-0.001141,0.012985,-0.006445,-86.627983,0.012985,
1700,1680,-1.539479,-3.234226,0.999996,0.000246,-0.004575,0.009863,0.000009,0.009863,-0.004575,89.964014,0.009872,
630,590,2.827980,-14.308879,0.999997,0.000222,-0.005134,0.010197,0.000080,0.010197,-0.005134,89.699925,0.010197,
1010,1060,2.432336,-9.535710,0.999988,0.000433,-0.005680,0.016520,0.000399,0.016527,-0.005687,88.971355,0.016793,
590,750,3.568736,-12.577611,0.999996,0.000259,-0.004997,0.009811,0.000264,0.009816,-0.005001,88.979380,0.009816,
710,50,0.209442,-19.910801,0.999997,0.000236,-0.001379,0.008228,0.003092,0.009138,-0.002288,73.615184,0.009510,
1010,450,0.640234,-16.926220,0.999996,0.000241,-0.003746,0.008507,-0.000908,0.008574,-0.003813,-85.782755,0.008591,
960,1300,1.390211,-6.526303,0.999994,0.000302,-0.007295,0.012184,0.001061,0.012242,-0.007352,86.892810,0.012324,
1350,670,-0.330312,-15.525404,0.999996,0.000248,-0.003940,0.007373,0.002756,0.008009,-0.004576,77.012507,0.008036,
560,1520,3.014815,-5.502537,0.999996,0.000000,-0.005052,0.010193,-0.000010,0.010193,-0.005052,-89.962316,0.010194,
1570,1150,-2.590196,-8.692574,0.999995,0.000287,-0.005432,0.011904,0.001490,0.012031,-0.005559,85.124396,0.012043,
670,630,2.750106,-14.015030,0.999995,0.000280,-0.005259,0.010250,0.000222,0.010253,-0.005262,89.179456,0.010254,
670,1560,2.339969,-4.750985,0.999995,0.000259,-0.005133,0.010198,0.000158,0.010199,-0.005135,89.410199,0.010199,
1400,1460,-0.524261,-4.288635,0.999995,0.000260,-0.004340,0.008410,-0.002081,0.008741,-0.004671,-80.962157,0.008748,
1250,1230,-0.088698,-4.754699,0.999994,0.000281,-0.005143,0.002549,-0.000517,0.002584,-0.005177,-86.170950,0.005177,
1080,1230,0.771717,-6.284745,0.999991,0.000397,-0.007026,0.010547,0.003955,0.011396,-0.007876,77.882029,0.011670,
1490,1670,-0.696431,-2.775751,0.999997,0.000220,-0.003667,0.008638,-0.000494,0.008658,-0.003686,-87.705451,0.008690,
1170,1220,0.338053,-5.096003,0.999984,0.000443,-0.004624,0.003548,0.001818,0.003934,-0.005010,78.006871,0.005275,
1690,1320,-2.550406,-6.987357,0.999995,0.000255,-0.005856,0.010960,0.000681,0.010987,-0.005883,87.684432,0.010996,
1310,550,-0.206151,-16.512836,0.999997,0.000191,-0.002941,0.006944,0.001157,0.007077,-0.003074,83.410189,0.007097,
730,680,2.596108,-13.658759,0.999994,0.000304,-0.005621,0.010611,0.000408,0.010621,-0.005631,88.561426,0.010628,
1430,1660,-0.511189,-2.728244,0.999996,0.000276,-0.003107,0.008088,-0.000543,0.008114,-0.003133,-87.229562,0.008184,
1780,1760,-1.656754,-2.679222,0.999997,0.000198,-0.004807,0.010070,0.000275,0.010075,-0.004812,88.941136,0.010079,
790,710,2.356368,-13.495261,0.999995,0.000293,-0.006012,0.011097,0.000453,0.011109,-0.006024,88.483367,0.011122,
1240,230,-0.011937,-18.824610,0.999997,0.000185,-0.001451,0.006754,0.000016,0.006754,-0.001451,89.890391,0.007111,
1320,1170,-1.032285,-5.640757,0.999992,0.000000,-0.003006,0.003605,-0.002548,0.004473,-0.003874,-71.188015,0.004856,
1050,850,1.154427,-13.198570,0.999993,0.000317,-0.007484,0.012474,-0.002754,0.012847,-0.007857,-82.286076,0.012953,
650,1980,0.488324,-0.507377,0.999995,0.000289,-0.002374,0.010134,-0.003644,0.011118,-0.003358,-74.884195,0.011405,
810,1460,1.875760,-5.342691,0.999995,0.000248,-0.005654,0.010679,0.000291,0.010684,-0.005659,88.979812,0.010691,
990,1940,0.166951,-0.629871,0.999998,0.000176,-0.000821,0.006938,-0.000800,0.007020,-0.000903,-84.174812,0.007638,
1060,470,0.481698,-16.887298,0.999996,0.000243,-0.003410,0.008048,-0.001024,0.008139,-0.003501,-84.932200,0.008166,
1540,810,-1.899212,-12.749624,0.999992,0.000314,-0.007128,0.012613,-0.000321,0.012618,-0.007133,-89.068642,0.012654,
1260,590,-0.069432,-16.333017,0.999998,0.000192,-0.002462,0.006173,0.000529,0.006205,-0.002495,86.504488,0.006244,
710,1620,1.967047,-4.007397,0.999997,0.000211,-0.004963,0.010116,0.000217,0.010120,-0.004966,89.174319,0.010120,
1750,270,-1.418781,-17.832477,0.999996,0.000247,-0.004682,0.009988,-0.000497,0.010004,-0.004699,-88.060409,0.010011,
1240,170,-0.009341,-19.224190,0.999999,0.000145,-0.001040,0.006532,0.000026,0.006532,-0.001040,89.801390,0.007019,
1150,1330,0.198179,-4.772178,0.999996,0.000238,-0.003387,0.005673,0.003182,0.006679,-0.004393,72.457292,0.006789,
950,40,0.048924,-20.023617,0.999998,0.000203,-0.000307,0.006414,0.000871,0.006525,-0.000418,82.733814,0.007305,
750,570,2.136610,-14.888720,0.999995,0.000243,-0.005448,0.010465,-0.000134,0.010466,-0.005449,-89.518249,0.010469,
1540,500,-1.071388,-16.189582,0.999997,0.000222,-0.004682,0.009547,0.000883,0.009602,-0.004737,86.460788,0.009602,
810,780,2.507010,-12.758256,0.999994,0.000302,-0.006037,0.011309,0.000884,0.011354,-0.006082,87.088730,0.011363,
600,970,4.102831,-10.578583,0.999996,0.000250,-0.004184,0.008534,0.000070,0.008534,-0.004185,89.684044,0.008535,
1230,100,0.000637,-19.673163,0.999998,0.000165,-0.000550,0.006194,-0.000008,0.006194,-0.000550,-89.936191,0.006857,
1660,500,-1.671051,-15.788630,0.999994,0.000266,-0.005152,0.010241,0.000382,0.010251,-0.005161,88.579304,0.010251,
710,950,3.595540,-10.831660,0.999995,0.000261,-0.004500,0.009803,0.000771,0.009844,-0.004542,86.923108,0.009854,
1200,560,0.079426,-16.520883,0.999997,0.000184,-0.002525,0.006438,-0.000466,0.006462,-0.002549,-87.031302,0.006510,
1080,2000,0.032617,-0.218380,0.999998,0.000167,-0.000181,0.006170,-0.000418,0.006197,-0.000208,-86.253967,0.007039,
930,560,1.132857,-15.628106,0.999996,0.000247,-0.005264,0.010060,-0.001116,0.010141,-0.005345,-85.857490,0.010146,
920,1170,2.325010,-8.378057,0.999995,0.000282,-0.006153,0.012522,-0.001306,0.012613,-0.006244,-86.019490,0.012614,
870,1910,0.411124,-0.917665,0.999996,0.000225,-0.002112,0.007940,-0.001274,0.008098,-0.002271,-82.889633,0.008355,
630,570,2.765728,-14.512582,0.999996,0.000226,-0.005131,0.010211,0.000001,0.010211,-0.005131,89.996331,0.010211,
1090,1930,0.099130,-0.666778,0.999998,0.000183,-0.000671,0.006552,-0.000411,0.006575,-0.000695,-86.753526,0.007225,
1200,1750,0.058958,-1.861838,0.999998,0.000165,-0.001855,0.006999,0.000096,0.007000,-0.001856,89.375943,0.007253,
1060,1430,0.551592,-4.563088,0.999998,0.000185,-0.004600,0.008562,0.002336,0.008965,-0.005002,80.227295,0.008985,
1650,390,-1.350891,-16.923936,0.999996,0.000230,-0.004626,0.009823,0.000137,0.009824,-0.004627,89.455269,0.009830,
1710,190,-0.907801,-18.711890,0.999996,0.000222,-0.003201,0.009455,-0.001609,0.009656,-0.003403,-82.865809,0.009795,
1140,1550,0.241700,-3.351763,0.999997,0.000201,-0.002919,0.007255,0.000942,0.007341,-0.003005,84.756232,0.007381,
710,40,0.148575,-19.989907,0.999998,0.000207,-0.001086,0.008009,0.003098,0.008965,-0.002041,72.865490,0.009397,
1830,1090,-3.961257,-9.515581,0.999997,0.000220,-0.004308,0.008974,0.000201,0.008977,-0.004311,89.133045,0.008979,
580,750,3.616560,-12.547737,0.999995,0.000268,-0.005526,0.010043,0.000129,0.010044,-0.005527,89.523751,0.010061,
560,1510,3.046250,-5.607781,0.999996,0.000000,-0.005025,0.010214,-0.000019,0.010215,-0.005025,-89.929428,0.010215,
1830,200,-1.462416,-18.285981,0.999995,0.000270,-0.004750,0.010255,-0.000671,0.010285,-0.004780,-87.445475,0.010294,
1040,970,2.132940,-11.272852,0.999986,0.000435,-0.007517,0.018720,-0.003529,0.019186,-0.007984,-82.470933,0.019276,
1070,900,1.426288,-12.879628,0.999986,0.000445,-0.005286,0.011709,-0.005119,0.013132,-0.006709,-74.467385,0.013133,
1350,650,-0.334283,-15.673376,0.999996,0.000266,-0.003792,0.007344,0.002499,0.007879,-0.004327,77.916103,0.007892,
1890,1750,-2.225885,-3.169527,0.999996,0.000249,-0.004831,0.009726,-0.000041,0.009726,-0.004831,-89.837764,0.009726,
1490,1650,-0.725971,-2.948519,0.999996,0.000244,-0.003753,0.008690,-0.000588,0.008718,-0.003781,-87.299926,0.008743,
1010,430,0.616807,-17.096080,0.999997,0.000240,-0.003503,0.008421,-0.000738,0.008467,-0.003549,-86.469750,0.008503,
1620,1530,-1.521066,-4.492995,0.999994,0.000294,-0.005302,0.010267,-0.000557,0.010287,-0.005322,-87.952196,0.010289,
1400,1680,-0.398753,-2.502436,0.999996,0.000223,-0.002879,0.007900,-0.000435,0.007917,-0.002896,-87.691162,0.008012,
960,1720,0.662082,-2.377803,0.999997,0.000212,-0.003402,0.008608,0.000174,0.008610,-0.003404,89.172121,0.008673,
1300,1720,-0.137862,-2.088151,0.999998,0.000172,-0.002008,0.007131,-0.000042,0.007131,-0.002009,-89.736414,0.007354,
1150,1220,0.424126,-5.347473,0.999991,0.000365,-0.004458,0.004628,0.003000,0.005530,-0.005359,73.280704,0.006289,
1570,1130,-2.678143,-8.924193,0.999996,0.000250,-0.004988,0.011616,0.001459,0.011743,-0.005115,85.015958,0.011776,
670,610,2.685647,-14.222233,0.999996,0.000277,-0.005230,0.010309,0.000144,0.010310,-0.005232,89.470603,0.010311,
1780,1740,-1.732687,-2.878333,0.999997,0.000197,-0.004835,0.010027,0.000130,0.010028,-0.004837,89.500572,0.010030,
1750,250,-1.333146,-18.031744,0.999997,0.000243,-0.004605,0.009941,-0.000644,0.009969,-0.004633,-87.470921,0.009977,
1150,1290,0.211352,-4.991881,0.999995,0.000265,-0.003827,0.005408,0.003758,0.006744,-0.005163,70.427880,0.007054,
1250,830,-0.097278,-15.388759,0.999992,0.000336,-0.005752,0.002753,0.000301,0.002763,-0.005762,87.976744,0.005764,
1220,230,0.016272,-18.824133,0.999998,0.000187,-0.001443,0.006756,-0.000035,0.006756,-0.001443,-89.753548,0.007116,
1050,870,1.305052,-12.944195,0.999992,0.000337,-0.007189,0.013076,-0.002814,0.013460,-0.007572,-82.240294,0.013495,
940,40,0.051642,-20.021671,0.999998,0.000174,-0.000190,0.006444,0.000957,0.006580,-0.000325,81.954768,0.007417,
840,1020,3.135123,-10.156937,0.999996,0.000249,-0.003838,0.010424,0.000181,0.010427,-0.003841,89.274503,0.010546,
1540,480,-1.043026,-16.380796,0.999996,0.000227,-0.004539,0.009512,0.000815,0.009559,-0.004586,86.690601,0.009561,
1430,100,-0.108362,-19.644609,0.999998,0.000188,-0.000736,0.006632,-0.000573,0.006677,-0.000780,-85.575941,0.007301,
790,690,2.285983,-13.718798,0.999995,0.000277,-0.005958,0.011012,0.000297,0.011017,-0.005963,88.997564,0.011029,
1360,170,-0.132217,-19.194701,0.999997,0.000215,-0.001065,0.006755,-0.000283,0.006765,-0.001075,-87.931206,0.007271,
900,1170,2.443700,-8.430526,0.999995,0.000282,-0.005919,0.012154,-0.001406,0.012262,-0.006028,-85.577071,0.012263,
1660,570,-1.847961,-15.059122,0.999996,0.000241,-0.005499,0.010478,0.000320,0.010485,-0.005505,88.854704,0.010489,
1090,1910,0.116554,-0.797259,0.999998,0.000159,-0.000809,0.006677,-0.000362,0.006694,-0.000827,-87.237396,0.007299,
1070,1620,0.425539,-2.966673,0.999997,0.000199,-0.003277,0.007915,0.000870,0.007982,-0.003344,85.580040,0.008017,
1050,840,1.083746,-13.318147,0.999994,0.000272,-0.007610,0.012259,-0.002786,0.012642,-0.007994,-82.166513,0.012789,
1320,880,-0.966861,-14.544068,0.999975,0.000000,-0.003232,0.003367,0.002516,0.004217,-0.004082,71.334839,0.004793,
710,930,3.550162,-11.027522,0.999996,0.000245,-0.004584,0.009755,0.000791,0.009799,-0.004627,86.853637,0.009804,
790,1460,1.986910,-5.408929,0.999997,0.000184,-0.005601,0.010651,0.000174,0.010653,-0.005603,89.387263,0.010657,
1070,2000,0.034054,-0.218717,0.999998,0.000177,-0.000242,0.006189,-0.000437,0.006218,-0.000272,-86.129657,0.007029,
1200,1380,0.067138,-4.303578,0.999997,0.000199,-0.002307,0.005013,0.001006,0.005149,-0.002443,82.315391,0.005151,
880,160,0.441708,-19.128512,0.999997,0.000229,-0.002230,0.007978,0.001146,0.008105,-0.002357,83.670670,0.008338,
1060,1410,0.560590,-4.731862,0.999995,0.000265,-0.004782,0.008724,0.002484,0.009166,-0.005224,79.902992,0.009196,
1560,1770,-0.732877,-2.045006,0.999998,0.000182,-0.003029,0.008665,0.000407,0.008679,-0.003044,88.009219,0.008807,
560,1500,3.073650,-5.707811,0.999994,0.000000,-0.005009,0.010231,-0.000022,0.010231,-0.005009,-89.917929,0.010232,
1830,1070,-3.974916,-9.693661,0.999997,0.000236,-0.004237,0.008960,0.000192,0.008963,-0.004240,89.166223,0.008967,
1660,720,-2.314339,-13.418815,0.999995,0.000307,-0.006081,0.011204,-0.000489,0.011218,-0.006095,-88.379309,0.011232,
1470,820,-1.423151,-13.026056,0.999993,0.000309,-0.007836,0.013025,0.001033,0.013076,-0.007887,87.173030,0.013168,
630,550,2.706896,-14.718657,0.999995,0.000253,-0.005114,0.010205,-0.000053,0.010205,-0.005114,-89.802440,0.010205,
740,510,2.021109,-15.481747,0.999997,0.000213,-0.005183,0.010288,-0.000239,0.010292,-0.005187,-89.115502,0.010292,
930,580,1.169790,-15.422692,0.999996,0.000259,-0.005434,0.010171,-0.001160,0.010256,-0.005520,-85.772658,0.010266,
1350,630,-0.335148,-15.815982,0.999996,0.000238,-0.003703,0.007314,0.002220,0.007744,-0.004133,79.024282,0.007750,
760,1530,1.958626,-4.772250,0.999996,0.000269,-0.005262,0.010376,0.000252,0.010380,-0.005266,89.077445,0.010380,
1010,410,0.597570,-17.262492,0.999997,0.000242,-0.003284,0.008336,-0.000553,0.008362,-0.003310,-87.279065,0.008423,
960,1740,0.624273,-2.202390,0.999997,0.000207,-0.003215,0.008441,0.000062,0.008442,-0.003215,89.695218,0.008521,
1400,1440,-0.536113,-4.463463,0.999996,0.000252,-0.004513,0.008444,-0.002270,0.008830,-0.004899,-80.343487,0.008848,
1120,1550,0.300416,-3.393343,0.999997,0.000176,-0.002966,0.007434,0.000936,0.007518,-0.003049,84.897735,0.007563,
1760,1690,-1.796480,-3.319623,0.999995,0.000234,-0.004866,0.010089,-0.000017,0.010089,-0.004866,-89.936023,0.010091,
1310,530,-0.206182,-16.655234,0.999997,0.000216,-0.002912,0.007038,0.001027,0.007143,-0.003016,84.169483,0.007171,
1490,1630,-0.751907,-3.123827,0.999997,0.000208,-0.003805,0.008782,-0.000668,0.008817,-0.003840,-86.971839,0.008842,
1050,890,1.466531,-12.670605,0.999991,0.000376,-0.006905,0.013413,-0.002954,0.013834,-0.007326,-81.894278,0.013842,
1150,1270,0.238797,-5.092439,0.999995,0.000275,-0.004089,0.005287,0.003991,0.006755,-0.005558,69.795486,0.007209,
1570,1110,-2.769000,-9.158335,0.999995,0.000261,-0.004593,0.011448,0.001364,0.011563,-0.004708,85.175563,0.011630,
670,590,2.622149,-14.430383,0.999996,0.000252,-0.005206,0.010328,0.000069,0.010329,-0.005206,89.745527,0.010329,
1780,1720,-1.794927,-3.080663,0.999997,0.000200,-0.004836,0.010032,0.000019,0.010032,-0.004836,89.927259,0.010034,
1850,2010,-0.358312,-0.332564,0.999995,0.000253,-0.003791,0.009643,0.003230,0.010379,-0.004528,77.159680,0.010407,
1290,100,-0.029083,-19.668824,0.999998,0.000178,-0.000396,0.006230,-0.000164,0.006234,-0.000400,-88.579874,0.006979,
1750,230,-1.247945,-18.231776,0.999995,0.000250,-0.004495,0.009910,-0.000803,0.009955,-0.004540,-86.820248,0.009968,
810,760,2.427316,-12.984418,0.999993,0.000327,-0.006111,0.011314,0.000715,0.011344,-0.006140,87.652635,0.011356,
1280,40,-0.008297,-20.036059,0.999999,0.000140,-0.000048,0.005946,-0.000102,0.005948,-0.000049,-89.024693,0.006840,
1720,1270,-2.913811,-7.598563,0.999996,0.000311,-0.005494,0.010723,0.000957,0.010779,-0.005551,86.633249,0.010781,
1540,270,-0.641617,-18.274007,0.999997,0.000216,-0.002732,0.008392,-0.000434,0.008409,-0.002749,-87.769007,0.008575,
1650,350,-1.241420,-17.312373,0.999997,0.000195,-0.004447,0.009603,-0.000047,0.009603,-0.004447,-89.807703,0.009611,
1320,30,-0.005540,-20.094747,0.999998,0.000000,-0.000211,0.005907,-0.000182,0.005912,-0.000216,-88.296990,0.006705,
1230,2000,0.000452,-0.212308,0.999999,0.000131,-0.000288,0.006033,-0.000016,0.006033,-0.000288,-89.854902,0.006807,
1710,170,-0.815175,-18.893846,0.999996,0.000219,-0.002937,0.009266,-0.001853,0.009542,-0.003212,-81.552332,0.009710,
570,750,3.669183,-12.507688,0.999811,0.001525,-0.005827,0.010306,0.000009,0.010306,-0.005827,89.967146,0.010336,
1640,570,-1.736370,-15.127793,0.999996,0.000242,-0.005553,0.010508,0.000415,0.010519,-0.005564,88.520137,0.010525,
1050,820,0.974190,-13.564613,0.999993,0.000318,-0.007718,0.011972,-0.002994,0.012417,-0.008164,-81.542219,0.012621,
830,1990,0.170496,-0.320993,0.999997,0.000199,-0.000607,0.007333,-0.001884,0.007757,-0.001031,-77.305624,0.008426,
1540,460,-1.008536,-16.572464,0.999997,0.000212,-0.004454,0.009455,0.000729,0.009493,-0.004492,87.008225,0.009497,
570,970,4.221613,-10.554130,0.999944,0.000848,-0.003538,0.008306,-0.000267,0.008312,-0.003544,-88.707175,0.008342,
1660,480,-1.620681,-15.994444,0.999995,0.000270,-0.005083,0.010103,0.000396,0.010113,-0.005094,88.505680,0.010113,
1710,50,-0.178397,-19.920432,0.999998,0.000192,-0.000513,0.007590,-0.002511,0.008305,-0.001228,-74.107751,0.008966,
1280,1490,-0.121781,-3.686898,0.999998,0.000152,-0.002617,0.006546,-0.000710,0.006601,-0.002672,-85.592506,0.006641,
560,1490,3.103592,-5.811087,0.999991,0.000000,-0.004961,0.010190,0.000003,0.010190,-0.004961,89.988649,0.010191,
1250,810,-0.070717,-15.433524,0.999995,0.000271,-0.003678,0.002215,0.000955,0.002366,-0.003829,81.017074,0.003865,
890,1550,1.239890,-4.131017,0.999996,0.000256,-0.005008,0.009904,0.000761,0.009943,-0.005047,87.085402,0.009944,
1470,1140,-2.056830,-8.441678,0.999992,0.000328,-0.006514,0.014127,0.000314,0.014132,-0.006519,89.129282,0.014146,
1090,1890,0.140610,-0.936154,0.999998,0.000194,-0.000997,0.006804,-0.000358,0.006820,-0.001013,-87.380774,0.007360,
1350,610,-0.333054,-15.966180,0.999996,0.000220,-0.003646,0.007341,0.002035,0.007705,-0.004011,79.837166,0.007707,
1850,1400,-3.126525,-6.566865,0.999997,0.000213,-0.005073,0.010096,0.000222,0.010099,-0.005076,89.162310,0.010099,
1490,1610,-0.780241,-3.301036,0.999997,0.000208,-0.003867,0.008837,-0.000758,0.008882,-0.003912,-86.597273,0.008903,
1490,340,-0.623817,-17.771363,0.999996,0.000232,-0.003298,0.008409,0.000242,0.008414,-0.003303,88.816073,0.008479,
960,1760,0.587597,-2.035343,0.999997,0.000229,-0.003073,0.008234,-0.000072,0.008235,-0.003073,-89.633299,0.008323,
1090,1620,0.362845,-2.920319,0.999996,0.000241,-0.002935,0.007693,0.000686,0.007737,-0.002979,86.319932,0.007805,
1200,1400,0.070587,-4.202255,0.999998,0.000183,-0.002341,0.005357,0.000868,0.005453,-0.002438,83.646529,0.005464,
1010,390,0.577179,-17.427210,0.999996,0.000243,-0.003100,0.008327,-0.000397,0.008341,-0.003114,-88.010492,0.008430,
1890,1630,-2.619530,-4.351793,0.999996,0.000271,-0.004897,0.009945,-0.000035,0.009945,-0.004897,-89.863090,0.009945,
1430,520,-0.610031,-16.391360,0.999996,0.000251,-0.004110,0.008573,0.001417,0.008730,-0.004266,83.702132,0.008731,
1740,390,-1.774206,-16.651397,0.999997,0.000244,-0.004891,0.010138,0.000084,0.010138,-0.004891,89.678481,0.010141,
1240,1750,-0.015665,-1.853563,0.999998,0.000170,-0.001933,0.006981,-0.000077,0.006982,-0.001934,-89.507505,0.007210,
1310,490,-0.202394,-16.944089,0.999997,0.000183,-0.002819,0.007144,0.000783,0.007205,-0.002880,85.535992,0.007253,
1150,1250,0.282660,-5.201952,0.999994,0.000290,-0.004384,0.005046,0.003903,0.006452,-0.005790,70.192884,0.007099,
920,140,0.313088,-19.314493,0.999997,0.000199,-0.001344,0.007477,0.001079,0.007607,-0.001474,83.127300,0.008068,
1780,1940,-0.724325,-0.866494,0.999994,0.000271,-0.003354,0.009844,0.002596,0.010337,-0.003846,79.262740,0.010449,
1750,210,-1.153111,-18.430422,0.999996,0.000229,-0.004396,0.009916,-0.001015,0.009987,-0.004467,-85.964573,0.010006,
1840,1270,-3.529011,-7.839244,0.999996,0.000253,-0.004845,0.009829,0.000569,0.009851,-0.004867,87.784471,0.009851,
1450,1470,-0.744411,-4.421048,0.999996,0.000249,-0.004821,0.009228,-0.001786,0.009452,-0.005045,-82.867571,0.009459,
1830,1050,-3.992141,-9.874775,0.999997,0.000215,-0.004251,0.008996,0.000286,0.009003,-0.004257,88.765277,0.009007,
1270,40,-0.007547,-20.036303,0.999999,0.000124,-0.000092,0.005949,-0.000052,0.005949,-0.000092,-89.503267,0.006817,
1310,2020,-0.005886,-0.093034,0.999998,0.000000,-0.000089,0.006058,0.000215,0.006065,-0.000096,87.996595,0.006948,
630,530,2.647454,-14.921864,0.999995,0.000286,-0.005095,0.010179,-0.000056,0.010179,-0.005095,-89.788691,0.010179,
1670,1320,-2.433303,-6.936856,0.999995,0.000265,-0.006010,0.011114,0.000619,0.011137,-0.006032,87.930964,0.011150,
1050,910,1.629874,-12.375452,0.999987,0.000420,-0.006466,0.013773,-0.003532,0.014372,-0.007065,-80.379153,0.014372,
580,970,4.184650,-10.566183,0.999997,0.000212,-0.003721,0.008347,-0.000137,0.008348,-0.003723,-89.348552,0.008365,
920,230,0.551336,-18.605487,0.999997,0.000234,-0.002301,0.008201,0.000692,0.008247,-0.002346,86.246991,0.008498,
1540,440,-0.973003,-16.761117,0.999997,0.000202,-0.004327,0.009320,0.000656,0.009352,-0.004358,87.254397,0.009359,
670,570,2.561975,-14.637602,0.999996,0.000239,-0.005190,0.010287,-0.000012,0.010287,-0.005190,-89.953858,0.010287,
1400,1400,-0.550492,-4.801780,0.999995,0.000261,-0.004866,0.008741,-0.002586,0.009216,-0.005341,-79.592050,0.009254,
880,1440,1.522518,-5.304380,0.999994,0.000282,-0.005883,0.010640,0.000728,0.010672,-0.005915,87.483325,0.010693,
1250,790,-0.046828,-15.473081,0.999996,0.000247,-0.002729,0.002309,0.001138,0.002554,-0.002974,77.842900,0.003219,
1020,1550,0.653219,-3.683935,0.999996,0.000220,-0.004156,0.008691,0.001286,0.008819,-0.004283,84.340323,0.008820,
830,1950,0.329466,-0.625349,0.999997,0.000203,-0.001247,0.007823,-0.001757,0.008152,-0.001575,-79.411094,0.008648,
1270,100,-0.019248,-19.669439,0.999999,0.000156,-0.000485,0.006214,-0.000078,0.006215,-0.000486,-89.332273,0.006913,
1730,560,-2.198821,-14.937508,0.999995,0.000270,-0.005377,0.010389,0.000109,0.010389,-0.005378,89.603063,0.010391,
1660,440,-1.521098,-16.397073,0.999995,0.000262,-0.004822,0.009948,0.000283,0.009953,-0.004828,88.903740,0.009955,
560,1480,3.134955,-5.914542,0.999991,0.000000,-0.004824,0.010244,0.000054,0.010245,-0.004824,89.793413,0.010250,
1030,840,1.241903,-13.097129,0.999993,0.000297,-0.007806,0.013009,-0.002049,0.013209,-0.008006,-84.432300,0.013308,
700,1170,3.482890,-8.696638,0.999997,0.000231,-0.004806,0.009988,-0.000981,0.010053,-0.004871,-86.221035,0.010055,
1830,1400,-3.024600,-6.509460,0.999996,0.000225,-0.005117,0.010175,0.000261,0.010180,-0.005121,89.020729,0.010180,
1090,1870,0.158473,-1.070277,0.999997,0.000197,-0.001138,0.006864,-0.000302,0.006875,-0.001150,-87.840409,0.007366,
1570,1090,-2.834690,-9.384440,0.999995,0.000249,-0.004226,0.011257,0.001122,0.011338,-0.004307,85.877900,0.011446,
1710,40,-0.122934,-19.997881,0.999998,0.000198,-0.000209,0.007536,-0.002600,0.008328,-0.001001,-73.064353,0.009094,
1200,1420,0.072800,-4.093330,0.999998,0.000163,-0.002401,0.005646,0.000748,0.005716,-0.002470,84.731152,0.005733,
1870,1460,-3.034450,-6.017691,0.999997,0.000236,-0.005044,0.010150,0.000023,0.010150,-0.005045,89.911802,0.010150,
1220,2000,0.002429,-0.212044,0.999999,0.000141,-0.000308,0.006025,-0.000030,0.006025,-0.000308,-89.727236,0.006786,
790,670,2.220277,-13.936354,0.999996,0.000251,-0.005893,0.010932,0.000189,0.010934,-0.005895,89.356501,0.010945,
1120,170,0.113482,-19.201329,0.999998,0.000177,-0.001162,0.006660,0.000180,0.006664,-0.001166,88.685253,0.007117,
1880,1630,-2.571442,-4.320355,0.999995,0.000273,-0.004918,0.009972,-0.000062,0.009972,-0.004918,-89.759734,0.009973,
1010,370,0.552974,-17.594773,0.999996,0.000235,-0.002984,0.008244,-0.000308,0.008252,-0.002992,-88.431207,0.008355,
1140,290,0.162260,-18.380704,0.999998,0.000174,-0.001981,0.007147,-0.000117,0.007148,-0.001982,-89.267487,0.007381,
1350,590,-0.330282,-16.113918,0.999996,0.000233,-0.003563,0.007420,0.001853,0.007724,-0.003867,80.676841,0.007724,
710,910,3.506263,-11.224126,0.999996,0.000238,-0.004689,0.009809,0.000824,0.009855,-0.004736,86.756923,0.009858,
860,850,2.511521,-12.056272,0.999994,0.000297,-0.005980,0.011728,0.001252,0.011816,-0.006068,85.976846,0.011818,
1650,330,-1.183681,-17.509475,0.999997,0.000215,-0.004256,0.009645,-0.000129,0.009646,-0.004257,-89.469692,0.009668,
690,1580,2.180476,-4.481459,0.999996,0.000259,-0.005103,0.010205,0.000172,0.010207,-0.005105,89.355004,0.010207,
1260,1750,-0.054808,-1.860459,0.999998,0.000170,-0.001862,0.007001,-0.000115,0.007003,-0.001864,-89.256800,0.007254,
1840,2010,-0.315570,-0.296109,0.999997,0.000213,-0.004033,0.009278,0.002914,0.009888,-0.004643,78.178249,0.009894,
1490,1810,-0.452260,-1.607768,0.999997,0.000221,-0.002421,0.007930,0.000352,0.007942,-0.002433,88.052551,0.008139,
1150,1230,0.370932,-5.292250,0.999994,0.000297,-0.004499,0.004842,0.003515,0.006017,-0.005674,71.517494,0.006758,
1310,470,-0.198600,-17.087601,0.999998,0.000175,-0.002753,0.007174,0.000702,0.007224,-0.002802,85.974425,0.007284,
1260,570,-0.071087,-16.459777,0.999998,0.000189,-0.002492,0.006378,0.000485,0.006404,-0.002519,86.876893,0.006453,
1740,370,-1.715203,-16.854913,0.999997,0.000233,-0.004898,0.010042,0.000021,0.010042,-0.004898,89.919258,0.010043,
1430,420,-0.535263,-17.227265,0.999996,0.000210,-0.003238,0.008127,0.000655,0.008165,-0.003276,86.713183,0.008218,
1360,530,-0.358192,-16.538158,0.999997,0.000230,-0.003395,0.007692,0.001394,0.007865,-0.003567,82.942724,0.007876,
1780,1700,-1.859691,-3.282350,0.999997,0.000193,-0.004832,0.010047,0.000017,0.010047,-0.004832,89.934877,0.010050,
920,120,0.259956,-19.462141,0.999998,0.000192,-0.001100,0.007418,0.001185,0.007580,-0.001262,82.223210,0.008123,
750,550,2.077573,-15.097849,0.999995,0.000250,-0.005359,0.010381,-0.000182,0.010383,-0.005361,-89.336968,0.010385,
1830,1030,-4.005612,-10.056110,0.999997,0.000211,-0.004262,0.009063,0.000032,0.009064,-0.004262,89.861841,0.009069,
960,1780,0.547815,-1.871402,0.999996,0.000246,-0.002936,0.008184,-0.000204,0.008188,-0.002940,-88.950100,0.008296,
1260,40,-0.006112,-20.037156,0.999999,0.000143,-0.000130,0.005944,-0.000011,0.005944,-0.000130,-89.895746,0.006790,
1750,190,-1.055320,-18.629770,0.999996,0.000209,-0.004295,0.009875,-0.001218,0.009979,-0.004399,-85.124424,0.010003,
1030,1300,0.882185,-6.030939,0.999995,0.000293,-0.007064,0.011140,0.002790,0.011558,-0.007482,81.477706,0.011724,
630,510,2.589523,-15.127018,0.999996,0.000271,-0.005067,0.010160,-0.000088,0.010160,-0.005068,-89.670494,0.010160,
880,1480,1.433201,-4.882007,0.999995,0.000268,-0.005590,0.010456,0.000778,0.010493,-0.005628,87.232089,0.010503,
1310,1180,-0.862285,-5.440510,0.999971,0.000000,-0.004232,0.002878,-0.001535,0.003195,-0.004549,-78.319524,0.004672,
560,1470,3.162879,-6.016281,0.999991,0.000000,-0.004577,0.010352,0.000242,0.010356,-0.004581,89.073210,0.010379,
1710,150,-0.707380,-19.085766,0.999996,0.000228,-0.002561,0.009084,-0.002042,0.009432,-0.002909,-80.335632,0.009660,
1250,100,-0.008112,-19.672245,0.999998,0.000178,-0.000553,0.006189,-0.000016,0.006189,-0.000554,-89.863228,0.006850,
990,240,0.403775,-18.610364,0.999998,0.000179,-0.002036,0.007779,0.000410,0.007796,-0.002053,87.614342,0.008082,
1050,1550,0.534736,-3.585892,0.999996,0.000235,-0.003629,0.008255,0.001180,0.008371,-0.003745,84.383497,0.008387,
1770,1140,-3.595693,-8.997656,0.999997,0.000227,-0.004618,0.009609,0.000738,0.009648,-0.004656,87.038461,0.009649,
1830,600,-2.846415,-14.214485,0.999996,0.000225,-0.005149,0.010163,-0.000106,0.010164,-0.005150,-89.602439,0.010164,
670,550,2.501673,-14.842504,0.999995,0.000252,-0.005202,0.010250,-0.000046,0.010250,-0.005202,-89.830745,0.010251,
660,250,1.582846,-17.866576,0.999998,0.000231,-0.004665,0.010172,0.000679,0.010203,-0.004696,87.383979,0.010214,
1540,420,-0.938165,-16.950395,0.999997,0.000210,-0.004129,0.009163,0.000527,0.009184,-0.004150,87.733178,0.009198,
1570,1070,-2.896003,-9.611656,0.999996,0.000255,-0.003899,0.011149,0.000830,0.011195,-0.003945,86.851570,0.011357,
1090,1850,0.181441,-1.211547,0.999998,0.000180,-0.001311,0.007003,-0.000282,0.007012,-0.001320,-88.058574,0.007453,
590,970,4.144216,-10.572323,0.999996,0.000243,-0.004053,0.008395,-0.000004,0.008395,-0.004053,-89.983618,0.008397,
1890,400,-2.546433,-16.054737,0.999997,0.000242,-0.004918,0.009769,0.000114,0.009770,-0.004919,89.555397,0.009770,
1640,870,-2.810167,-11.761377,0.999994,0.000297,-0.005432,0.011216,-0.001376,0.011329,-0.005545,-85.306104,0.011329,
1400,1380,-0.559895,-4.977160,0.999994,0.000268,-0.005161,0.008844,-0.002798,0.009382,-0.005700,-79.107995,0.009454,
1880,1460,-3.083375,-6.048474,0.999996,0.000250,-0.004998,0.010148,0.000034,0.010148,-0.004998,89.870665,0.010148,
1250,770,-0.040667,-15.517531,0.999997,0.000195,-0.002269,0.002697,0.001110,0.002934,-0.002506,77.953755,0.003170,
1000,1550,0.736783,-3.753339,0.999996,0.000212,-0.004130,0.008868,0.001166,0.008972,-0.004234,84.913287,0.008976,
1660,420,-1.473844,-16.595456,0.999995,0.000267,-0.004730,0.009893,0.000221,0.009896,-0.004734,89.134827,0.009899,
830,1410,1.902945,-5.818482,0.999995,0.000280,-0.006008,0.010986,0.000202,0.010989,-0.006011,89.320536,0.011005,
1140,1430,0.240373,-4.190108,0.999997,0.000196,-0.003171,0.006714,0.001840,0.007045,-0.003502,79.791774,0.007045,
1200,1440,0.074304,-3.979849,0.999998,0.000179,-0.002445,0.005857,0.000652,0.005908,-0.002496,85.534816,0.005932,
1210,2000,0.004607,-0.212220,0.999998,0.000163,-0.000272,0.006027,-0.000043,0.006027,-0.000272,-89.613220,0.006808,
1010,350,0.531368,-17.756963,0.999996,0.000221,-0.002842,0.008058,-0.000243,0.008063,-0.002847,-88.724738,0.008178,
1220,290,0.021300,-18.408441,0.999998,0.000156,-0.001827,0.006955,-0.000072,0.006956,-0.001827,-89.527867,0.007213,
650,1540,2.501105,-5.020209,0.999995,0.000263,-0.005136,0.010173,0.000097,0.010173,-0.005137,89.636169,0.010174,
1450,1450,-0.764123,-4.614292,0.999995,0.000256,-0.005077,0.009407,-0.001957,0.009667,-0.005337,-82.439716,0.009685,
1500,100,-0.161002,-19.626220,0.999997,0.000189,-0.001054,0.006953,-0.000885,0.007050,-0.001151,-83.769163,0.007564,
1050,1620,0.491902,-3.014812,0.999996,0.000238,-0.003283,0.008059,0.000796,0.008115,-0.003338,86.005006,0.008157,
1180,1750,0.097025,-1.868791,0.999998,0.000147,-0.001797,0.007026,0.000027,0.007026,-0.001797,89.827342,0.007301,
1350,1310,-0.355459,-5.188654,0.999996,0.000260,-0.004829,0.007516,-0.003932,0.008662,-0.005976,-73.749915,0.008868,
1150,1210,0.500755,-5.386862,0.999991,0.000363,-0.004471,0.004224,0.002290,0.004791,-0.005037,76.110039,0.005680,
1310,450,-0.193641,-17.233068,0.999998,0.000167,-0.002686,0.007246,0.000596,0.007281,-0.002722,86.580200,0.007358,
1780,1660,-1.985296,-3.689164,0.999997,0.000210,-0.004934,0.010135,-0.000131,0.010136,-0.004935,-89.502089,0.010137,
1750,170,-0.946513,-18.826542,0.999997,0.000223,-0.004124,0.009695,-0.001494,0.009854,-0.004283,-83.899138,0.009882,
1310,880,-0.928911,-14.709265,0.999975,0.000000,-0.004217,0.002921,0.001724,0.003315,-0.004612,77.111919,0.004757,
560,1460,3.186946,-6.120534,0.999980,0.000000,-0.004481,0.010311,0.000175,0.010313,-0.004483,89.321255,0.010342,
1830,1010,-3.996214,-10.240958,0.999997,0.000213,-0.004309,0.009050,-0.000286,0.009056,-0.004315,-88.775854,0.009059,
970,290,0.546804,-18.182673,0.999997,0.000208,-0.002899,0.008148,0.000111,0.008149,-0.002900,89.425734,0.008261,
1510,50,-0.063717,-19.959968,0.999998,0.000167,-0.000446,0.006501,-0.000908,0.006617,-0.000563,-82.677788,0.007338,
1010,1300,1.023698,-6.191814,0.999995,0.000303,-0.007254,0.011622,0.002275,0.011893,-0.007525,83.223318,0.012032,
670,530,2.441118,-15.048917,0.999995,0.000277,-0.005172,0.010240,-0.000077,0.010240,-0.005172,-89.712144,0.010240,
890,990,2.916108,-10.492336,0.999997,0.000240,-0.003832,0.011064,0.000701,0.011097,-0.003865,87.312930,0.011266,
760,530,1.972747,-15.338027,0.999996,0.000226,-0.005272,0.010369,-0.000232,0.010373,-0.005275,-89.149801,0.010373,
630,710,3.229779,-13.083837,0.999996,0.000243,-0.005054,0.010084,0.000406,0.010095,-0.005065,88.465976,0.010095,
1420,170,-0.201171,-19.167779,0.999998,0.000216,-0.001456,0.006971,-0.000389,0.006989,-0.001474,-87.361751,0.007368,
790,650,2.151307,-14.158237,0.999995,0.000253,-0.005831,0.010861,0.000074,0.010862,-0.005832,89.746908,0.010872,
1330,100,-0.047343,-19.665316,0.999998,0.000159,-0.000629,0.006313,-0.000223,0.006320,-0.000637,-88.158182,0.006959,
1050,1530,0.542662,-3.748148,0.999996,0.000248,-0.003826,0.008324,0.001383,0.008479,-0.003982,83.586946,0.008484,
1420,960,-2.052754,-11.491403,0.999981,0.000654,-0.007355,0.017999,0.004071,0.018637,-0.007993,81.097710,0.018700,
1550,440,-1.017694,-16.730618,0.999997,0.000198,-0.004372,0.009400,0.000621,0.009428,-0.004400,87.424633,0.009435,
1400,1360,-0.576976,-5.160476,0.999993,0.000303,-0.005466,0.009157,-0.003058,0.009770,-0.006079,-78.652609,0.009867,
1880,2010,-0.446636,-0.403116,0.999979,0.000551,-0.001176,0.012362,0.005884,0.014562,-0.003376,69.499484,0.015244,
1040,790,0.917970,-13.815517,0.999994,0.000271,-0.007485,0.011651,-0.002917,0.012086,-0.007920,-81.522860,0.012279,
1650,310,-1.127947,-17.698311,0.999997,0.000199,-0.004034,0.009467,-0.000289,0.009473,-0.004040,-88.773555,0.009507,
1570,1050,-2.921488,-9.830292,0.999997,0.000240,-0.003672,0.010967,0.000463,0.010982,-0.003686,88.191169,0.011178,
1250,2000,-0.004032,-0.212397,0.999998,0.000161,-0.000236,0.006027,0.000027,0.006027,-0.000236,89.748533,0.006828,
1160,1750,0.132505,-1.875196,0.999998,0.000178,-0.001837,0.007082,0.000003,0.007082,-0.001837,89.981905,0.007350,
1280,1250,-0.158638,-4.881614,0.999994,0.000311,-0.003598,0.003100,-0.002572,0.003973,-0.004471,-71.239332,0.004901,
1090,1830,0.197918,-1.351049,0.999997,0.000196,-0.001443,0.007080,-0.000205,0.007085,-0.001448,-88.621551,0.007486,
650,1520,2.559744,-5.224636,0.999994,0.000278,-0.005138,0.010227,0.000070,0.010227,-0.005138,89.739059,0.010227,
1010,330,0.504381,-17.918663,0.999997,0.000209,-0.002714,0.008096,-0.000075,0.008096,-0.002715,-89.600934,0.008242,
1340,290,-0.197771,-18.361928,0.999998,0.000155,-0.002042,0.007235,0.000140,0.007237,-0.002044,89.138458,0.007461,
1500,50,-0.058739,-19.961561,0.999998,0.000177,-0.000459,0.006455,-0.000864,0.006562,-0.000565,-82.985942,0.007272,
1150,830,0.393366,-14.841266,0.999991,0.000354,-0.004480,0.004764,-0.003270,0.005804,-0.005520,-72.359895,0.006544,
890,780,1.991708,-12.990051,0.999996,0.000199,-0.006801,0.012097,0.000354,0.012103,-0.006807,88.927481,0.012135,
1080,830,0.802627,-13.819371,0.999993,0.000290,-0.006997,0.010543,-0.003917,0.011378,-0.007832,-77.967155,0.011644,
990,520,0.790994,-16.240486,0.999997,0.000218,-0.004354,0.009079,-0.001210,0.009187,-0.004462,-84.895337,0.009189,
1350,1330,-0.341972,-5.042829,0.999996,0.000263,-0.004556,0.007382,-0.003653,0.008412,-0.005585,-74.266788,0.008561,
620,130,1.076569,-18.957338,0.999996,0.000209,-0.004871,0.010580,0.001317,0.010691,-0.004982,85.161574,0.010699,
810,1520,1.719402,-4.709323,0.999997,0.000200,-0.005293,0.010379,0.000419,0.010390,-0.005304,88.468362,0.010391,
1310,430,-0.186075,-17.380248,0.999998,0.000169,-0.002599,0.007253,0.000495,0.007277,-0.002624,87.133569,0.007371,
710,890,3.452499,-11.422467,0.999996,0.000245,-0.004821,0.010036,0.001015,0.010105,-0.004890,86.108295,0.010107,
1840,170,-1.333623,-18.551913,0.999996,0.000259,-0.004858,0.010419,-0.000808,0.010462,-0.004901,-86.981381,0.010469,
1260,630,-0.066012,-16.096516,0.999998,0.000158,-0.002381,0.005658,0.000674,0.005714,-0.002437,85.244040,0.005735,
1260,430,-0.067612,-17.412201,0.999997,0.000250,-0.002405,0.007075,0.000263,0.007082,-0.002412,88.413589,0.007201,
1660,400,-1.422016,-16.793720,0.999996,0.000252,-0.004679,0.009884,0.000163,0.009886,-0.004681,89.359211,0.009891,
590,1350,3.411081,-7.139903,0.999996,0.000270,-0.005159,0.009901,-0.000140,0.009902,-0.005161,-89.468701,0.009905,
1200,1880,0.032765,-0.973026,0.999998,0.000157,-0.001002,0.006545,-0.000025,0.006545,-0.001002,-89.811013,0.007050,
1340,1310,-0.310396,-5.101055,0.999997,0.000219,-0.004473,0.006918,-0.003888,0.008118,-0.005673,-72.840307,0.008329,
1750,370,-1.765357,-16.823333,0.999996,0.000256,-0.004877,0.010060,0.000043,0.010060,-0.004877,89.836165,0.010062,
920,100,0.203953,-19.613151,0.999998,0.000169,-0.000810,0.007141,0.001174,0.007310,-0.000980,81.771858,0.007936,
790,630,2.090205,-14.373316,0.999996,0.000222,-0.005759,0.010777,-0.000058,0.010777,-0.005759,-89.798411,0.010785,
1310,1680,-0.172719,-2.382755,0.999997,0.000185,-0.002346,0.007244,-0.000259,0.007251,-0.002353,-88.452691,0.007398,
1540,400,-0.901635,-17.132446,0.999996,0.000236,-0.003872,0.009052,0.000364,0.009062,-0.003882,88.386975,0.009093,
1000,1230,1.396269,-7.146406,0.999991,0.000396,-0.007867,0.013087,0.001229,0.013159,-0.007939,86.653578,0.013252,
560,1670,2.636267,-4.006830,0.999709,0.000000,-0.010137,0.010633,-0.000940,0.010675,-0.010179,-87.414360,0.012050,
1310,870,-0.797018,-14.734658,0.999993,0.000000,-0.004305,0.003066,0.001441,0.003338,-0.004577,79.318693,0.004734,
1560,1270,-1.924876,-7.178846,0.999996,0.000239,-0.006974,0.012271,0.000269,0.012275,-0.006978,89.200739,0.012313,
1780,1640,-2.042974,-3.892127,0.999995,0.000250,-0.004966,0.010117,-0.000163,0.010119,-0.004967,-89.380219,0.010119,
820,490,1.558369,-15.947505,0.999995,0.000226,-0.005092,0.010077,-0.000425,0.010089,-0.005104,-88.397922,0.010089,
1230,1620,0.004204,-2.769225,0.999996,0.000227,-0.002431,0.007040,0.000010,0.007040,-0.002431,89.942169,0.007151,
630,950,3.956771,-10.778543,0.999996,0.000250,-0.004365,0.009076,0.000414,0.009089,-0.004378,88.236848,0.009091,
1070,1800,0.263353,-1.581381,0.999997,0.000197,-0.001840,0.007297,-0.000155,0.007299,-0.001843,-89.027142,0.007592,
1260,2000,-0.006103,-0.213244,0.999999,0.000141,-0.000200,0.006020,0.000065,0.006021,-0.000201,89.399756,0.006840,
1250,750,-0.036879,-15.575035,0.999998,0.000171,-0.002086,0.003176,0.000990,0.003356,-0.002266,79.690175,0.003424,
670,510,2.381699,-15.255426,0.999996,0.000254,-0.005146,0.010244,-0.000131,0.010245,-0.005147,-89.511911,0.010245,
1650,290,-1.063368,-17.890232,0.999997,0.000199,-0.003845,0.009402,-0.000495,0.009420,-0.003864,-87.865198,0.009471,
1170,50,0.011946,-19.976613,0.999998,0.000173,-0.000105,0.006024,0.000151,0.006027,-0.000109,88.590165,0.006898,
1310,100,-0.037801,-19.667600,0.999998,0.000172,-0.000502,0.006259,-0.000210,0.006266,-0.000509,-88.222233,0.006960,
1090,1810,0.221162,-1.497268,0.999997,0.000195,-0.001612,0.007200,-0.000186,0.007204,-0.001616,-88.793935,0.007560,
750,530,2.024645,-15.305806,0.999996,0.000226,-0.005256,0.010360,-0.000212,0.010363,-0.005259,-89.222491,0.010363,
1020,790,1.070080,-13.631161,0.999994,0.000274,-0.007663,0.012157,-0.002354,0.012433,-0.007938,-83.319922,0.012591,
1060,1090,1.948590,-8.467712,0.999963,0.000744,-0.007545,0.020199,0.006888,0.021815,-0.009161,76.795947,0.021908,
1070,880,1.236930,-13.105943,0.999988,0.000409,-0.006394,0.011423,-0.003966,0.012267,-0.007237,-78.000068,0.012333,
790,980,3.299213,-10.560889,0.999995,0.000280,-0.004222,0.010142,0.000549,0.010163,-0.004243,87.812734,0.010209,
970,270,0.508585,-18.347387,0.999996,0.000235,-0.002755,0.008097,0.000233,0.008102,-0.002760,88.772071,0.008238,
890,970,2.861381,-10.717562,0.999995,0.000254,-0.004087,0.011170,0.001056,0.011243,-0.004159,86.060417,0.011369,
1150,810,0.300108,-14.935202,0.999994,0.000306,-0.004488,0.004978,-0.003826,0.006331,-0.005841,-70.524897,0.007045,
1320,290,-0.156204,-18.383855,0.999998,0.000159,-0.001912,0.007133,0.000095,0.007134,-0.001913,89.400064,0.007386,
1050,1510,0.553936,-3.917724,0.999996,0.000251,-0.004070,0.008381,0.001592,0.008581,-0.004270,82.828220,0.008581,
1790,540,-2.456341,-14.956744,0.999994,0.000276,-0.005192,0.010228,0.000059,0.010229,-0.005192,89.781209,0.010229,
1100,170,0.135868,-19.192458,0.999998,0.000169,-0.001041,0.006741,0.000290,0.006751,-0.001052,87.871039,0.007265,
1040,960,2.078136,-11.458933,0.999983,0.000468,-0.007163,0.017702,-0.003638,0.018223,-0.007685,-81.845902,0.018298,
1830,990,-3.978372,-10.421257,0.999997,0.000226,-0.004277,0.009012,-0.000247,0.009017,-0.004281,-88.936564,0.009020,
1060,830,0.946638,-13.561452,0.999992,0.000336,-0.007498,0.011739,-0.003177,0.012250,-0.008009,-80.860836,0.012442,
1560,1910,-0.350454,-0.893915,0.999997,0.000190,-0.001547,0.007638,0.001158,0.007782,-0.001691,82.921872,0.008186,
1350,1350,-0.337373,-4.888597,0.999995,0.000275,-0.004318,0.007337,-0.003309,0.008211,-0.005192,-75.206345,0.008306,
740,1790,1.280011,-2.206638,0.999995,0.000237,-0.004091,0.009861,-0.000797,0.009906,-0.004137,-86.740179,0.009951,
1660,380,-1.369053,-16.992861,0.999995,0.000251,-0.004644,0.009783,0.000107,0.009784,-0.004645,89.573458,0.009788,
830,1390,1.963707,-6.040710,0.999995,0.000295,-0.006099,0.011020,0.000094,0.011020,-0.006100,89.686148,0.011041,
870,780,2.125804,-12.923621,0.999995,0.000259,-0.006623,0.011927,0.000565,0.011944,-0.006640,88.256315,0.011969,
1280,1410,-0.114088,-4.179565,0.999996,0.000254,-0.002614,0.005733,-0.001313,0.005935,-0.002815,-81.269113,0.005938,
1400,1340,-0.596585,-5.349841,0.999995,0.000245,-0.005790,0.009454,-0.003259,0.010122,-0.006458,-78.424230,0.010249,
1570,1030,-2.943840,-10.052302,0.999996,0.000258,-0.003584,0.010959,0.000061,0.010959,-0.003584,89.759994,0.011175,
1340,1750,-0.205779,-1.903432,0.999997,0.000181,-0.002155,0.007215,-0.000162,0.007218,-0.002157,-89.011288,0.007410,
1260,610,-0.068436,-16.212658,0.999998,0.000152,-0.002431,0.005906,0.000591,0.005948,-0.002472,85.962558,0.005976,
1840,150,-1.206386,-18.762253,0.999998,0.000190,-0.004873,0.010391,-0.001022,0.010459,-0.004941,-86.185665,0.010465,
1310,30,-0.004193,-20.095690,0.999998,0.000000,-0.000110,0.005922,-0.000191,0.005928,-0.000116,-88.188603,0.006779,
1340,730,-0.300431,-15.164043,0.999995,0.000273,-0.004333,0.006937,0.003667,0.008025,-0.005421,73.471930,0.008188,
600,1550,2.725305,-5.075776,0.999996,0.000239,-0.005073,0.010093,0.000071,0.010093,-0.005073,89.732511,0.010093,
1130,1680,0.230696,-2.412038,0.999997,0.000190,-0.002528,0.007430,0.000423,0.007448,-0.002545,87.570436,0.007571,
920,80,0.153903,-19.750180,0.999998,0.000171,-0.000610,0.006939,0.001222,0.007132,-0.000803,81.031648,0.007813,
1640,1710,-1.182776,-2.771529,0.999995,0.000255,-0.004179,0.009557,0.000101,0.009558,-0.004180,89.577509,0.009583,
1010,310,0.475101,-18.081554,0.999997,0.000209,-0.002538,0.007922,0.000004,0.007922,-0.002538,89.979623,0.008091,
790,610,2.031046,-14.591423,0.999996,0.000236,-0.005681,0.010709,-0.000147,0.010710,-0.005682,-89.487209,0.010717,
1200,1860,0.037582,-1.104773,0.999998,0.000164,-0.001143,0.006660,-0.000050,0.006661,-0.001143,-89.635004,0.007123,
990,540,0.811064,-16.058060,0.999995,0.000293,-0.004615,0.009202,-0.001366,0.009335,-0.004749,-84.407331,0.009336,
710,870,3.386431,-11.626530,0.999996,0.000251,-0.004927,0.010091,0.001044,0.010163,-0.004999,86.040929,0.010164,
820,510,1.606851,-15.742550,0.999995,0.000232,-0.005213,0.010232,-0.000450,0.010245,-0.005226,-88.333738,0.010246,
1560,1590,-1.105251,-3.699112,0.999998,0.000187,-0.004500,0.009519,-0.000655,0.009550,-0.004531,-87.331969,0.009554,
1100,80,0.051474,-19.785858,0.999998,0.000170,-0.000406,0.006296,0.000377,0.006317,-0.000427,86.793936,0.007061,
1270,2000,-0.008474,-0.213408,0.999998,0.000161,-0.000175,0.006017,0.000100,0.006019,-0.000176,89.078754,0.006850,
1250,730,-0.036170,-15.638902,0.999998,0.000171,-0.002031,0.003677,0.000907,0.003818,-0.002171,81.188530,0.003830,
1000,770,1.148204,-13.710793,0.999993,0.000326,-0.007523,0.012097,-0.001883,0.012276,-0.007702,-84.568184,0.012408,
1420,1070,-2.170773,-9.143082,0.999978,0.000545,-0.008355,0.020566,-0.003469,0.020977,-0.008765,-83.254109,0.021071,
1110,1300,0.381539,-5.290530,0.999993,0.000327,-0.005104,0.007812,0.004060,0.008982,-0.006275,73.921156,0.009215,
560,1680,2.611714,-3.911564,0.999593,0.000000,-0.008525,0.010109,-0.001402,0.010214,-0.008630,-85.722258,0.010994,
670,490,2.326644,-15.460102,0.999997,0.000231,-0.005118,0.010232,-0.000170,0.010234,-0.005120,-89.365973,0.010234,
750,510,1.968082,-15.514318,0.999997,0.000211,-0.005199,0.010297,-0.000239,0.010301,-0.005202,-89.117377,0.010301,
1500,1010,-2.676023,-10.299545,0.999995,0.000263,-0.003905,0.012926,-0.000333,0.012932,-0.003911,-88.866808,0.013265,
1350,1370,-0.329880,-4.740111,0.999996,0.000263,-0.004077,0.007340,-0.002961,0.008062,-0.004799,-76.293056,0.008111,
580,1350,3.461065,-7.170871,0.999997,0.000255,-0.006199,0.009750,0.000103,0.009751,-0.006199,89.629336,0.009870,
1830,970,-3.962761,-10.600696,0.999998,0.000201,-0.004291,0.008948,-0.000167,0.008951,-0.004293,-89.278630,0.008953,
1660,360,-1.315848,-17.188976,0.999996,0.000204,-0.004597,0.009639,0.000038,0.009639,-0.004597,89.848545,0.009642,
1300,2020,-0.006004,-0.092196,0.999998,0.000000,0.000009,0.006027,0.000194,0.006034,0.000002,88.159167,0.006968,
1300,290,-0.120689,-18.392500,0.999998,0.000175,-0.001709,0.007073,-0.000038,0.007074,-0.001709,-89.751525,0.007382,
1050,1490,0.568162,-4.090608,0.999996,0.000228,-0.004262,0.008483,0.001800,0.008732,-0.004511,82.111274,0.008734,
1060,810,0.851310,-13.795589,0.999993,0.000319,-0.007505,0.011420,-0.003421,0.012019,-0.008104,-80.060267,0.012260,
1080,170,0.154850,-19.185885,0.999997,0.000177,-0.001054,0.006836,0.000369,0.006854,-0.001071,87.325771,0.007374,
1560,610,-1.377255,-15.001380,0.999996,0.000300,-0.005840,0.010523,0.001005,0.010585,-0.005901,86.496986,0.010608,
1210,100,0.011429,-19.671256,0.999998,0.000174,-0.000548,0.006230,0.000018,0.006230,-0.000548,89.846022,0.006899,
970,1680,0.689594,-2.694975,0.999997,0.000231,-0.003632,0.008594,0.000456,0.008611,-0.003649,87.865446,0.008645,
1760,470,-2.100928,-15.773629,0.999996,0.000224,-0.005067,0.010179,0.000188,0.010182,-0.005069,89.291773,0.010182,
770,600,2.115435,-14.633147,0.999995,0.000269,-0.005588,0.010629,-0.000102,0.010630,-0.005589,-89.640417,0.010635,
1100,1530,0.367215,-3.592572,0.999997,0.000204,-0.003388,0.007704,0.001368,0.007871,-0.003554,83.071470,0.007883,
1780,1620,-2.102657,-4.093821,0.999995,0.000247,-0.005003,0.010142,-0.000160,0.010144,-0.005005,-89.393611,0.010144,
920,60,0.098971,-19.889519,0.999998,0.000181,-0.000369,0.006752,0.001176,0.006942,-0.000559,80.860412,0.007713,
1010,290,0.447604,-18.237313,0.999997,0.000213,-0.002399,0.007881,0.000118,0.007883,-0.002400,89.340977,0.008081,
1180,1430,0.124324,-4.068617,0.999997,0.000212,-0.002688,0.005989,0.001230,0.006160,-0.002859,82.087248,0.006166,
1200,1840,0.043589,-1.239230,0.999998,0.000179,-0.001268,0.006727,0.000014,0.006727,-0.001268,89.903215,0.007149,
1320,730,-0.223670,-15.309083,0.999996,0.000236,-0.003621,0.006039,0.003384,0.007107,-0.004688,72.493391,0.007226,
830,1370,2.026553,-6.261904,0.999994,0.000316,-0.006180,0.011212,-0.000032,0.011212,-0.006180,-89.893871,0.011232,
1240,630,-0.020304,-16.118754,0.999999,0.000131,-0.002300,0.005579,0.000301,0.005591,-0.002312,87.814440,0.005619,
1250,1330,-0.035617,-4.502316,0.999998,0.000167,-0.002016,0.003780,-0.000879,0.003911,-0.002146,-81.562622,0.003917,
1540,1590,-1.015845,-3.634791,0.999998,0.000197,-0.004495,0.009456,-0.000755,0.009497,-0.004536,-86.913187,0.009500,
650,220,1.488653,-18.143498,0.999996,0.000272,-0.004595,0.010225,0.000882,0.010277,-0.004647,86.607586,0.010293,
1750,610,-2.457514,-14.352175,0.999995,0.000256,-0.005402,0.010482,-0.000087,0.010483,-0.005403,-89.685865,0.010485,
1640,1730,-1.130622,-2.579816,0.999998,0.000189,-0.003980,0.009474,0.000180,0.009476,-0.003982,89.235651,0.009516,
560,1690,2.549106,-3.799575,0.999664,0.000000,-0.006853,0.010371,-0.001256,0.010462,-0.006944,-85.850060,0.010647,
710,850,3.322344,-11.830290,0.999995,0.000253,-0.004973,0.010081,0.001003,0.010148,-0.005039,86.205708,0.010148,
930,2000,0.084733,-0.235215,0.999998,0.000180,-0.000338,0.006679,-0.001052,0.006833,-0.000493,-81.654259,0.007622,
1090,1790,0.240449,-1.639656,0.999997,0.000190,-0.001747,0.007251,-0.000110,0.007252,-0.001748,-89.302458,0.007569,
1360,1310,-0.402855,-5.277591,0.999995,0.000302,-0.005191,0.008043,-0.003908,0.009110,-0.006259,-74.717854,0.009320,
670,470,2.267373,-15.665750,0.999997,0.000218,-0.005086,0.010155,-0.000175,0.010157,-0.005088,-89.341401,0.010157,
1540,380,-0.869670,-17.310796,0.999996,0.000243,-0.003603,0.008888,0.000210,0.008891,-0.003607,89.038135,0.008944,
1570,1010,-2.929164,-10.275517,0.999996,0.000254,-0.003643,0.010972,-0.000415,0.010984,-0.003655,-88.373124,0.011187,
1660,340,-1.258646,-17.380621,0.999996,0.000217,-0.004481,0.009698,-0.000052,0.009698,-0.004481,-89.790435,0.009708,
1400,1320,-0.620420,-5.539769,0.999994,0.000274,-0.006135,0.009743,-0.003425,0.010450,-0.006843,-78.331547,0.010616,
1020,1230,1.237011,-6.962478,0.999990,0.000380,-0.007846,0.012823,0.001902,0.012997,-0.008019,84.784871,0.013115,
1320,1750,-0.162973,-1.884143,0.999998,0.000133,-0.002033,0.007148,-0.000131,0.007149,-0.002035,-89.181141,0.007367,
1870,50,-0.486169,-19.720910,0.999978,0.000598,-0.002443,0.011928,-0.004929,0.013456,-0.003971,-72.775434,0.013827,
1830,1170,-3.797703,-8.779562,0.999996,0.000255,-0.004544,0.009260,0.000565,0.009284,-0.004567,87.658358,0.009284,
990,1040,2.571334,-9.906913,0.999992,0.000371,-0.004554,0.014530,-0.000043,0.014530,-0.004554,-89.870614,0.014863,
1350,1810,-0.183078,-1.481466,0.999998,0.000189,-0.001726,0.007144,0.000052,0.007144,-0.001726,89.666506,0.007455,
720,1810,1.280608,-2.056662,0.999996,0.000261,-0.004433,0.009941,-0.000767,0.009981,-0.004474,-86.955582,0.009999,
1420,1050,-2.215502,-9.573244,0.999976,0.000597,-0.009217,0.022693,-0.002124,0.022834,-0.009358,-86.209371,0.022957,
1780,750,-3.103276,-12.806930,0.999997,0.000227,-0.005193,0.010269,-0.000723,0.010302,-0.005227,-87.329940,0.010303,
1220,170,0.012766,-19.224074,0.999998,0.000160,-0.001050,0.006518,-0.000006,0.006518,-0.001050,-89.955419,0.007000,
980,770,1.297968,-13.571981,0.999991,0.000348,-0.007518,0.012313,-0.001354,0.012405,-0.007610,-86.112390,0.012511,
1050,1470,0.578778,-4.263169,0.999996,0.000228,-0.004396,0.008612,0.001976,0.008905,-0.004690,81.548365,0.008909,
1200,290,0.058268,-18.403019,0.999998,0.000185,-0.001767,0.006967,-0.000039,0.006968,-0.001768,-89.747241,0.007244,
1540,1910,-0.320957,-0.882158,0.999997,0.000198,-0.001418,0.007511,0.001046,0.007632,-0.001539,83.403734,0.008072,
700,970,3.673198,-10.631134,0.999995,0.000249,-0.004405,0.009561,0.000398,0.009572,-0.004417,88.370782,0.009582,
1780,1600,-2.160478,-4.299390,0.999996,0.000225,-0.005052,0.010175,-0.000181,0.010177,-0.005054,-89.319602,0.010177,
750,490,1.916481,-15.720253,0.999997,0.000210,-0.005139,0.010234,-0.000265,0.010238,-0.005143,-89.011771,0.010239,
660,470,2.319578,-15.632786,0.999996,0.000221,-0.005081,0.010159,-0.000163,0.010161,-0.005083,-89.388649,0.010161,
570,1350,3.521390,-7.210868,0.999394,0.003186,-0.006771,0.009589,0.000271,0.009593,-0.006775,89.049686,0.009861,
910,1990,0.114662,-0.306948,0.999998,0.000169,-0.000459,0.006900,-0.001239,0.007103,-0.000662,-80.692309,0.007847,
1250,710,-0.037766,-15.714229,0.999998,0.000164,-0.002043,0.004182,0.000796,0.004282,-0.002143,82.827825,0.004282,
1200,1820,0.045832,-1.374601,0.999998,0.000160,-0.001411,0.006830,-0.000006,0.006830,-0.001411,-89.961541,0.007212,
700,630,2.590980,-14.102804,0.999994,0.000281,-0.005409,0.010382,0.000210,0.010384,-0.005411,89.236930,0.010388,
1330,30,-0.008369,-20.092126,0.999998,0.000000,-0.000229,0.005898,-0.000195,0.005904,-0.000235,-88.178574,0.006686,
1570,580,-1.369711,-15.276553,0.999995,0.000292,-0.005596,0.010411,0.000895,0.010461,-0.005646,86.811080,0.010472,
950,1680,0.764440,-2.742010,0.999997,0.000218,-0.003634,0.008685,0.000366,0.008696,-0.003645,88.299939,0.008734,
1240,430,-0.021265,-17.424247,0.999997,0.000213,-0.002383,0.007054,0.000138,0.007056,-0.002385,89.161797,0.007179,
1100,1550,0.360384,-3.437135,0.999996,0.000205,-0.003249,0.007691,0.001172,0.007816,-0.003373,83.953711,0.007840,
1190,100,0.020936,-19.670045,0.999998,0.000150,-0.000445,0.006246,0.000093,0.006247,-0.000446,89.200175,0.006970,
1330,1220,-0.511392,-5.586029,0.999993,0.000332,-0.004765,0.005949,-0.003843,0.007185,-0.006001,-72.171834,0.007705,
1410,2000,-0.038664,-0.219900,0.999998,0.000181,-0.000388,0.006274,0.000488,0.006309,-0.000423,85.829165,0.007054,
1010,270,0.413542,-18.398215,0.999997,0.000194,-0.002216,0.007782,0.000208,0.007787,-0.002220,88.806397,0.008023,
1740,1560,-2.069132,-4.581956,0.999997,0.000205,-0.005125,0.010276,-0.000218,0.010279,-0.005128,-89.188956,0.010279,
1090,1750,0.278441,-1.935624,0.999998,0.000193,-0.002051,0.007372,0.000048,0.007372,-0.002052,89.710085,0.007610,
1660,320,-1.199373,-17.578183,0.999997,0.000206,-0.004302,0.009659,-0.000164,0.009661,-0.004304,-89.328516,0.009680,
670,450,2.209461,-15.869695,0.999996,0.000222,-0.005059,0.010109,-0.000170,0.010111,-0.005061,-89.356561,0.010111,
770,1740,1.328765,-2.622528,0.999996,0.000217,-0.004361,0.009745,-0.000243,0.009749,-0.004365,-89.014699,0.009767,
1570,990,-2.902306,-10.492840,0.999996,0.000253,-0.003841,0.011093,-0.000739,0.011129,-0.003878,-87.173903,0.011299,
1400,1300,-0.656131,-5.739240,0.999994,0.000289,-0.006525,0.010065,-0.003575,0.010803,-0.007263,-78.341405,0.011015,
1350,1790,-0.198059,-1.623254,0.999998,0.000191,-0.001856,0.007156,-0.000007,0.007156,-0.001856,-89.954377,0.007427,
1410,1600,-0.496714,-3.169959,0.999997,0.000196,-0.003356,0.008077,-0.000893,0.008147,-0.003426,-85.560846,0.008181,
720,450,1.959673,-16.031443,0.999997,0.000218,-0.005016,0.010127,-0.000207,0.010130,-0.005019,-89.218853,0.010130,
710,830,3.254781,-12.030657,0.999996,0.000245,-0.005095,0.010249,0.001027,0.010317,-0.005164,86.188866,0.010317,
1880,950,-4.155259,-10.733154,0.999997,0.000222,-0.004144,0.008449,-0.000137,0.008451,-0.004146,-89.376071,0.008451,
1170,620,0.152923,-16.092713,0.999997,0.000205,-0.002822,0.006207,-0.001450,0.006434,-0.003049,-81.095680,0.006437,
830,1350,2.098331,-6.490545,0.999995,0.000300,-0.006252,0.011356,-0.000179,0.011357,-0.006254,-89.416879,0.011377,
1160,1430,0.181120,-4.128348,0.999998,0.000169,-0.002902,0.006305,0.001593,0.006573,-0.003170,80.457507,0.006574,
840,910,2.879789,-11.337328,0.999996,0.000248,-0.004980,0.011066,0.001395,0.011187,-0.005100,85.067837,0.011201,
1140,170,0.087256,-19.211172,0.999997,0.000183,-0.001123,0.006621,0.000138,0.006623,-0.001126,88.979346,0.007088,
560,1700,2.461128,-3.699228,0.999833,0.000000,-0.006100,0.010154,-0.001196,0.010242,-0.006188,-85.813028,0.010316,
1830,1410,-2.992397,-6.404727,0.999997,0.000212,-0.005128,0.010195,0.000209,0.010198,-0.005131,89.217552,0.010198,
980,750,1.228447,-13.816394,0.999994,0.000282,-0.007281,0.011948,-0.001543,0.012071,-0.007404,-85.440024,0.012174,
1360,1170,-1.133646,-6.433609,0.999992,0.000333,-0.003243,0.007286,-0.004938,0.009240,-0.005197,-68.415823,0.009264,
1050,1740,0.376857,-2.057223,0.999997,0.000222,-0.002662,0.007695,0.000194,0.007699,-0.002666,88.925766,0.007819,
1870,40,-0.356894,-19.842677,0.999985,0.000495,-0.001117,0.012189,-0.005828,0.014381,-0.003309,-69.390840,0.015063,
1050,1450,0.588412,-4.438723,0.999995,0.000258,-0.004517,0.008728,0.002118,0.009059,-0.004848,81.130738,0.009066,
1300,1190,-0.686091,-5.271219,0.999995,0.000000,-0.005443,0.002954,-0.000784,0.003027,-0.005516,-84.708899,0.005524,
920,430,0.969258,-16.845950,0.999997,0.000186,-0.004279,0.009252,-0.000596,0.009278,-0.004305,-87.482689,0.009286,
770,1680,1.507857,-3.215220,0.999996,0.000213,-0.004581,0.009863,-0.000020,0.009863,-0.004581,-89.919584,0.009871,
950,1340,1.334334,-6.107062,0.999996,0.000211,-0.006906,0.011581,0.001238,0.011664,-0.006988,86.186278,0.011740,
1200,1800,0.051817,-1.513085,0.999998,0.000174,-0.001534,0.006856,0.000040,0.006856,-0.001534,89.726770,0.007196,
580,180,1.608555,-18.242724,0.999995,0.000274,-0.005474,0.009748,0.000641,0.009775,-0.005501,87.592016,0.009801,
900,610,1.395694,-14.990398,0.999995,0.000291,-0.005884,0.010538,-0.000952,0.010593,-0.005939,-86.694271,0.010619,
1350,1240,-0.505595,-5.736236,0.999991,0.000349,-0.005834,0.007839,-0.004452,0.009161,-0.007155,-73.463263,0.009631,
1250,670,-0.038479,-15.896053,0.999998,0.000164,-0.002169,0.004920,0.000630,0.004976,-0.002224,84.962978,0.004985,
750,470,1.860775,-15.925298,0.999996,0.000228,-0.005066,0.010142,-0.000266,0.010147,-0.005071,-88.998225,0.010147,
910,1970,0.173003,-0.447076,0.999997,0.000190,-0.000711,0.007043,-0.001246,0.007238,-0.000906,-81.093192,0.007887,
1660,300,-1.137045,-17.771664,0.999997,0.000201,-0.004164,0.009505,-0.000333,0.009513,-0.004172,-88.605830,0.009537,
1090,1730,0.291584,-2.084769,0.999997,0.000201,-0.002192,0.007514,0.000072,0.007514,-0.002193,89.573595,0.007728,
670,430,2.151244,-16.070545,0.999997,0.000208,-0.005047,0.010147,-0.000153,0.010149,-0.005048,-89.423997,0.010149,
990,1800,0.432974,-1.669019,0.999997,0.000214,-0.002186,0.007843,-0.000334,0.007854,-0.002197,-88.096032,0.008104,
1670,200,-0.818378,-18.683329,0.999996,0.000256,-0.003469,0.009129,-0.001187,0.009240,-0.003579,-84.661794,0.009318,
720,1790,1.365120,-2.256220,0.999996,0.000276,-0.004537,0.009981,-0.000614,0.010007,-0.004563,-87.582461,0.010020,
710,810,3.180549,-12.240499,0.999995,0.000269,-0.005213,0.010341,0.001017,0.010407,-0.005279,86.274445,0.010407,
1850,1520,-2.747705,-5.342035,0.999994,0.000274,-0.005052,0.010172,-0.000062,0.010172,-0.005052,-89.767772,0.010172,
1380,850,-0.917413,-13.646416,0.999989,0.000372,-0.006723,0.010437,0.004101,0.011367,-0.007653,77.227181,0.011592,
1410,1580,-0.508360,-3.331970,0.999995,0.000277,-0.003415,0.008150,-0.000994,0.008234,-0.003500,-85.124217,0.008265,
720,430,1.904981,-16.234992,0.999997,0.000235,-0.004936,0.010122,-0.000166,0.010124,-0.004938,-89.369034,0.010125,
1850,1460,-2.931619,-5.954415,0.999997,0.000210,-0.005112,0.010165,0.000069,0.010166,-0.005113,89.742187,0.010166,
1400,2000,-0.036077,-0.218848,0.999998,0.000186,-0.000302,0.006243,0.000464,0.006276,-0.000334,85.968627,0.007062,
1010,470,0.661427,-16.749209,0.999996,0.000242,-0.003950,0.008669,-0.001054,0.008757,-0.004038,-85.259501,0.008765,
1080,430,0.389746,-17.257234,0.999996,0.000236,-0.003079,0.007808,-0.000776,0.007863,-0.003134,-85.944454,0.007917,
680,970,3.759683,-10.623483,0.999996,0.000245,-0.004406,0.009406,0.000345,0.009414,-0.004414,88.570472,0.009421,
1540,360,-0.831733,-17.487091,0.999997,0.000219,-0.003356,0.008851,0.000040,0.008851,-0.003356,89.814307,0.008937,
1400,1280,-0.705902,-5.949732,0.999995,0.000273,-0.006879,0.010474,-0.003603,0.011192,-0.007597,-78.723913,0.011428,
560,1920,1.387326,-1.546382,0.999918,0.000000,-0.005422,0.009834,-0.002522,0.010241,-0.005828,-80.851035,0.010273,
1570,970,-2.847239,-10.720095,0.999997,0.000236,-0.004089,0.011215,-0.001054,0.011288,-0.004161,-86.077747,0.011417,
800,1430,2.018719,-5.698536,0.999995,0.000231,-0.005780,0.010779,0.000116,0.010780,-0.005781,89.597889,0.010790,
860,910,2.780782,-11.360503,0.999998,0.000215,-0.005072,0.011274,0.001427,0.011398,-0.005196,85.048538,0.011412,
830,1330,2.166155,-6.718842,0.999997,0.000269,-0.006290,0.011387,-0.000334,0.011393,-0.006296,-88.919364,0.011414,
1350,1770,-0.215999,-1.770255,0.999997,0.000215,-0.001990,0.007253,-0.000045,0.007253,-0.001991,-89.720320,0.007495,
1350,1170,-1.108823,-6.220945,0.999995,0.000282,-0.002647,0.006296,-0.004681,0.008299,-0.004649,-66.844215,0.008319,
1300,870,-0.742895,-14.875156,0.999993,0.000000,-0.005227,0.002311,0.000891,0.002414,-0.005331,83.348632,0.005339,
1110,1940,0.075382,-0.597515,0.999997,0.000215,-0.000689,0.006475,-0.000343,0.006492,-0.000706,-87.269353,0.007124,
950,1320,1.392180,-6.340317,0.999997,0.000185,-0.007104,0.011874,0.001091,0.011936,-0.007167,86.720094,0.012016,
1540,790,-1.806921,-13.001385,0.999992,0.000343,-0.007192,0.012459,-0.000048,0.012459,-0.007192,-89.860402,0.012509,
1050,1430,0.597783,-4.612990,0.999996,0.000234,-0.004718,0.008760,0.002251,0.009126,-0.005084,80.764812,0.009146,
680,630,2.698850,-14.044990,0.999994,0.000313,-0.005289,0.010286,0.000220,0.010289,-0.005292,89.192569,0.010291,
1830,430,-2.338567,-15.951238,0.999996,0.000240,-0.005020,0.010067,0.000133,0.010068,-0.005021,89.495496,0.010068,
1200,1780,0.053253,-1.650163,0.999998,0.000180,-0.001681,0.006989,0.000038,0.006989,-0.001681,89.746481,0.007296,
750,1680,1.599593,-3.271884,0.999995,0.000248,-0.004687,0.009975,-0.000053,0.009976,-0.004687,-89.791935,0.009982,
1430,1740,-0.420954,-2.081520,0.999996,0.000241,-0.002683,0.007842,-0.000139,0.007844,-0.002684,-89.245129,0.007973,
1180,290,0.092587,-18.397382,0.999998,0.000152,-0.001693,0.007022,0.000023,0.007022,-0.001693,89.851064,0.007329,
1170,600,0.155381,-16.220001,0.999998,0.000184,-0.002826,0.006400,-0.001286,0.006576,-0.003002,-82.209786,0.006585,
1620,310,-1.015181,-17.764688,0.999998,0.000162,-0.003705,0.009183,-0.000252,0.009188,-0.003710,-88.881752,0.009244,
1250,650,-0.040721,-15.998059,0.999998,0.000167,-0.002245,0.005267,0.000583,0.005312,-0.002290,85.585953,0.005329,
1430,660,-0.712441,-15.131158,0.999996,0.000289,-0.005495,0.009537,0.002450,0.009926,-0.005885,80.973666,0.009983,
750,450,1.811052,-16.126804,0.999996,0.000247,-0.004999,0.010091,-0.000252,0.010095,-0.005003,-89.042751,0.010095,
580,1290,3.667030,-7.760828,0.999996,0.000265,-0.005176,0.009623,-0.000175,0.009625,-0.005178,-89.323959,0.009634,
1660,280,-1.073200,-17.961092,0.999996,0.000212,-0.004014,0.009419,-0.000509,0.009438,-0.004034,-87.834429,0.009471,
910,1950,0.226046,-0.588298,0.999997,0.000204,-0.000928,0.007256,-0.001232,0.007438,-0.001110,-81.624062,0.008025,
1770,100,-0.586757,-19.456207,0.999995,0.000248,-0.003088,0.009148,-0.002561,0.009662,-0.003602,-78.641579,0.009766,
670,410,2.094867,-16.278035,0.999996,0.000237,-0.005013,0.010129,-0.000123,0.010130,-0.005014,-89.532864,0.010130,
1850,1840,-1.639227,-2.116006,0.999995,0.000270,-0.004911,0.010111,0.000410,0.010122,-0.004922,88.438495,0.010124,
970,1800,0.480035,-1.694033,0.999997,0.000203,-0.002601,0.007983,-0.000305,0.007992,-0.002609,-88.352848,0.008151,
1010,1100,2.235528,-8.915793,0.999987,0.000420,-0.005840,0.015469,0.000512,0.015482,-0.005852,88.624802,0.015634,
1500,2000,-0.068221,-0.229918,0.999998,0.000194,-0.000544,0.006553,0.000869,0.006658,-0.000649,83.120891,0.007342,
710,1230,3.236095,-8.075678,0.999995,0.000284,-0.005132,0.010304,-0.001029,0.010373,-0.005200,-86.204311,0.010373,
1460,990,-2.452870,-10.673432,0.999991,0.000373,-0.005290,0.015512,0.000158,0.015513,-0.005291,89.563787,0.015772,
1570,950,-2.788308,-10.942539,0.999996,0.000240,-0.004432,0.011392,-0.001265,0.011492,-0.004533,-85.457308,0.011577,
1660,1210,-2.815700,-8.147942,0.999995,0.000284,-0.005534,0.011061,0.001276,0.011159,-0.005632,85.629786,0.011159,
1780,1580,-2.216062,-4.504380,0.999997,0.000201,-0.005131,0.010192,-0.000183,0.010194,-0.005133,-89.314653,0.010194,
1720,50,-0.182522,-19.919574,0.999997,0.000209,-0.000574,0.007729,-0.002648,0.008502,-0.001346,-73.736449,0.009140,
1090,1710,0.309401,-2.236900,0.999998,0.000199,-0.002305,0.007502,0.000185,0.007505,-0.002308,88.920422,0.007688,
560,1910,1.522263,-1.647825,0.999536,0.000000,-0.005912,0.009979,-0.002194,0.010276,-0.006210,-82.282790,0.010351,
830,1310,2.243898,-6.948642,0.999995,0.000288,-0.006310,0.011436,-0.000508,0.011450,-0.006324,-88.363015,0.011471,
990,1620,0.699808,-3.164086,0.999996,0.000229,-0.003868,0.008725,0.000813,0.008777,-0.003920,86.321500,0.008794,
1770,1480,-2.457413,-5.503420,0.999996,0.000240,-0.005284,0.010351,0.000001,0.010351,-0.005284,89.995660,0.010352,
770,140,0.614190,-19.191500,0.999997,0.000182,-0.002517,0.008691,0.001909,0.009007,-0.002833,80.595031,0.009212,
1350,1750,-0.228238,-1.913707,0.999997,0.000202,-0.002106,0.007251,-0.000131,0.007253,-0.002108,-89.197831,0.007462,
1730,840,-3.172764,-11.961881,0.999995,0.000264,-0.005170,0.010367,-0.001107,0.010445,-0.005249,-85.944116,0.010445,
1740,1520,-2.178682,-4.991874,0.999995,0.000234,-0.005272,0.010329,-0.000153,0.010330,-0.005274,-89.439436,0.010331,
1300,30,-0.002516,-20.096335,0.999998,0.000000,0.000017,0.005920,-0.000210,0.005927,0.000009,-87.967688,0.006849,
1010,710,0.918729,-14.474368,0.999995,0.000277,-0.006527,0.010814,-0.002359,0.011129,-0.006842,-82.389999,0.011227,
1200,1760,0.059701,-1.792281,0.999998,0.000168,-0.001798,0.007000,0.000076,0.007001,-0.001798,89.504763,0.007271,
1570,800,-2.063015,-12.757092,0.999994,0.000262,-0.006822,0.012265,-0.000565,0.012282,-0.006839,-88.304641,0.012308,
1290,1680,-0.128606,-2.371335,0.999998,0.000178,-0.002172,0.007141,-0.000123,0.007143,-0.002174,-89.242127,0.007323,
1050,1410,0.606526,-4.787747,0.999995,0.000263,-0.004976,0.008954,0.002438,0.009369,-0.005390,80.354360,0.009404,
1360,430,-0.325486,-17.299064,0.999996,0.000229,-0.002747,0.007529,0.000593,0.007563,-0.002781,86.707060,0.007650,
1830,390,-2.218118,-16.356126,0.999996,0.000235,-0.004936,0.010067,0.000116,0.010068,-0.004937,89.555483,0.010069,
1850,1320,-3.403037,-7.371891,0.999995,0.000224,-0.004950,0.009836,0.000426,0.009848,-0.004962,88.350835,0.009848,
1340,1190,-0.845666,-5.911681,0.999997,0.000223,-0.003537,0.005505,-0.003384,0.006631,-0.004663,-71.594424,0.006811,
1250,630,-0.042218,-16.108390,0.999998,0.000146,-0.002311,0.005594,0.000538,0.005630,-0.002347,86.126802,0.005656,
1750,320,-1.602299,-17.327455,0.999995,0.000247,-0.004766,0.010041,-0.000128,0.010042,-0.004767,-89.502851,0.010046,
1410,1940,-0.114057,-0.610548,0.999998,0.000179,-0.000898,0.006678,0.000503,0.006711,-0.000932,86.216343,0.007271,
1160,290,0.125067,-18.390914,0.999998,0.000182,-0.001737,0.007071,0.000018,0.007071,-0.001737,89.885206,0.007369,
1020,670,0.791679,-14.960562,0.999995,0.000258,-0.005772,0.009935,-0.002369,0.010285,-0.006121,-81.606376,0.010347,
1620,330,-1.065975,-17.577352,0.999997,0.000210,-0.003790,0.009455,-0.000161,0.009457,-0.003792,-89.305675,0.009519,
910,1930,0.283722,-0.738104,0.999997,0.000197,-0.001218,0.007462,-0.001209,0.007627,-0.001383,-82.214400,0.008127,
670,830,3.456261,-11.969606,0.999997,0.000235,-0.004899,0.009818,0.000826,0.009864,-0.004946,86.798239,0.009864,
1660,260,-1.003618,-18.148806,0.999997,0.000203,-0.003881,0.009310,-0.000661,0.009343,-0.003914,-87.137821,0.009384,
570,1290,3.713663,-7.791053,0.999869,0.001399,-0.005341,0.009490,-0.000112,0.009491,-0.005341,-89.568848,0.009515,
1400,1260,-0.764440,-6.159467,0.999994,0.000308,-0.007246,0.010908,-0.003556,0.011580,-0.007918,-79.302598,0.011838,
570,400,2.602772,-16.059761,0.999788,0.001864,-0.007894,0.010248,-0.000232,0.010251,-0.007897,-89.268684,0.010739,
1530,2000,-0.082917,-0.234601,0.999998,0.000160,-0.000364,0.006632,0.001036,0.006782,-0.000515,81.749640,0.007552,
560,1900,1.611201,-1.726813,0.999229,0.000000,-0.006273,0.010540,-0.001516,0.010676,-0.006408,-84.889009,0.010747,
750,430,1.757875,-16.329303,0.999997,0.000218,-0.004971,0.010138,-0.000212,0.010141,-0.004974,-89.196658,0.010142,
1820,1730,-1.957140,-3.110940,0.999997,0.000213,-0.004878,0.010022,0.000032,0.010022,-0.004878,89.876571,0.010023,
770,1420,2.220089,-5.901991,0.999996,0.000227,-0.005718,0.010699,-0.000076,0.010700,-0.005718,-89.735827,0.010708,
1830,820,-3.600358,-12.001690,0.999995,0.000268,-0.004778,0.009509,-0.000643,0.009537,-0.004807,-87.427199,0.009538,
1540,340,-0.791199,-17.667002,0.999998,0.000192,-0.003239,0.008903,-0.000060,0.008904,-0.003239,-89.715244,0.009013,
1460,970,-2.361404,-10.967864,0.999992,0.000364,-0.005458,0.014923,0.000156,0.014924,-0.005459,89.561121,0.015103,
1710,840,-3.066720,-11.991040,0.999996,0.000236,-0.005258,0.010610,-0.001168,0.010696,-0.005344,-85.813231,0.010696,
1270,1560,-0.096961,-3.208520,0.999997,0.000196,-0.002503,0.006927,-0.000326,0.006939,-0.002514,-88.020698,0.007026,
1830,1840,-1.541340,-2.029617,0.999996,0.000261,-0.004766,0.010234,0.000578,0.010256,-0.004788,87.795923,0.010264,
1720,1210,-3.137970,-8.236273,0.999996,0.000231,-0.005188,0.010489,0.001135,0.010571,-0.005270,85.879084,0.010571,
1350,1730,-0.243872,-2.062021,0.999998,0.000183,-0.002232,0.007388,-0.000188,0.007391,-0.002236,-88.880598,0.007581,
1090,1690,0.321191,-2.386378,0.999997,0.000188,-0.002401,0.007600,0.000268,0.007607,-0.002408,88.468724,0.007776,
1170,580,0.155714,-16.349148,0.999998,0.000171,-0.002804,0.006591,-0.001125,0.006724,-0.002937,-83.263780,0.006742,
1820,1780,-1.769926,-2.603249,0.999997,0.000217,-0.004740,0.010119,0.000309,0.010125,-0.004746,88.809211,0.010132,
1340,1180,-0.966801,-5.960224,0.999993,0.000323,-0.002898,0.005262,-0.003599,0.006622,-0.004259,-69.291190,0.006712,
1570,930,-2.700294,-11.178846,0.999996,0.000250,-0.004829,0.011618,-0.001454,0.011745,-0.004957,-84.987653,0.011793,
1000,1660,0.613533,-2.791541,0.999996,0.000234,-0.003302,0.008400,0.000489,0.008420,-0.003323,87.612797,0.008483,
1710,130,-0.610816,-19.260893,0.999997,0.000224,-0.002162,0.008824,-0.002305,0.009288,-0.002626,-78.618911,0.009576,
1050,1390,0.620846,-4.970462,0.999995,0.000278,-0.005293,0.009184,0.002661,0.009658,-0.005767,79.907269,0.009719,
880,1730,0.912794,-2.451953,0.999996,0.000240,-0.003877,0.009192,-0.000026,0.009192,-0.003877,-89.886326,0.009229,
620,1900,1.255667,-1.466421,0.999997,0.000216,-0.004918,0.010409,-0.000933,0.010466,-0.004974,-86.529309,0.010470,
710,1250,3.161817,-7.867913,0.999995,0.000271,-0.005198,0.010332,-0.000964,0.010392,-0.005258,-86.460054,0.010392,
970,1620,0.777656,-3.220464,0.999997,0.000192,-0.003881,0.008830,0.000707,0.008869,-0.003920,86.827109,0.008889,
1060,530,0.510761,-16.398272,0.999996,0.000220,-0.003720,0.008223,-0.001371,0.008379,-0.003875,-83.533584,0.008387,
1650,270,-1.001664,-18.077381,0.999997,0.000192,-0.003690,0.009275,-0.000644,0.009307,-0.003722,-87.161483,0.009369,
1270,1680,-0.085083,-2.361085,0.999997,0.000206,-0.002168,0.007117,-0.000173,0.007121,-0.002171,-88.931507,0.007299,
1780,1560,-2.274913,-4.710055,0.999997,0.000212,-0.005149,0.010216,-0.000155,0.010218,-0.005151,-89.420381,0.010218,
1450,100,-0.120905,-19.640173,0.999997,0.000210,-0.000667,0.006715,-0.000686,0.006779,-0.000730,-84.732397,0.007442,
1490,1070,-2.572183,-9.508269,0.999994,0.000267,-0.004395,0.013457,0.000621,0.013479,-0.004417,88.010285,0.013743,
1520,2000,-0.079115,-0.233548,0.999998,0.000180,-0.000451,0.006598,0.000978,0.006731,-0.000584,82.244344,0.007459,
560,1890,1.645186,-1.858057,0.999337,0.000000,-0.006688,0.010196,-0.000759,0.010230,-0.006722,-87.429622,0.010397,
1750,300,-1.531653,-17.529901,0.999996,0.000266,-0.004745,0.010020,-0.000256,0.010025,-0.004750,-89.007977,0.010029,
1310,410,-0.183067,-17.525032,0.999998,0.000167,-0.002515,0.007273,0.000417,0.007291,-0.002533,87.564364,0.007403,
640,1810,1.653918,-2.306917,0.999995,0.000251,-0.004785,0.010186,-0.000457,0.010200,-0.004798,-88.254872,0.010206,
910,1910,0.340284,-0.888222,0.999997,0.000199,-0.001429,0.007607,-0.001125,0.007745,-0.001567,-83.006777,0.008190,
1670,1260,-2.669797,-7.609245,0.999994,0.000287,-0.005824,0.011177,0.001027,0.011239,-0.005886,86.554497,0.011243,
1010,1080,2.349155,-9.227074,0.999992,0.000380,-0.005698,0.015535,0.000494,0.015546,-0.005710,88.666971,0.015728,
1820,1770,-1.810984,-2.705054,0.999997,0.000209,-0.004757,0.010099,0.000237,0.010103,-0.004761,89.085782,0.010109,
1870,690,-3.346061,-13.178424,0.999997,0.000229,-0.004975,0.010014,-0.000198,0.010017,-0.004977,-89.243395,0.010017,
1690,840,-2.960937,-12.020071,0.999994,0.000270,-0.005352,0.010785,-0.001223,0.010877,-0.005444,-85.691483,0.010877,
1200,1740,0.060277,-1.931738,0.999998,0.000180,-0.001911,0.007034,0.000100,0.007035,-0.001912,89.358514,0.007275,
1140,40,0.010316,-20.036212,0.999998,0.000167,-0.000172,0.006007,0.000197,0.006014,-0.000178,88.172234,0.006843,
1450,1320,-0.949292,-5.938856,0.999996,0.000236,-0.006880,0.011176,-0.002420,0.011495,-0.007198,-82.498058,0.011616,
830,1290,2.324449,-7.176200,0.999994,0.000339,-0.006257,0.011514,-0.000683,0.011540,-0.006283,-87.802219,0.011555,
1450,690,-0.862751,-14.708974,0.999994,0.000310,-0.006201,0.010382,0.002393,0.010721,-0.006539,81.949760,0.010807,
1630,1840,-0.749837,-1.551858,0.999996,0.000240,-0.002794,0.008807,0.001140,0.008918,-0.002905,84.438173,0.009097,
660,770,3.292803,-12.554762,0.999995,0.000234,-0.005041,0.010020,0.000739,0.010056,-0.005077,87.198302,0.010057,
1400,1240,-0.850402,-6.389402,0.999994,0.000301,-0.007434,0.011475,-0.003484,0.012097,-0.008055,-79.885339,0.012317,
650,80,0.534760,-19.600945,0.999994,0.000276,-0.002489,0.010252,0.003629,0.011213,-0.003451,75.165807,0.011486,
670,850,3.517889,-11.775428,0.999995,0.000267,-0.004835,0.009777,0.000868,0.009828,-0.004887,86.612044,0.009828,
1390,1940,-0.096016,-0.604563,0.999998,0.000150,-0.000656,0.006597,0.000459,0.006626,-0.000685,86.396408,0.007288,
1660,460,-1.571882,-16.195600,0.999996,0.000266,-0.004960,0.010039,0.000346,0.010047,-0.004968,88.677894,0.010047,
1000,1620,0.661052,-3.135801,0.999996,0.000229,-0.003754,0.008613,0.000825,0.008668,-0.003809,86.198666,0.008689,
1600,530,-1.426516,-15.683707,0.999994,0.000264,-0.005240,0.010200,0.000650,0.010227,-0.005268,87.591850,0.010229,
1500,1210,-1.796901,-7.669367,0.999995,0.000296,-0.007444,0.013312,0.000129,0.013313,-0.007445,89.643277,0.013344,
1150,790,0.248909,-15.041592,0.999994,0.000296,-0.004118,0.005240,-0.003979,0.006703,-0.005581,-69.809639,0.007180,
1820,1760,-1.848995,-2.807373,0.999997,0.000210,-0.004792,0.010094,0.000188,0.010096,-0.004794,89.278265,0.010100,
980,170,0.286743,-19.130924,0.999996,0.000215,-0.001582,0.007362,0.000683,0.007413,-0.001634,85.659584,0.007790,
990,420,0.680601,-17.126397,0.999997,0.000235,-0.003728,0.008628,-0.000715,0.008669,-0.003769,-86.700978,0.008694,
730,980,3.552571,-10.544223,0.999995,0.000245,-0.004334,0.009725,0.000386,0.009736,-0.004344,88.429759,0.009754,
750,410,1.701509,-16.533688,0.999998,0.000205,-0.004924,0.010092,-0.000164,0.010093,-0.004925,-89.375064,0.010094,
970,250,0.469044,-18.505705,0.999997,0.000228,-0.002577,0.007963,0.000320,0.007973,-0.002587,88.263593,0.008135,
620,1860,1.500998,-1.881325,0.999995,0.000261,-0.004878,0.010164,-0.000555,0.010184,-0.004898,-87.889104,0.010187,
1710,110,-0.489156,-19.441309,0.999996,0.000226,-0.001739,0.008653,-0.002455,0.009204,-0.002290,-77.353048,0.009583,
1570,910,-2.613401,-11.410111,0.999996,0.000246,-0.005301,0.011807,-0.001450,0.011929,-0.005423,-85.188412,0.011946,
780,1430,2.132903,-5.763948,0.999995,0.000252,-0.005724,0.010721,0.000017,0.010721,-0.005724,89.939107,0.010730,
1650,250,-0.929943,-18.263429,0.999997,0.000216,-0.003521,0.009257,-0.000812,0.009308,-0.003572,-86.379064,0.009392,
920,470,1.038473,-16.468028,0.999997,0.000249,-0.004513,0.009482,-0.000740,0.009521,-0.004552,-86.983397,0.009524,
1810,1980,-0.483608,-0.503567,0.999996,0.000208,-0.002105,0.010020,0.003768,0.011095,-0.003181,74.070025,0.011427,
1160,610,0.183421,-16.126025,0.999997,0.000218,-0.002874,0.006451,-0.001502,0.006687,-0.003110,-81.070711,0.006693,
1090,1670,0.337240,-2.540343,0.999997,0.000198,-0.002507,0.007635,0.000335,0.007646,-0.002518,88.109499,0.007793,
710,1270,3.090945,-7.659146,0.999997,0.000226,-0.005223,0.010346,-0.000894,0.010397,-0.005274,-86.725785,0.010397,
1540,320,-0.749583,-17.845034,0.999997,0.000216,-0.003145,0.008701,-0.000088,0.008702,-0.003145,-89.576008,0.008812,
1190,1680,0.092517,-2.362548,0.999997,0.000179,-0.002193,0.007081,0.000150,0.007084,-0.002196,89.073954,0.007252,
790,1030,3.337285,-10.054729,0.999996,0.000248,-0.004087,0.010075,-0.000056,0.010075,-0.004087,-89.773531,0.010134,
1050,1370,0.641003,-5.157628,0.999995,0.000259,-0.005581,0.009401,0.002835,0.009919,-0.006099,79.633902,0.010006,
1360,650,-0.372070,-15.623108,0.999996,0.000255,-0.003999,0.007628,0.002532,0.008156,-0.004526,78.233940,0.008172,
880,1710,0.960161,-2.636938,0.999997,0.000220,-0.004041,0.009182,0.000103,0.009183,-0.004042,89.554868,0.009205,
1890,140,-1.382395,-18.616121,0.999995,0.000283,-0.004834,0.010526,-0.001257,0.010628,-0.004937,-85.351702,0.010637,
1490,1030,-2.656819,-10.047410,0.999995,0.000295,-0.003984,0.013036,0.000041,0.013036,-0.003984,89.863547,0.013360,
800,1530,1.747185,-4.637395,0.999997,0.000182,-0.005252,0.010334,0.000397,0.010344,-0.005263,88.541622,0.010345,
1010,100,0.125520,-19.639249,0.999998,0.000197,-0.000671,0.006704,0.000685,0.006768,-0.000734,84.736345,0.007427,
560,1880,1.695507,-1.971935,0.999766,0.000000,-0.006392,0.010057,-0.000576,0.010077,-0.006412,-87.998218,0.010201,
1550,800,-1.922601,-12.834291,0.999993,0.000347,-0.007051,0.012442,-0.000329,0.012448,-0.007056,-89.033647,0.012485,
890,950,2.803551,-10.938776,0.999994,0.000273,-0.004459,0.011328,0.001267,0.011429,-0.004560,85.439266,0.011507,
1370,1620,-0.353364,-2.914724,0.999996,0.000247,-0.002900,0.007669,-0.000672,0.007711,-0.002942,-86.377820,0.007783,
1150,40,0.008765,-20.036444,0.999998,0.000162,-0.000128,0.006000,0.000184,0.006006,-0.000134,88.280403,0.006859,
830,1270,2.405738,-7.410691,0.999994,0.000304,-0.006206,0.011562,-0.000851,0.011603,-0.006247,-87.262682,0.011614,
930,1100,2.642091,-9.221780,0.999992,0.000327,-0.004534,0.012075,-0.001265,0.012171,-0.004630,-85.668199,0.012286,
1780,1540,-2.331058,-4.914216,0.999996,0.000253,-0.005168,0.010241,-0.000126,0.010242,-0.005169,-89.532030,0.010242,
1310,390,-0.177158,-17.669738,0.999998,0.000161,-0.002422,0.007247,0.000317,0.007257,-0.002433,88.125245,0.007387,
1150,770,0.215363,-15.140271,0.999995,0.000252,-0.003883,0.005394,-0.003832,0.006772,-0.005261,-70.219625,0.007110,
990,460,0.729678,-16.775209,0.999997,0.000215,-0.003950,0.008772,-0.000912,0.008837,-0.004015,-85.922533,0.008849,
750,390,1.642524,-16.736905,0.999996,0.000248,-0.004826,0.010008,-0.000071,0.010008,-0.004826,-89.724993,0.010010,
1820,830,-3.582982,-11.926009,0.999995,0.000241,-0.004782,0.009553,-0.000708,0.009587,-0.004817,-87.178071,0.009587,
1690,880,-3.106010,-11.591394,0.999996,0.000246,-0.004995,0.010544,-0.001207,0.010637,-0.005089,-85.586082,0.010640,
680,1550,2.317354,-4.821577,0.999994,0.000271,-0.005163,0.010221,0.000140,0.010223,-0.005164,89.478278,0.010223,
1820,1740,-1.922624,-3.009952,0.999997,0.000216,-0.004836,0.010038,0.000088,0.010038,-0.004837,89.661910,0.010041,
1200,1720,0.065147,-2.074337,0.999998,0.000181,-0.001995,0.007073,0.000138,0.007075,-0.001997,89.127597,0.007295,
1710,90,-0.389835,-19.604378,0.999996,0.000224,-0.001395,0.008101,-0.002363,0.008657,-0.001950,-76.771816,0.009082,
800,190,0.750319,-18.787938,0.999996,0.000240,-0.003321,0.008964,0.001263,0.009092,-0.003450,84.190284,0.009180,
930,340,0.768358,-17.679463,0.999997,0.000211,-0.003210,0.008895,0.000029,0.008895,-0.003210,89.862515,0.009009,
1430,1320,-0.815357,-5.787774,0.999995,0.000246,-0.006666,0.010703,-0.002851,0.011159,-0.007122,-80.912715,0.011300,
1650,230,-0.860886,-18.449726,0.999997,0.000208,-0.003333,0.009138,-0.000955,0.009210,-0.003405,-85.645466,0.009314,
910,1890,0.397544,-1.043002,0.999997,0.000211,-0.001706,0.007761,-0.001066,0.007879,-0.001825,-83.654191,0.008249,
1140,1290,0.253834,-5.079712,0.999993,0.000328,-0.004163,0.005954,0.003969,0.007325,-0.005534,70.942723,0.007638,
640,770,3.391520,-12.510670,0.999997,0.000208,-0.004968,0.009936,0.000634,0.009963,-0.004995,87.567482,0.009963,
1350,1710,-0.254557,-2.209279,0.999997,0.000211,-0.002338,0.007344,-0.000300,0.007353,-0.002347,-88.224052,0.007512,
1570,1330,-1.755926,-6.494629,0.999995,0.000246,-0.006738,0.011798,-0.000282,0.011802,-0.006743,-89.127767,0.011842,
1000,1080,2.409009,-9.281699,0.999993,0.000333,-0.005298,0.014689,-0.000004,0.014689,-0.005298,-89.989039,0.014877,
1790,1400,-2.818503,-6.393243,0.999996,0.000248,-0.005251,0.010349,0.000300,0.010354,-0.005257,88.896996,0.010355,
1450,1430,-0.785393,-4.808799,0.999996,0.000242,-0.005292,0.009498,-0.002088,0.009787,-0.005581,-82.116695,0.009820,
1820,1750,-1.886602,-2.909763,0.999997,0.000212,-0.004810,0.010069,0.000144,0.010071,-0.004812,89.446338,0.010074,
1660,1740,-1.184051,-2.534181,0.999997,0.000235,-0.004231,0.009575,0.000215,0.009578,-0.004234,89.108000,0.009600,
1130,1940,0.062014,-0.592702,0.999998,0.000158,-0.000724,0.006422,-0.000233,0.006429,-0.000732,-88.130622,0.007040,
1290,1880,-0.060836,-0.975680,0.999998,0.000164,-0.000928,0.006574,0.000119,0.006576,-0.000930,89.092085,0.007117,
1090,1650,0.347939,-2.692649,0.999997,0.000215,-0.002679,0.007601,0.000485,0.007623,-0.002702,87.304781,0.007730,
710,1290,3.016317,-7.452646,0.999997,0.000247,-0.005293,0.010453,-0.000856,0.010500,-0.005339,-86.896278,0.010500,
620,1320,3.369714,-7.351158,0.999997,0.000221,-0.004955,0.009890,-0.000451,0.009903,-0.004969,-88.260432,0.009903,
1190,620,0.098324,-16.139786,0.999997,0.000191,-0.002559,0.005946,-0.000883,0.006037,-0.002650,-84.132218,0.006052,
1400,1220,-0.950561,-6.622095,0.999995,0.000265,-0.007435,0.011641,-0.003196,0.012163,-0.007956,-80.736459,0.012354,
650,60,0.354791,-19.806778,0.999993,0.000289,-0.001960,0.009435,0.003616,0.010486,-0.003011,73.799102,0.010798,
1050,410,0.471718,-17.348021,0.999997,0.000228,-0.003204,0.008046,-0.000698,0.008089,-0.003247,-86.463491,0.008141,
670,870,3.581709,-11.579099,0.999995,0.000255,-0.004800,0.009831,0.000936,0.009891,-0.004859,86.354273,0.009891,
660,650,2.871096,-13.782010,0.999996,0.000230,-0.005223,0.010285,0.000255,0.010289,-0.005227,89.058864,0.010289,
560,1870,1.755396,-2.037840,0.999895,0.000000,-0.005774,0.009517,-0.000510,0.009534,-0.005791,-88.093150,0.009607,
810,1740,1.154885,-2.516373,0.999996,0.000233,-0.004131,0.009541,-0.000247,0.009545,-0.004135,-88.965084,0.009573,
1350,1680,-0.271852,-2.435205,0.999997,0.000239,-0.002495,0.007560,-0.000366,0.007573,-0.002508,-87.919188,0.007715,
1530,1510,-1.091011,-4.368244,0.999997,0.000230,-0.005053,0.009876,-0.001081,0.009954,-0.005131,-85.878634,0.009956,
970,230,0.428437,-18.667392,0.999997,0.000212,-0.002389,0.007846,0.000397,0.007861,-0.002405,87.779955,0.008056,
1650,200,-0.748771,-18.718771,0.999995,0.000261,-0.002999,0.008901,-0.001226,0.009026,-0.003124,-84.180446,0.009167,
1060,510,0.502239,-16.562906,0.999995,0.000244,-0.003563,0.008145,-0.001219,0.008271,-0.003689,-84.119904,0.008287,
1780,1520,-2.389160,-5.120331,0.999995,0.000253,-0.005197,0.010290,-0.000071,0.010291,-0.005198,-89.738958,0.010291,
1210,1620,0.052338,-2.778361,0.999998,0.000185,-0.002405,0.007038,0.000243,0.007045,-0.002411,88.528658,0.007160,
1720,690,-2.559031,-13.588165,0.999994,0.000306,-0.005662,0.010739,-0.000445,0.010751,-0.005674,-88.448539,0.010756,
750,370,1.583439,-16.938543,0.999995,0.000253,-0.004682,0.009941,0.000066,0.009941,-0.004682,89.742637,0.009947,
1710,70,-0.275384,-19.770294,0.999997,0.000202,-0.001006,0.007874,-0.002455,0.008508,-0.001639,-75.529503,0.009027,
1690,860,-3.038985,-11.802949,0.999996,0.000246,-0.005166,0.010671,-0.001223,0.010764,-0.005260,-85.611054,0.010765,
1490,740,-1.247568,-13.891423,0.999990,0.000369,-0.007158,0.011799,0.001483,0.011914,-0.007273,85.553036,0.012010,
790,1050,3.321005,-9.852718,0.999996,0.000228,-0.004108,0.010060,-0.000347,0.010069,-0.004116,-88.599832,0.010125,
1650,210,-0.784981,-18.629319,0.999996,0.000221,-0.003129,0.008952,-0.001129,0.009056,-0.003234,-84.707303,0.009179,
990,440,0.705281,-16.950334,0.999996,0.000243,-0.003857,0.008706,-0.000826,0.008760,-0.003911,-86.252819,0.008777,
1820,1720,-1.992890,-3.211493,0.999996,0.000240,-0.004919,0.010028,-0.000004,0.010028,-0.004919,-89.983699,0.010029,
1480,1210,-1.643192,-7.541198,0.999995,0.000303,-0.007696,0.013440,-0.000340,0.013446,-0.007701,-89.079149,0.013493,
1510,2000,-0.073265,-0.231896,0.999998,0.000208,-0.000514,0.006571,0.000917,0.006688,-0.000631,82.741001,0.007386,
920,450,1.004752,-16.656901,0.999998,0.000186,-0.004437,0.009400,-0.000688,0.009434,-0.004471,-87.158648,0.009439,
1570,1350,-1.689276,-6.257632,0.999996,0.000236,-0.006622,0.011561,-0.000431,0.011571,-0.006633,-88.643791,0.011612,
1000,1060,2.489145,-9.576813,0.999991,0.000360,-0.005093,0.015552,0.000072,0.015553,-0.005093,89.800424,0.015858,
1870,820,-3.785460,-11.916307,0.999995,0.000264,-0.004601,0.009231,-0.000342,0.009240,-0.004609,-88.584287,0.009240,
1750,1420,-2.537729,-6.072309,0.999995,0.000275,-0.005446,0.010466,0.000206,0.010468,-0.005449,89.257713,0.010471,
1660,1760,-1.120803,-2.341927,0.999997,0.000220,-0.004104,0.009518,0.000385,0.009529,-0.004115,88.382145,0.009558,
1120,40,0.015814,-20.034760,0.999998,0.000154,-0.000202,0.006009,0.000240,0.006018,-0.000211,87.791596,0.006831,
1090,1630,0.355875,-2.841162,0.999997,0.000219,-0.002849,0.007674,0.000619,0.007710,-0.002886,86.644792,0.007791,
990,1100,2.345351,-9.037582,0.999992,0.000341,-0.005398,0.014280,-0.000522,0.014294,-0.005412,-88.480992,0.014434,
1690,1900,-0.679822,-1.099227,0.999997,0.000201,-0.002895,0.008956,0.001822,0.009230,-0.003168,81.453527,0.009380,
1190,540,0.104974,-16.642678,0.999998,0.000179,-0.002557,0.006668,-0.000478,0.006693,-0.002581,-87.043636,0.006751,
1400,1420,-0.542750,-4.632549,0.999995,0.000250,-0.004673,0.008575,-0.002426,0.009005,-0.005103,-79.944161,0.009032,
1280,1750,-0.091322,-1.866991,0.999998,0.000146,-0.001781,0.007053,-0.000046,0.007053,-0.001782,-89.699044,0.007335,
910,1870,0.452693,-1.199771,0.999996,0.000238,-0.001912,0.007914,-0.000967,0.008009,-0.002006,-84.431775,0.008334,
620,1300,3.436644,-7.551709,0.999996,0.000250,-0.004929,0.009849,-0.000488,0.009866,-0.004945,-88.110471,0.009866,
830,1250,2.489927,-7.642158,0.999994,0.000283,-0.006105,0.011539,-0.001049,0.011601,-0.006167,-86.608270,0.011609,
670,890,3.643829,-11.379645,0.999995,0.000277,-0.004683,0.009653,0.000777,0.009695,-0.004725,86.906338,0.009696,
1890,130,-1.304227,-18.724024,0.999995,0.000277,-0.004802,0.010703,-0.001474,0.010842,-0.004941,-84.619311,0.010856,
1450,1390,-0.825763,-5.192668,0.999995,0.000255,-0.005809,0.010037,-0.002301,0.010364,-0.006136,-81.902284,0.010423,
560,1860,1.804432,-2.141192,0.999930,0.000000,-0.005443,0.009690,-0.000463,0.009704,-0.005457,-88.249919,0.009729,
1050,1350,0.660020,-5.351619,0.999995,0.000246,-0.005895,0.009695,0.002980,0.010245,-0.006445,79.538265,0.010358,
1150,750,0.201824,-15.248141,0.999997,0.000221,-0.003628,0.005501,-0.003597,0.006748,-0.004876,-70.878729,0.006967,
1810,2010,-0.225817,-0.222431,0.999996,0.000226,-0.001237,0.008818,0.003690,0.010027,-0.002446,71.862035,0.010456,
1350,1690,-0.266566,-2.357525,0.999997,0.000229,-0.002443,0.007522,-0.000336,0.007533,-0.002455,-88.069133,0.007684,
970,210,0.389600,-18.820846,0.999998,0.000202,-0.002188,0.007663,0.000514,0.007690,-0.002215,87.024224,0.007917,
1780,1500,-2.447600,-5.327625,0.999995,0.000235,-0.005237,0.010289,-0.000038,0.010290,-0.005237,-89.860754,0.010290,
1540,300,-0.712469,-18.014343,0.999996,0.000227,-0.003013,0.008562,-0.000218,0.008566,-0.003017,-88.922225,0.008690,
1890,1780,-2.110081,-2.881038,0.999998,0.000200,-0.004843,0.009655,0.000030,0.009655,-0.004843,89.881162,0.009655,
850,1640,1.242166,-3.371695,0.999997,0.000203,-0.004502,0.009659,0.000315,0.009666,-0.004509,88.725997,0.009674,
1360,450,-0.332762,-17.147915,0.999997,0.000203,-0.002846,0.007582,0.000722,0.007632,-0.002896,86.056861,0.007705,
710,1730,1.633371,-2.892433,0.999996,0.000220,-0.004845,0.009998,-0.000078,0.009999,-0.004845,-89.699713,0.010000,
1450,1760,-0.447646,-1.957230,0.999996,0.000249,-0.002455,0.007844,0.000063,0.007845,-0.002455,89.647928,0.008026,
1190,1620,0.100264,-2.790242,0.999998,0.000170,-0.002405,0.007057,0.000236,0.007063,-0.002411,88.572815,0.007181,
750,350,1.522303,-17.136702,0.999995,0.000251,-0.004546,0.009947,0.000183,0.009949,-0.004548,89.277612,0.009961,
1430,620,-0.675183,-15.509215,0.999995,0.000290,-0.004987,0.009110,0.002144,0.009428,-0.005306,81.540148,0.009453,
1670,880,-3.007695,-11.611988,0.999996,0.000252,-0.005122,0.010728,-0.001245,0.010825,-0.005219,-85.534203,0.010827,
1360,2000,-0.028030,-0.217199,0.999998,0.000180,-0.000219,0.006152,0.000331,0.006169,-0.000236,87.035747,0.006991,
1810,100,-0.707133,-19.399355,0.999997,0.000221,-0.002927,0.010094,-0.003083,0.010787,-0.003620,-77.330778,0.010979,
1700,1980,-0.295194,-0.428275,0.999997,0.000217,-0.001183,0.007856,0.002337,0.008424,-0.001752,76.327932,0.008890,
1490,640,-1.025836,-15.001258,0.999995,0.000287,-0.005871,0.010262,0.001739,0.010447,-0.006056,83.916267,0.010492,
1820,1700,-2.058896,-3.415770,0.999996,0.000239,-0.004959,0.010046,-0.000020,0.010046,-0.004959,-89.921769,0.010046,
1090,1610,0.366982,-2.996074,0.999996,0.000234,-0.003007,0.007706,0.000756,0.007759,-0.003060,85.982960,0.007816,
1570,1370,-1.626745,-6.028791,0.999995,0.000258,-0.006494,0.011331,-0.000543,0.011347,-0.006511,-88.255660,0.011389,
1650,190,-0.710217,-18.809029,0.999996,0.000243,-0.002880,0.008810,-0.001312,0.008956,-0.003026,-83.672567,0.009111,
1120,1290,0.344500,-5.271966,0.999995,0.000279,-0.004895,0.007241,0.004184,0.008544,-0.006198,72.707580,0.008828,
1720,40,-0.124213,-19.997015,0.999998,0.000198,-0.000258,0.007684,-0.002743,0.008539,-0.001114,-72.681985,0.009284,
1850,820,-3.692677,-11.962214,0.999996,0.000226,-0.004672,0.009339,-0.000520,0.009358,-0.004691,-87.876652,0.009358,
1730,1420,-2.428937,-6.011994,0.999996,0.000226,-0.005549,0.010556,0.000171,0.010557,-0.005551,89.392832,0.010562,
1000,1040,2.532813,-9.894813,0.999989,0.000417,-0.005011,0.015482,0.000079,0.015482,-0.005012,89.779849,0.015800,
600,1490,2.903761,-5.689167,0.999996,0.000248,-0.005069,0.010195,-0.000013,0.010195,-0.005069,-89.952788,0.010195,
880,850,2.389078,-12.102297,0.999993,0.000345,-0.006247,0.012039,0.001224,0.012120,-0.006328,86.186382,0.012124,
1290,2020,-0.006296,-0.092637,0.999998,0.000000,0.000050,0.006000,0.000150,0.006003,0.000046,88.552531,0.006959,
1490,490,-0.831563,-16.458194,0.999996,0.000228,-0.004247,0.009100,0.001024,0.009178,-0.004325,85.639139,0.009183,
1450,1370,-0.853426,-5.395842,0.999995,0.000261,-0.006116,0.010341,-0.002382,0.010678,-0.006454,-81.928503,0.010756,
780,1530,1.853034,-4.704789,0.999996,0.000258,-0.005300,0.010374,0.000326,0.010381,-0.005307,88.810232,0.010382,
1170,560,0.157610,-16.486816,0.999998,0.000173,-0.002792,0.006681,-0.000954,0.006776,-0.002887,-84.308322,0.006801,
1420,1240,-1.005667,-6.613028,0.999993,0.000322,-0.007776,0.012047,-0.002803,0.012436,-0.008165,-82.103419,0.012637,
1890,110,-1.145195,-18.941365,0.999996,0.000241,-0.004648,0.011107,-0.001974,0.011350,-0.004892,-82.964497,0.011386,
1640,1210,-2.705118,-8.116069,0.999996,0.000256,-0.005727,0.011265,0.001270,0.011359,-0.005821,85.749872,0.011360,
890,930,2.712971,-11.173623,0.999996,0.000239,-0.004848,0.011563,0.001475,0.011695,-0.004979,84.906140,0.011738,
940,1750,0.668958,-2.154918,0.999997,0.000206,-0.003083,0.008409,-0.000079,0.008409,-0.003084,-89.608626,0.008509,
560,1850,1.847832,-2.250346,0.999960,0.000000,-0.005225,0.010329,-0.000444,0.010342,-0.005238,-88.367105,0.010342,
1660,1780,-1.055654,-2.151015,0.999996,0.000242,-0.003997,0.009433,0.000540,0.009454,-0.004019,87.703059,0.009490,
1310,370,-0.170180,-17.815724,0.999998,0.000172,-0.002305,0.007242,0.000235,0.007248,-0.002311,88.592094,0.007405,
800,250,0.981375,-18.232653,0.999997,0.000209,-0.003890,0.009335,0.000721,0.009374,-0.003930,86.889528,0.009415,
670,1330,3.080706,-7.123009,0.999997,0.000225,-0.005184,0.010242,-0.000617,0.010267,-0.005209,-87.714686,0.010267,
1740,980,-3.582286,-10.542178,0.999996,0.000209,-0.004374,0.009663,-0.000353,0.009672,-0.004383,-88.561113,0.009686,
970,190,0.345348,-18.974799,0.999997,0.000225,-0.002009,0.007543,0.000643,0.007586,-0.002052,86.169042,0.007848,
1140,730,0.234673,-15.288372,0.999996,0.000260,-0.003711,0.006149,-0.003440,0.007231,-0.004792,-72.548308,0.007357,
710,1710,1.698504,-3.094782,0.999996,0.000226,-0.004839,0.010042,-0.000022,0.010042,-0.004839,-89.917215,0.010044,
1050,1310,0.721790,-5.756470,0.999996,0.000251,-0.006594,0.010374,0.003246,0.010973,-0.007194,79.533010,0.011149,
620,1280,3.509003,-7.747806,0.999995,0.000249,-0.004903,0.009824,-0.000537,0.009843,-0.004922,-87.914347,0.009843,
650,1660,2.148245,-3.797091,0.999996,0.000246,-0.004943,0.010090,0.000116,0.010091,-0.004944,89.556703,0.010092,
1190,1940,0.027559,-0.585323,0.999998,0.000169,-0.000551,0.006327,-0.000118,0.006329,-0.000553,-89.017169,0.007010,
1240,1430,-0.019458,-4.012632,0.999998,0.000145,-0.002308,0.005642,-0.000277,0.005652,-0.002318,-88.006951,0.005682,
1010,1800,0.392913,-1.648347,0.999996,0.000223,-0.002087,0.007692,-0.000281,0.007700,-0.002095,-88.352980,0.007962,
1430,600,-0.662460,-15.690019,0.999996,0.000236,-0.004703,0.009011,0.001955,0.009284,-0.004977,82.045268,0.009292,
750,330,1.461348,-17.335150,0.999996,0.000236,-0.004440,0.009897,0.000231,0.009900,-0.004443,89.075300,0.009918,
1200,1700,0.066027,-2.215652,0.999998,0.000163,-0.002109,0.007069,0.000171,0.007072,-0.002113,88.931736,0.007261,
1650,620,-1.928454,-14.559424,0.999996,0.000211,-0.005790,0.010800,0.000213,0.010803,-0.005793,89.265877,0.010812,
1750,1320,-2.888594,-7.126983,0.999996,0.000244,-0.005435,0.010458,0.000713,0.010490,-0.005467,87.438008,0.010493,
1430,1120,-1.953099,-8.379413,0.999993,0.000335,-0.006550,0.015170,-0.002257,0.015402,-0.006782,-84.130951,0.015439,
1030,1620,0.556488,-3.061584,0.999997,0.000202,-0.003274,0.008212,0.000687,0.008253,-0.003315,86.587273,0.008306,
1820,1680,-2.120755,-3.616180,0.999996,0.000214,-0.004954,0.010097,-0.000080,0.010097,-0.004955,-89.693716,0.010098,
1250,610,-0.044334,-16.222898,0.999998,0.000152,-0.002373,0.005868,0.000480,0.005896,-0.002401,86.675218,0.005930,
870,240,0.721047,-18.446088,0.999997,0.000208,-0.003218,0.008755,0.000673,0.008792,-0.003255,86.792453,0.008890,
1540,260,-0.622249,-18.355468,0.999996,0.000235,-0.002640,0.008327,-0.000492,0.008349,-0.002662,-87.437227,0.008530,
930,680,1.371591,-14.353651,0.999993,0.000313,-0.006494,0.011245,-0.001098,0.011313,-0.006562,-86.471173,0.011361,
860,710,1.921818,-13.715523,0.999994,0.000283,-0.006430,0.011523,-0.000023,0.011523,-0.006430,-89.927653,0.011549,
1570,1390,-1.570105,-5.799957,0.999996,0.000255,-0.006336,0.011203,-0.000649,0.011227,-0.006360,-87.882923,0.011260,
1700,1960,-0.398094,-0.584709,0.999996,0.000240,-0.001491,0.008144,0.002290,0.008661,-0.002007,77.287942,0.009066,
1090,1590,0.376814,-3.150563,0.999996,0.000232,-0.003146,0.007759,0.000945,0.007841,-0.003227,85.083034,0.007881,
1170,540,0.156201,-16.619645,0.999997,0.000192,-0.002745,0.006831,-0.000831,0.006902,-0.002816,-85.079065,0.006941,
750,1100,3.423758,-9.361002,0.999996,0.000221,-0.004446,0.010038,-0.000845,0.010088,-0.004495,-86.670849,0.010107,
1020,110,0.133282,-19.573782,0.999998,0.000187,-0.000840,0.006771,0.000666,0.006829,-0.000898,85.035717,0.007421,
1780,1480,-2.509526,-5.535304,0.999996,0.000236,-0.005254,0.010324,0.000014,0.010324,-0.005254,89.948138,0.010324,
1400,40,-0.021895,-20.032726,0.999998,0.000160,-0.000193,0.006103,-0.000461,0.006137,-0.000227,-85.834132,0.006959,
1650,170,-0.626584,-18.983744,0.999996,0.000212,-0.002611,0.008631,-0.001482,0.008823,-0.002803,-82.616113,0.009017,
750,980,3.466433,-10.548801,0.999995,0.000259,-0.004349,0.009895,0.000419,0.009907,-0.004361,88.316402,0.009931,
1000,1020,2.536681,-10.189331,0.999991,0.000387,-0.004992,0.015228,-0.000051,0.015228,-0.004992,-89.855566,0.015527,
880,910,2.679017,-11.387306,0.999995,0.000253,-0.005215,0.011572,0.001408,0.011689,-0.005332,85.239830,0.011704,
790,1070,3.303202,-9.650992,0.999996,0.000232,-0.004192,0.010110,-0.000468,0.010125,-0.004207,-88.126931,0.010173,
840,410,1.275350,-16.808046,0.999995,0.000278,-0.004543,0.009663,-0.000275,0.009669,-0.004548,-88.890122,0.009674,
1420,850,-1.207777,-13.108908,0.999989,0.000421,-0.007505,0.012793,0.002500,0.013096,-0.007808,83.081621,0.013177,
1490,470,-0.809154,-16.635907,0.999997,0.000199,-0.004055,0.008926,0.000871,0.008984,-0.004113,86.177860,0.008994,
560,1840,1.899315,-2.351385,0.999972,0.000000,-0.005037,0.010121,-0.000378,0.010130,-0.005046,-88.573437,0.010131,
1050,1290,0.766331,-5.962988,0.999995,0.000263,-0.006973,0.010782,0.003274,0.011367,-0.007558,79.877022,0.011571,
1170,1560,0.155024,-3.225271,0.999997,0.000181,-0.002672,0.006993,0.000544,0.007023,-0.002703,86.787761,0.007085,
920,1530,1.125877,-4.219804,0.999995,0.000280,-0.004949,0.009793,0.000967,0.009856,-0.005012,86.262475,0.009856,
970,170,0.303525,-19.123360,0.999997,0.000210,-0.001768,0.007414,0.000695,0.007466,-0.001820,85.694030,0.007786,
890,910,2.628457,-11.402444,0.999995,0.000277,-0.005278,0.011760,0.001429,0.011880,-0.005397,85.237974,0.011896,
1450,1350,-0.890814,-5.615055,0.999995,0.000269,-0.006408,0.010655,-0.002426,0.010993,-0.006746,-82.062884,0.011087,
1360,510,-0.350966,-16.693449,0.999996,0.000201,-0.003265,0.007646,0.001197,0.007776,-0.003394,83.813429,0.007797,
1740,960,-3.558026,-10.737018,0.999996,0.000229,-0.004441,0.009842,-0.000664,0.009873,-0.004472,-87.343444,0.009888,
620,1260,3.580373,-7.945577,0.999996,0.000247,-0.004823,0.009642,-0.000557,0.009664,-0.004845,-87.799001,0.009664,
1270,1940,-0.024605,-0.586236,0.999998,0.000168,-0.000583,0.006338,0.000118,0.006340,-0.000585,89.025245,0.007008,
1670,1310,-2.471942,-7.048376,0.999995,0.000250,-0.005993,0.011139,0.000694,0.011167,-0.006021,87.683483,0.011178,
650,1680,2.086100,-3.595089,0.999997,0.000224,-0.004952,0.010084,0.000078,0.010084,-0.004953,89.702364,0.010085,
710,1690,1.764124,-3.295586,0.999996,0.000239,-0.004878,0.010088,0.000033,0.010088,-0.004878,89.872616,0.010090,
1630,820,-2.536315,-12.350455,0.999994,0.000279,-0.006041,0.011560,-0.001125,0.011631,-0.006113,-86.359111,0.011636,
1010,1620,0.623668,-3.105812,0.999997,0.000213,-0.003568,0.008478,0.000776,0.008528,-0.003617,86.327011,0.008560,
1010,640,0.815720,-15.195456,0.999995,0.000282,-0.005476,0.009674,-0.002116,0.009964,-0.005766,-82.196037,0.010005,
750,310,1.401672,-17.533689,0.999997,0.000233,-0.004316,0.009807,0.000355,0.009816,-0.004325,88.559293,0.009839,
670,1310,3.153376,-7.331595,0.999997,0.000212,-0.005128,0.010201,-0.000672,0.010230,-0.005157,-87.495285,0.010230,
770,1800,1.121898,-2.041312,0.999995,0.000264,-0.003975,0.009562,-0.000787,0.009608,-0.004020,-86.683273,0.009650,
830,1230,2.577746,-7.875033,0.999994,0.000282,-0.005963,0.011478,-0.001183,0.011558,-0.006043,-86.137046,0.011562,
930,660,1.323888,-14.578488,0.999995,0.000275,-0.006283,0.011045,-0.001164,0.011123,-0.006361,-86.173663,0.011161,
1540,240,-0.569037,-18.525543,0.999996,0.000246,-0.002452,0.008334,-0.000647,0.008372,-0.002490,-86.580068,0.008598,
1820,1660,-2.182240,-3.819627,0.999997,0.000208,-0.004952,0.010096,-0.000133,0.010098,-0.004954,-89.494344,0.010098,
1500,1710,-0.669058,-2.454779,0.999996,0.000232,-0.003457,0.008546,-0.000281,0.008552,-0.003464,-88.658061,0.008604,
1410,770,-0.759995,-14.169625,0.999994,0.000288,-0.007020,0.010773,0.003367,0.011389,-0.007636,79.635451,0.011608,
1150,1310,0.203889,-4.886180,0.999996,0.000228,-0.003582,0.005559,0.003496,0.006743,-0.004766,71.295894,0.006932,
1880,110,-1.097298,-18.990225,0.999995,0.000269,-0.004652,0.010942,-0.001919,0.011175,-0.004884,-83.086573,0.011204,
1310,350,-0.163470,-17.960644,0.999998,0.000188,-0.002182,0.007172,0.000162,0.007175,-0.002185,89.005820,0.007356,
1090,1570,0.386011,-3.309140,0.999996,0.000211,-0.003292,0.007788,0.001132,0.007902,-0.003406,84.227921,0.007927,
1200,540,0.079445,-16.652117,0.999998,0.000170,-0.002538,0.006614,-0.000424,0.006633,-0.002558,-87.351109,0.006691,
1560,170,-0.423469,-19.070202,0.999997,0.000214,-0.001908,0.007808,-0.001040,0.007919,-0.002018,-83.958638,0.008230,
560,1830,1.949442,-2.453459,0.999991,0.000000,-0.004921,0.009868,-0.000275,0.009873,-0.004926,-88.935258,0.009873,
1000,1000,2.501584,-10.502993,0.999989,0.000394,-0.005070,0.015692,-0.000026,0.015692,-0.005070,-89.927197,0.016016,
1570,1830,-0.604703,-1.546873,0.999997,0.000204,-0.002740,0.008354,0.000728,0.008401,-0.002788,86.263400,0.008558,
770,980,3.380564,-10.555717,0.999994,0.000272,-0.004298,0.010030,0.000474,0.010045,-0.004314,88.108402,0.010078,
700,1350,2.850215,-6.844743,0.999996,0.000228,-0.005366,0.010417,-0.000565,0.010437,-0.005387,-87.951292,0.010439,
770,900,3.189946,-11.376921,0.999996,0.000265,-0.004903,0.010494,0.001228,0.010591,-0.005000,85.467262,0.010597,
1700,1940,-0.502862,-0.758230,0.999996,0.000247,-0.001950,0.008680,0.002357,0.009179,-0.002449,78.044019,0.009506,
1650,370,-1.295860,-17.122113,0.999995,0.000231,-0.004548,0.009639,0.000035,0.009639,-0.004548,89.859565,0.009645,
1880,400,-2.497139,-16.088415,0.999995,0.000275,-0.004933,0.009854,0.000101,0.009855,-0.004933,89.607248,0.009855,
890,890,2.530731,-11.648259,0.999995,0.000304,-0.005654,0.012007,0.001449,0.012126,-0.005772,85.340893,0.012130,
790,1090,3.271288,-9.445082,0.999996,0.000230,-0.004318,0.010266,-0.000837,0.010314,-0.004366,-86.723989,0.010354,
1490,450,-0.786643,-16.812968,0.999997,0.000186,-0.003905,0.008854,0.000784,0.008902,-0.003953,86.498515,0.008921,
1210,1560,0.054492,-3.196827,0.999999,0.000150,-0.002519,0.006846,0.000348,0.006859,-0.002532,87.876248,0.006937,
1780,1680,-1.926636,-3.484620,0.999997,0.000182,-0.004868,0.010091,-0.000022,0.010091,-0.004868,-89.915732,0.010093,
620,1240,3.644544,-8.134678,0.999995,0.000241,-0.004725,0.009424,-0.000550,0.009445,-0.004746,-87.776582,0.009446,
1250,580,-0.045718,-16.404436,0.999998,0.000179,-0.002477,0.006249,0.000443,0.006271,-0.002499,87.098045,0.006314,
1360,490,-0.346860,-16.845991,0.999997,0.000198,-0.003138,0.007602,0.001025,0.007699,-0.003235,84.595253,0.007731,
1050,1270,0.821979,-6.188675,0.999994,0.000316,-0.007309,0.011180,0.003265,0.011740,-0.007868,80.272726,0.011964,
1450,1330,-0.925282,-5.827889,0.999996,0.000249,-0.006721,0.010978,-0.002435,0.011307,-0.007050,-82.308752,0.011421,
1370,1940,-0.086183,-0.599745,0.999998,0.000161,-0.000604,0.006541,0.000411,0.006564,-0.000627,86.716741,0.007245,
1670,1290,-2.548753,-7.272688,0.999995,0.000262,-0.005936,0.011170,0.000829,0.011210,-0.005977,87.230977,0.011218,
1290,1190,-0.624602,-5.158889,0.999994,0.000000,-0.006626,0.002663,-0.000211,0.002668,-0.006631,-88.697643,0.006673,
1600,1650,-1.163635,-3.241168,0.999996,0.000256,-0.004294,0.009483,-0.000245,0.009487,-0.004299,-88.979785,0.009501,
1330,360,-0.214288,-17.864953,0.999996,0.000205,-0.002433,0.007367,0.000354,0.007379,-0.002445,87.935594,0.007518,
1890,580,-3.087014,-14.234022,0.999995,0.000239,-0.005056,0.010216,-0.000003,0.010216,-0.005056,-89.987681,0.010216,
1600,1530,-1.415282,-4.424168,0.999995,0.000290,-0.005198,0.010162,-0.000656,0.010190,-0.005226,-87.558661,0.010191,
910,1850,0.508653,-1.362597,0.999996,0.000223,-0.002151,0.008154,-0.000894,0.008231,-0.002228,-85.079203,0.008514,
640,1490,2.700762,-5.562586,0.999996,0.000234,-0.005091,0.010242,0.000027,0.010242,-0.005091,89.900776,0.010242,
1350,1670,-0.279204,-2.511447,0.999997,0.000226,-0.002552,0.007519,-0.000418,0.007536,-0.002570,-87.628284,0.007662,
790,900,3.090879,-11.395061,0.999997,0.000258,-0.004927,0.010667,0.001309,0.010776,-0.005036,85.234517,0.010783,
1890,180,-1.642936,-18.207946,0.999995,0.000243,-0.004906,0.010015,-0.000635,0.010041,-0.004933,-87.568287,0.010042,
1820,1640,-2.245226,-4.023199,0.999997,0.000201,-0.005004,0.010103,-0.000137,0.010104,-0.005005,-89.479007,0.010104,
1090,1770,0.256945,-1.788189,0.999998,0.000183,-0.001904,0.007401,-0.000070,0.007401,-0.001905,-89.570201,0.007686,
780,1350,2.398597,-6.636531,0.999995,0.000287,-0.005907,0.010974,-0.000455,0.010986,-0.005919,-88.457941,0.010997,
1650,1380,-2.097262,-6.205038,0.999997,0.000224,-0.006057,0.011036,0.000098,0.011036,-0.006058,89.672522,0.011054,
970,150,0.261650,-19.273501,0.999997,0.000188,-0.001529,0.007296,0.000767,0.007362,-0.001595,85.071483,0.007746,
1190,1560,0.104249,-3.211089,0.999998,0.000147,-0.002489,0.006883,0.000339,0.006895,-0.002501,87.931038,0.006981,
640,190,1.375198,-18.417710,0.999994,0.000261,-0.004625,0.010285,0.000986,0.010350,-0.004690,86.233805,0.010365,
1160,110,0.039134,-19.604784,0.999998,0.000196,-0.000490,0.006344,0.000193,0.006350,-0.000495,88.386127,0.007063,
1200,1680,0.070246,-2.357464,0.999998,0.000180,-0.002203,0.007073,0.000179,0.007077,-0.002207,88.897655,0.007242,
1600,950,-2.916206,-10.914947,0.999996,0.000278,-0.004461,0.010934,-0.001130,0.011017,-0.004544,-85.825954,0.011073,
1030,240,0.327979,-18.648245,0.999997,0.000204,-0.002027,0.007552,0.000237,0.007558,-0.002033,88.584147,0.007822,
790,1530,1.799988,-4.670405,0.999997,0.000200,-0.005281,0.010353,0.000369,0.010361,-0.005289,88.648129,0.010362,
1470,660,-0.938911,-14.902065,0.999995,0.000243,-0.005925,0.010299,0.002017,0.010546,-0.006172,83.018862,0.010597,
1310,330,-0.152186,-18.101659,0.999998,0.000183,-0.002047,0.007180,0.000097,0.007181,-0.002048,89.395976,0.007398,
890,870,2.429335,-11.883833,0.999994,0.000302,-0.006047,0.012050,0.001339,0.012148,-0.006145,85.792187,0.012149,
1250,40,-0.004679,-20.037242,0.999999,0.000155,-0.000194,0.005961,-0.000005,0.005961,-0.000194,-89.952061,0.006774,
1740,940,-3.513390,-10.938104,0.999997,0.000212,-0.004527,0.009864,-0.000839,0.009913,-0.004576,-86.673197,0.009923,
1590,1980,-0.179268,-0.387890,0.999997,0.000194,-0.001031,0.007191,0.001470,0.007446,-0.001286,80.159946,0.007960,
1620,1210,-2.589884,-8.080830,0.999995,0.000251,-0.005864,0.011512,0.001240,0.011600,-0.005952,85.938418,0.011602,
1540,220,-0.521931,-18.689617,0.999996,0.000226,-0.002218,0.008057,-0.000727,0.008109,-0.002269,-85.970668,0.008367,
1800,1120,-3.774772,-9.212997,0.999996,0.000242,-0.004523,0.009480,0.000700,0.009515,-0.004558,87.143975,0.009518,
1140,1870,0.097876,-1.048384,0.999998,0.000177,-0.001217,0.006696,-0.000122,0.006697,-0.001219,-89.119824,0.007135,
570,1170,4.067390,-8.887978,0.999993,0.000312,-0.004011,0.008438,-0.000068,0.008438,-0.004011,-89.687536,0.008441,
770,1780,1.194435,-2.233325,0.999996,0.000219,-0.004160,0.009687,-0.000607,0.009713,-0.004187,-87.493984,0.009744,
1450,1310,-0.974565,-6.053366,0.999995,0.000249,-0.007047,0.011380,-0.002399,0.011687,-0.007354,-82.702908,0.011817,
710,1670,1.823970,-3.500439,0.999996,0.000233,-0.004918,0.010138,0.000090,0.010138,-0.004919,89.655650,0.010140,
1520,1070,-2.694967,-9.563414,0.999995,0.000240,-0.003994,0.012329,0.000838,0.012372,-0.004037,87.068853,0.012619,
560,1450,3.205510,-6.228084,0.999972,0.000000,-0.004422,0.010222,0.000026,0.010222,-0.004422,89.899605,0.010253,
1300,730,-0.157745,-15.445413,0.999994,0.000278,-0.003048,0.005120,0.002891,0.006040,-0.003967,72.354599,0.006138,
1050,1250,0.901106,-6.416200,0.999995,0.000304,-0.007644,0.011651,0.003092,0.012134,-0.008127,81.115623,0.012365,
1670,1270,-2.629178,-7.497125,0.999994,0.000285,-0.005879,0.011161,0.000967,0.011216,-0.005933,86.763646,0.011222,
990,640,0.925099,-15.091989,0.999996,0.000210,-0.005717,0.009990,-0.001903,0.010218,-0.005945,-83.190006,0.010263,
1540,170,-0.391089,-19.085483,0.999997,0.000228,-0.001678,0.007699,-0.000971,0.007799,-0.001778,-84.148863,0.008174,
620,1220,3.707982,-8.324870,0.999995,0.000253,-0.004678,0.009459,-0.000610,0.009486,-0.004704,-87.532364,0.009486,
1810,2000,-0.309813,-0.307366,0.999994,0.000281,-0.001562,0.009137,0.003696,0.010289,-0.002715,72.680093,0.010665,
1070,1940,0.099324,-0.604282,0.999998,0.000146,-0.000698,0.006588,-0.000471,0.006618,-0.000728,-86.317142,0.007258,
750,290,1.332421,-17.730651,0.999997,0.000234,-0.004205,0.009860,0.000573,0.009883,-0.004228,87.668933,0.009918,
1290,870,-0.694420,-15.006804,0.999993,0.000000,-0.006647,0.002055,0.000388,0.002072,-0.006664,87.449751,0.006821,
690,1560,2.237308,-4.686274,0.999995,0.000251,-0.005144,0.010229,0.000167,0.010231,-0.005146,89.376237,0.010231,
1150,1550,0.212871,-3.332384,0.999997,0.000212,-0.002893,0.007174,0.000914,0.007256,-0.002975,84.854185,0.007295,
1250,590,-0.045083,-16.342471,0.999998,0.000178,-0.002443,0.006124,0.000459,0.006149,-0.002467,86.940691,0.006188,
1410,810,-0.901785,-13.717996,0.999994,0.000317,-0.007671,0.011688,0.003200,0.012203,-0.008187,80.853531,0.012438,
1580,1650,-1.079780,-3.186478,0.999997,0.000187,-0.004260,0.009395,-0.000341,0.009404,-0.004268,-88.569501,0.009417,
730,1940,0.564569,-0.783210,0.999996,0.000248,-0.002491,0.008968,-0.002419,0.009458,-0.002981,-78.557391,0.009671,
1350,1650,-0.288574,-2.659988,0.999997,0.000212,-0.002647,0.007413,-0.000530,0.007441,-0.002675,-86.990221,0.007538,
1820,1620,-2.303474,-4.226312,0.999996,0.000218,-0.005052,0.010120,-0.000130,0.010121,-0.005054,-89.509431,0.010121,
1890,570,-3.056073,-14.336049,0.999996,0.000244,-0.005072,0.010204,-0.000003,0.010204,-0.005072,-89.989232,0.010204,
1890,750,-3.648619,-12.525382,0.999995,0.000293,-0.004832,0.009799,-0.000235,0.009803,-0.004835,-89.080233,0.009803,
1790,460,-2.224860,-15.778116,0.999995,0.000275,-0.005074,0.010161,0.000175,0.010163,-0.005076,89.340987,0.010163,
1100,1400,0.380357,-4.589935,0.999996,0.000240,-0.004149,0.007716,0.002643,0.008278,-0.004711,77.994134,0.008304,
1890,1320,-3.598547,-7.488753,0.999995,0.000252,-0.004877,0.009704,0.000197,0.009707,-0.004879,89.226033,0.009707,
890,850,2.324016,-12.129857,0.999994,0.000309,-0.006339,0.012209,0.001185,0.012284,-0.006414,86.360140,0.012288,
910,1830,0.564158,-1.525277,0.999996,0.000232,-0.002331,0.008217,-0.000761,0.008272,-0.002386,-85.896595,0.008515,
1250,1560,-0.047017,-3.194283,0.999998,0.000163,-0.002500,0.006874,-0.000329,0.006885,-0.002512,-87.995033,0.006969,
1020,950,2.142421,-11.414938,0.999992,0.000335,-0.006132,0.015776,-0.001204,0.015842,-0.006198,-86.863368,0.015967,
1490,430,-0.759614,-16.991128,0.999997,0.000186,-0.003837,0.008790,0.000703,0.008829,-0.003876,86.823869,0.008851,
1010,240,0.365694,-18.628851,0.999998,0.000178,-0.001956,0.007668,0.000366,0.007681,-0.001970,87.824060,0.007979,
1200,1640,0.072967,-2.643583,0.999998,0.000203,-0.002356,0.007066,0.000235,0.007072,-0.002362,88.573027,0.007201,
790,1510,1.850664,-4.882694,0.999997,0.000214,-0.005381,0.010415,0.000337,0.010422,-0.005388,88.779504,0.010424,
640,170,1.251501,-18.629967,0.999995,0.000256,-0.004549,0.010432,0.001263,0.010538,-0.004655,85.214342,0.010562,
1310,310,-0.146451,-18.247196,0.999998,0.000169,-0.001915,0.007173,0.000067,0.007174,-0.001916,89.577200,0.007429,
1700,570,-2.065450,-14.928798,0.999996,0.000274,-0.005461,0.010485,0.000154,0.010486,-0.005462,89.446386,0.010490,
1240,40,-0.002914,-20.036805,0.999999,0.000157,-0.000211,0.005971,-0.000004,0.005971,-0.000211,-89.962909,0.006776,
1870,1210,-3.864061,-8.476515,0.999996,0.000240,-0.004530,0.009317,0.000392,0.009328,-0.004541,88.381712,0.009329,
1650,1630,-1.438131,-3.583803,0.999996,0.000245,-0.004710,0.009896,-0.000262,0.009901,-0.004715,-88.973258,0.009905,
560,1820,1.997510,-2.549763,0.999997,0.000000,-0.004839,0.009748,-0.000114,0.009749,-0.004840,-89.553033,0.009749,
640,1470,2.761859,-5.771238,0.999996,0.000220,-0.005121,0.010234,-0.000055,0.010235,-0.005121,-89.796277,0.010235,
1140,110,0.049020,-19.602665,0.999998,0.000184,-0.000615,0.006389,0.000225,0.006397,-0.000623,88.161240,0.007054,
1450,1290,-1.031868,-6.285234,0.999994,0.000259,-0.007378,0.011856,-0.002294,0.012126,-0.007648,-83.293034,0.012263,
1400,850,-1.059405,-13.373184,0.999996,0.000229,-0.007366,0.011708,0.003109,0.012202,-0.007860,80.973269,0.012370,
1670,1250,-2.711000,-7.721303,0.999995,0.000262,-0.005752,0.011154,0.001083,0.011223,-0.005821,86.349837,0.011226,
1040,2000,0.043190,-0.221593,0.999998,0.000165,-0.000369,0.006287,-0.000552,0.006332,-0.000415,-85.295118,0.007085,
1790,1030,-3.834231,-10.057289,0.999997,0.000206,-0.004352,0.009376,0.000041,0.009376,-0.004352,89.830318,0.009384,
600,1790,1.936672,-2.673632,0.999996,0.000237,-0.004822,0.009941,-0.000135,0.009942,-0.004824,-89.477279,0.009944,
1210,1940,0.015692,-0.583767,0.999998,0.000178,-0.000656,0.006310,-0.000052,0.006310,-0.000657,-89.574955,0.006938,
1150,210,0.099501,-18.946246,0.999998,0.000170,-0.001309,0.006776,0.000127,0.006778,-0.001311,89.102814,0.007190,
1430,560,-0.637761,-16.040368,0.999996,0.000237,-0.004356,0.008709,0.001679,0.008922,-0.004568,82.792044,0.008922,
1740,920,-3.469018,-11.133388,0.999997,0.000221,-0.004590,0.009842,-0.000833,0.009890,-0.004638,-86.707511,0.009897,
1540,200,-0.467446,-18.851375,0.999997,0.000217,-0.002002,0.007984,-0.000875,0.008060,-0.002078,-85.031266,0.008369,
1280,730,-0.102696,-15.543943,0.999998,0.000182,-0.002549,0.004360,0.002211,0.005007,-0.003196,73.686801,0.005070,
1050,1230,1.000726,-6.659918,0.999993,0.000313,-0.007717,0.012060,0.002927,0.012484,-0.008141,81.755510,0.012675,
1420,520,-0.568306,-16.429213,0.999996,0.000256,-0.003921,0.008424,0.001375,0.008576,-0.004072,83.720975,0.008579,
1290,860,-0.578429,-15.035082,0.999993,0.000000,-0.006241,0.002678,0.000315,0.002689,-0.006252,87.982545,0.006273,
1810,1540,-2.484706,-5.010245,0.999996,0.000275,-0.005147,0.010186,-0.000133,0.010187,-0.005149,-89.503126,0.010187,
1840,1610,-2.432707,-4.392878,0.999996,0.000280,-0.005023,0.010127,-0.000132,0.010128,-0.005024,-89.501368,0.010128,
740,1950,0.485857,-0.684373,0.999996,0.000246,-0.001827,0.008603,-0.002473,0.009159,-0.002384,-77.313424,0.009504,
1880,750,-3.601557,-12.556039,0.999997,0.000261,-0.004842,0.009790,-0.000260,0.009795,-0.004847,-88.980725,0.009795,
1350,1630,-0.293841,-2.807008,0.999997,0.000225,-0.002697,0.007463,-0.000559,0.007494,-0.002728,-86.861482,0.007586,
620,1200,3.770538,-8.516002,0.999995,0.000262,-0.004635,0.009497,-0.000659,0.009528,-0.004665,-87.334676,0.009529,
1770,460,-2.123391,-15.842923,0.999996,0.000239,-0.005064,0.010149,0.000186,0.010151,-0.005066,89.298537,0.010151,
1570,180,-0.472692,-18.984312,0.999997,0.000245,-0.002283,0.007963,-0.000984,0.008057,-0.002376,-84.564552,0.008280,
1250,570,-0.045344,-16.467975,0.999998,0.000181,-0.002490,0.006329,0.000431,0.006350,-0.002511,87.206953,0.006396,
1820,1600,-2.361268,-4.429213,0.999996,0.000248,-0.005057,0.010137,-0.000133,0.010138,-0.005058,-89.499806,0.010138,
1570,1320,-1.792582,-6.614072,0.999995,0.000284,-0.006777,0.011858,-0.000185,0.011860,-0.006779,-89.430688,0.011901,
1100,1420,0.381450,-4.438627,0.999996,0.000221,-0.003928,0.007695,0.002341,0.008148,-0.004382,79.028625,0.008156,
1820,910,-3.808897,-11.162793,0.999996,0.000231,-0.004510,0.009243,-0.000557,0.009266,-0.004532,-87.686416,0.009267,
890,830,2.224990,-12.374594,0.999995,0.000292,-0.006587,0.012259,0.000928,0.012304,-0.006633,87.187534,0.012317,
910,1810,0.615729,-1.693254,0.999997,0.000227,-0.002556,0.008427,-0.000668,0.008467,-0.002597,-86.530607,0.008676,
1230,1560,0.003657,-3.184909,0.999998,0.000188,-0.002551,0.006839,0.000031,0.006839,-0.002551,89.812329,0.006913,
1250,240,-0.028054,-18.754539,0.999998,0.000174,-0.001503,0.006813,0.000031,0.006813,-0.001503,89.785782,0.007159,
1310,510,-0.204367,-16.798780,0.999997,0.000203,-0.002874,0.007151,0.000893,0.007230,-0.002953,84.949371,0.007270,
1880,1140,-4.083287,-9.122140,0.999997,0.000207,-0.004237,0.008735,0.000320,0.008743,-0.004244,88.587569,0.008744,
1500,1070,-2.612373,-9.528205,0.999997,0.000188,-0.004239,0.013024,0.000692,0.013051,-0.004267,87.707297,0.013310,
970,130,0.217952,-19.415165,0.999998,0.000183,-0.001308,0.007100,0.000790,0.007173,-0.001381,84.679137,0.007612,
750,1240,2.988490,-7.907245,0.999996,0.000232,-0.005376,0.010594,-0.001086,0.010668,-0.005450,-86.127786,0.010669,
1580,530,-1.323677,-15.753226,0.999994,0.000263,-0.005148,0.010084,0.000769,0.010123,-0.005186,87.118467,0.010124,
1490,410,-0.732585,-17.165627,0.999997,0.000223,-0.003766,0.008748,0.000611,0.008778,-0.003796,87.211168,0.008805,
1030,2000,0.046264,-0.223054,0.999998,0.000184,-0.000323,0.006314,-0.000601,0.006368,-0.000377,-84.865046,0.007145,
1740,900,-3.420582,-11.334844,0.999996,0.000231,-0.004743,0.010085,-0.001018,0.010154,-0.004813,-86.091790,0.010159,
1140,430,0.224378,-17.357857,0.999997,0.000214,-0.002683,0.007352,-0.000620,0.007391,-0.002721,-86.476775,0.007476,
1010,40,0.033147,-20.028727,0.999998,0.000162,-0.000062,0.006292,0.000699,0.006368,-0.000138,83.794028,0.007275,
1450,1270,-1.105070,-6.532370,0.999995,0.000251,-0.007615,0.012232,-0.002140,0.012460,-0.007843,-83.915793,0.012598,
1460,750,-1.061750,-13.972803,0.999994,0.000333,-0.007226,0.011642,0.002149,0.011884,-0.007468,83.584949,0.012014,
1790,1070,-3.802034,-9.678202,0.999997,0.000222,-0.004369,0.009331,0.000227,0.009334,-0.004373,89.049587,0.009340,
1540,180,-0.416118,-19.009579,0.999996,0.000235,-0.001769,0.007742,-0.000928,0.007831,-0.001859,-84.477586,0.008183,
1050,1940,0.116981,-0.611120,0.999998,0.000167,-0.000890,0.006663,-0.000510,0.006697,-0.000924,-86.153016,0.007258,
1050,1210,1.117725,-6.900215,0.999992,0.000345,-0.007560,0.012317,0.002784,0.012700,-0.007943,82.176980,0.012832,
1430,540,-0.625482,-16.215399,0.999996,0.000234,-0.004251,0.008685,0.001581,0.008876,-0.004441,83.132554,0.008876,
1200,110,0.018673,-19.607101,0.999999,0.000146,-0.000573,0.006324,0.000073,0.006325,-0.000574,89.396971,0.006996,
1670,1230,-2.790786,-7.946010,0.999996,0.000249,-0.005616,0.011000,0.001177,0.011082,-0.005699,85.969745,0.011084,
560,1800,2.081598,-2.743589,0.999993,0.000000,-0.004675,0.009508,0.000016,0.009508,-0.004675,89.935714,0.009508,
1850,1920,-1.148815,-1.293036,0.999996,0.000231,-0.004881,0.010539,0.001223,0.010636,-0.004977,85.492529,0.010643,
990,1680,0.619326,-2.646277,0.999997,0.000228,-0.003245,0.008430,0.000378,0.008443,-0.003257,88.147346,0.008516,
1150,170,0.074904,-19.214855,0.999998,0.000187,-0.000991,0.006610,0.000158,0.006614,-0.000995,88.806205,0.007132,
1420,500,-0.556473,-16.597627,0.999996,0.000233,-0.003696,0.008365,0.001195,0.008482,-0.003813,84.397378,0.008497,
620,1490,2.802684,-5.627283,0.999996,0.000236,-0.005096,0.010203,-0.000003,0.010203,-0.005096,-89.990241,0.010203,
1350,1850,-0.151645,-1.198728,0.999998,0.000174,-0.001404,0.006921,0.000182,0.006925,-0.001408,88.750714,0.007320,
750,900,3.289260,-11.357654,0.999995,0.000250,-0.004795,0.010339,0.001153,0.010427,-0.004882,85.667749,0.010434,
1100,1440,0.382568,-4.284316,0.999997,0.000203,-0.003777,0.007694,0.002107,0.008069,-0.004152,79.914232,0.008070,
1570,200,-0.532380,-18.821700,0.999996,0.000242,-0.002482,0.008214,-0.000892,0.008287,-0.002556,-85.263731,0.008488,
1790,320,-1.795315,-17.196892,0.999996,0.000236,-0.004838,0.010020,-0.000082,0.010020,-0.004839,-89.682407,0.010022,
1800,910,-3.719546,-11.183580,0.999997,0.000196,-0.004545,0.009422,-0.000646,0.009452,-0.004575,-87.359004,0.009453,
680,1350,2.954020,-6.894218,0.999997,0.000231,-0.005248,0.010270,-0.000554,0.010289,-0.005268,-87.956626,0.010290,
1310,750,-0.194374,-15.267831,0.999996,0.000246,-0.003481,0.005337,0.003486,0.006548,-0.004693,70.832453,0.006750,
620,1180,3.833891,-8.705700,0.999996,0.000246,-0.004527,0.009264,-0.000536,0.009285,-0.004548,-87.775665,0.009286,
1630,1470,-1.719483,-5.157192,0.999996,0.000239,-0.005650,0.010612,-0.000443,0.010624,-0.005662,-88.442313,0.010632,
810,1040,3.248602,-9.951687,0.999996,0.000217,-0.003984,0.010196,-0.000257,0.010200,-0.003988,-88.961243,0.010281,
1820,1580,-2.419721,-4.633052,0.999996,0.000239,-0.005059,0.010170,-0.000131,0.010171,-0.005060,-89.507648,0.010171,
970,1540,0.875096,-3.944324,0.999996,0.000251,-0.004595,0.009286,0.001178,0.009385,-0.004694,85.183678,0.009385,
1520,1130,-2.420638,-8.816493,0.999994,0.000309,-0.005457,0.012717,0.001335,0.012815,-0.005555,85.821159,0.012852,
890,810,2.130184,-12.621501,0.999995,0.000288,-0.006707,0.012248,0.000706,0.012274,-0.006734,87.871372,0.012293,
730,1240,3.094660,-7.936972,0.999995,0.000248,-0.005271,0.010464,-0.001061,0.010535,-0.005342,-86.159866,0.010535,
1780,1070,-3.759400,-9.676003,0.999997,0.000197,-0.004369,0.009412,0.000244,0.009416,-0.004373,88.986049,0.009424,
870,340,0.988405,-17.544216,0.999997,0.000190,-0.003912,0.009298,0.000003,0.009298,-0.003912,89.985916,0.009337,
920,280,0.672081,-18.184428,0.999997,0.000221,-0.002785,0.008544,0.000392,0.008558,-0.002798,88.020179,0.008727,
1740,880,-3.352960,-11.539319,0.999997,0.000235,-0.004885,0.010208,-0.001102,0.010289,-0.004965,-85.844366,0.010291,
620,390,2.282699,-16.312095,0.999994,0.000305,-0.004961,0.010077,-0.000117,0.010078,-0.004962,-89.555925,0.010078,
1150,2000,0.015505,-0.214690,0.999998,0.000151,-0.000201,0.006048,-0.000211,0.006055,-0.000208,-88.064046,0.006875,
1670,1210,-2.872887,-8.163728,0.999996,0.000258,-0.005450,0.010988,0.001278,0.011087,-0.005549,85.581877,0.011087,
1450,1250,-1.186285,-6.780971,0.999993,0.000301,-0.007779,0.012460,-0.001920,0.012640,-0.007959,-84.629635,0.012781,
1120,430,0.277360,-17.325224,0.999998,0.000203,-0.002712,0.007460,-0.000619,0.007498,-0.002749,-86.529710,0.007586,
1440,730,-0.871262,-14.352194,0.999995,0.000278,-0.006736,0.010915,0.002642,0.011302,-0.007123,81.668276,0.011429,
1800,560,-2.568886,-14.718809,0.999995,0.000262,-0.005184,0.010280,0.000040,0.010280,-0.005184,89.853058,0.010280,
1090,360,0.318208,-17.811237,0.999997,0.000202,-0.002395,0.007530,-0.000275,0.007538,-0.002403,-88.412434,0.007701,
1030,1940,0.136216,-0.618965,0.999997,0.000194,-0.000914,0.006761,-0.000611,0.006809,-0.000962,-85.479221,0.007370,
1050,1190,1.270319,-7.150539,0.999992,0.000318,-0.007260,0.012921,0.002831,0.013311,-0.007649,82.164827,0.013360,
1420,480,-0.546416,-16.761921,0.999996,0.000234,-0.003499,0.008285,0.001014,0.008372,-0.003585,85.119351,0.008400,
1540,160,-0.363632,-19.163268,0.999997,0.000202,-0.001579,0.007678,-0.001026,0.007790,-0.001691,-83.749333,0.008195,
1390,50,-0.030098,-19.972437,0.999998,0.000163,-0.000189,0.006143,-0.000436,0.006172,-0.000219,-86.077161,0.007004,
590,1870,1.589838,-1.921964,0.999996,0.000263,-0.004991,0.010060,-0.000615,0.010085,-0.005017,-87.664622,0.010085,
1780,1630,-2.072869,-3.993644,0.999994,0.000268,-0.004981,0.010118,-0.000163,0.010120,-0.004983,-89.383434,0.010120,
1360,1390,-0.370477,-4.652260,0.999994,0.000296,-0.004159,0.007626,-0.002768,0.008244,-0.004777,-77.418575,0.008278,
970,110,0.176475,-19.557625,0.999998,0.000212,-0.001094,0.007019,0.000872,0.007112,-0.001187,83.936754,0.007620,
1140,1560,0.239989,-3.278684,0.999997,0.000196,-0.002911,0.007254,0.000887,0.007331,-0.002988,85.049306,0.007372,
1350,1610,-0.303211,-2.958823,0.999998,0.000204,-0.002719,0.007467,-0.000603,0.007502,-0.002754,-86.624476,0.007590,
1320,110,-0.049221,-19.602694,0.999998,0.000140,-0.000625,0.006351,-0.000216,0.006357,-0.000631,-88.225203,0.007005,
960,170,0.323943,-19.114572,0.999997,0.000204,-0.001873,0.007465,0.000712,0.007519,-0.001926,85.666980,0.007811,
1300,1700,-0.145299,-2.231395,0.999998,0.000169,-0.002087,0.007197,-0.000099,0.007198,-0.002088,-89.386029,0.007406,
1870,750,-3.553509,-12.585459,0.999997,0.000229,-0.004842,0.009783,-0.000312,0.009789,-0.004849,-88.779294,0.009789,
1540,950,-2.649808,-10.990153,0.999995,0.000256,-0.004633,0.011969,-0.001339,0.012076,-0.004740,-85.416851,0.012169,
1490,390,-0.701717,-17.343336,0.999996,0.000231,-0.003681,0.008682,0.000520,0.008704,-0.003703,87.595550,0.008736,
1630,1430,-1.826331,-5.587818,0.999995,0.000244,-0.005877,0.010822,-0.000350,0.010829,-0.005884,-88.799834,0.010843,
660,1350,3.061078,-6.944802,0.999995,0.000282,-0.005193,0.010163,-0.000503,0.010179,-0.005210,-88.126525,0.010180,
1410,1500,-0.548282,-3.990879,0.999997,0.000233,-0.004123,0.008403,-0.001678,0.008624,-0.004344,-82.500881,0.008624,
890,790,2.036161,-12.868119,0.999995,0.000273,-0.006791,0.012156,0.000458,0.012167,-0.006803,88.614932,0.012196,
1820,1560,-2.479016,-4.838667,0.999996,0.000252,-0.005094,0.010151,-0.000116,0.010151,-0.005095,-89.564901,0.010151,
850,1040,3.093875,-9.948152,0.999997,0.000252,-0.003803,0.010469,-0.000287,0.010474,-0.003808,-88.847658,0.010603,
1550,320,-0.782458,-17.825654,0.999997,0.000205,-0.003233,0.008760,-0.000109,0.008761,-0.003234,-89.479698,0.008860,
1770,320,-1.697999,-17.262762,0.999997,0.000237,-0.004822,0.010046,-0.000070,0.010046,-0.004822,-89.729461,0.010049,
1110,1270,0.433180,-5.530078,0.999993,0.000330,-0.005661,0.007991,0.004488,0.009334,-0.007004,73.338924,0.009716,
1200,1620,0.076003,-2.784856,0.999998,0.000183,-0.002407,0.007048,0.000252,0.007055,-0.002414,88.477391,0.007171,
840,490,1.457614,-16.012754,0.999996,0.000207,-0.005013,0.010005,-0.000498,0.010021,-0.005029,-88.102673,0.010021,
1740,860,-3.290558,-11.745449,0.999996,0.000243,-0.004967,0.010152,-0.001033,0.010222,-0.005037,-86.108242,0.010223,
1890,1210,-3.952496,-8.527700,0.999997,0.000195,-0.004453,0.009203,0.000242,0.009207,-0.004457,88.984410,0.009209,
950,1160,2.198742,-8.399341,0.999994,0.000313,-0.006325,0.013121,-0.001104,0.013184,-0.006387,-86.762158,0.013186,
1320,2000,-0.017118,-0.214459,0.999998,0.000167,-0.000259,0.006100,0.000226,0.006108,-0.000267,87.962756,0.006905,
620,1160,3.879162,-8.886552,0.999996,0.000226,-0.004419,0.009024,-0.000419,0.009037,-0.004432,-88.217092,0.009037,
1890,560,-3.025961,-14.438679,0.999996,0.000242,-0.005080,0.010219,-0.000020,0.010219,-0.005080,-89.926786,0.010219,
920,300,0.722604,-18.009323,0.999997,0.000215,-0.002973,0.008572,0.000244,0.008577,-0.002978,88.791875,0.008710,
1670,1190,-2.951538,-8.386731,0.999996,0.000258,-0.005239,0.010904,0.001273,0.011004,-0.005338,85.519217,0.011005,
1390,40,-0.020822,-20.032241,0.999999,0.000145,-0.000104,0.006097,-0.000444,0.006129,-0.000136,-85.925368,0.007000,
670,1290,3.223473,-7.533853,0.999997,0.000219,-0.005094,0.010088,-0.000729,0.010123,-0.005129,-87.256991,0.010123,
1050,1170,1.423871,-7.417242,0.999992,0.000308,-0.006963,0.013294,0.002883,0.013696,-0.007365,82.056246,0.013709,
580,1870,1.638255,-1.968988,0.999995,0.000279,-0.005293,0.009912,-0.000628,0.009938,-0.005319,-87.639305,0.009946,
1170,1940,0.035672,-0.587087,0.999998,0.000196,-0.000491,0.006355,-0.000194,0.006361,-0.000497,-88.374215,0.007076,
1420,460,-0.533359,-16.924617,0.999996,0.000235,-0.003370,0.008157,0.000865,0.008222,-0.003434,85.730228,0.008259,
1450,1230,-1.291503,-7.031346,0.999994,0.000304,-0.007851,0.012907,-0.001712,0.013047,-0.007991,-85.317459,0.013157,
1100,430,0.332604,-17.293795,0.999997,0.000200,-0.002772,0.007586,-0.000594,0.007620,-0.002806,-86.727094,0.007708,
1250,560,-0.046182,-16.532310,0.999998,0.000177,-0.002503,0.006410,0.000411,0.006429,-0.002522,87.367949,0.006478,
1630,800,-2.449685,-12.582865,0.999995,0.000275,-0.006172,0.011581,-0.000968,0.011634,-0.006225,-86.887956,0.011644,
790,1490,1.905159,-5.090233,0.999996,0.000243,-0.005456,0.010449,0.000266,0.010454,-0.005461,89.043030,0.010457,
1850,1260,-3.612381,-7.962187,0.999996,0.000246,-0.004761,0.009612,0.000495,0.009629,-0.004778,88.028315,0.009629,
1610,260,-0.836775,-18.239535,0.999997,0.000196,-0.003313,0.008845,-0.000597,0.008874,-0.003342,-87.195172,0.008964,
1300,1660,-0.154181,-2.517408,0.999997,0.000194,-0.002339,0.007193,-0.000227,0.007199,-0.002345,-88.636274,0.007343,
1290,30,-0.003769,-20.095875,0.999998,0.000000,0.000078,0.005905,-0.000187,0.005911,0.000072,-88.164155,0.006867,
1760,1630,-1.973470,-3.928703,0.999997,0.000196,-0.004953,0.010103,-0.000149,0.010104,-0.004955,-89.432050,0.010105,
1070,360,0.366336,-17.785753,0.999996,0.000264,-0.002618,0.007718,-0.000314,0.007727,-0.002627,-88.262912,0.007858,
1800,540,-2.507780,-14.925611,0.999994,0.000276,-0.005165,0.010217,0.000057,0.010217,-0.005165,89.787968,0.010217,
1540,140,-0.310782,-19.316143,0.999997,0.000184,-0.001301,0.007474,-0.001047,0.007597,-0.001424,-83.287231,0.008077,
890,980,2.890851,-10.604026,0.999997,0.000222,-0.003940,0.011134,0.000915,0.011189,-0.003995,86.537188,0.011341,
570,900,4.104088,-11.146227,0.999991,0.000358,-0.004142,0.008602,0.000167,0.008604,-0.004144,89.248553,0.008606,
1510,1760,-0.608387,-2.049159,0.999997,0.000198,-0.003072,0.008266,0.000081,0.008266,-0.003073,89.588243,0.008357,
560,1790,2.123853,-2.836944,0.999992,0.000000,-0.004565,0.009458,0.000034,0.009459,-0.004565,89.859231,0.009460,
1350,1570,-0.316260,-3.255403,0.999997,0.000195,-0.002911,0.007537,-0.000890,0.007612,-0.002986,-85.167028,0.007671,
1140,1540,0.242221,-3.425519,0.999997,0.000203,-0.002927,0.007246,0.000994,0.007342,-0.003023,84.468452,0.007380,
1300,110,-0.036539,-19.606039,0.999998,0.000192,-0.000493,0.006311,-0.000203,0.006317,-0.000499,-88.295058,0.007023,
940,1610,0.907301,-3.391614,0.999996,0.000247,-0.004159,0.009148,0.000702,0.009185,-0.004196,86.986692,0.009196,
1700,1180,-3.139144,-8.525746,0.999996,0.000229,-0.005068,0.010488,0.001172,0.010576,-0.005156,85.713775,0.010577,
610,520,2.718002,-14.962875,0.999995,0.000267,-0.005050,0.010148,-0.000039,0.010148,-0.005050,-89.854278,0.010148,
1000,980,2.430812,-10.803894,0.999992,0.000326,-0.005278,0.014804,-0.000050,0.014805,-0.005279,-89.857943,0.015006,
1160,1350,0.165815,-4.600017,0.999996,0.000235,-0.003007,0.005552,0.002570,0.006264,-0.003720,74.506826,0.006301,
1570,1810,-0.657642,-1.716037,0.999997,0.000217,-0.002929,0.008521,0.000613,0.008554,-0.002962,86.943655,0.008688,
760,1490,2.067537,-5.187625,0.999995,0.000319,-0.005426,0.010424,0.000163,0.010425,-0.005428,89.411897,0.010428,
830,1210,2.664380,-8.103574,0.999994,0.000289,-0.005777,0.011336,-0.001276,0.011430,-0.005872,-85.757610,0.011432,
710,1650,1.881884,-3.703812,0.999996,0.000223,-0.004941,0.010107,0.000130,0.010108,-0.004942,89.503803,0.010109,
1700,1730,-1.390032,-2.739783,0.999996,0.000243,-0.004375,0.009837,0.000213,0.009840,-0.004378,89.142321,0.009860,
1390,2000,-0.033924,-0.219077,0.999998,0.000190,-0.000210,0.006212,0.000438,0.006242,-0.000240,86.114145,0.007073,
1470,1520,-0.791555,-4.044537,0.999996,0.000259,-0.004516,0.009112,-0.001352,0.009245,-0.004649,-84.387913,0.009245,
1330,240,-0.145477,-18.729018,0.999997,0.000205,-0.001662,0.006996,-0.000015,0.006996,-0.001662,-89.903607,0.007310,
1820,1540,-2.535767,-5.042747,0.999996,0.000269,-0.005139,0.010174,-0.000116,0.010175,-0.005139,-89.566516,0.010175,
890,770,1.950049,-13.110476,0.999995,0.000229,-0.006814,0.012054,0.000248,0.012058,-0.006817,89.245855,0.012092,
1740,840,-3.224991,-11.947827,0.999996,0.000249,-0.005100,0.010264,-0.001068,0.010338,-0.005174,-86.042306,0.010338,
1530,740,-1.531971,-13.666520,0.999994,0.000305,-0.007079,0.011980,0.000705,0.012006,-0.007105,87.884237,0.012074,
1410,1200,-1.170972,-6.980870,0.999992,0.000335,-0.007384,0.012409,-0.002840,0.012809,-0.007783,-81.994030,0.012907,
1890,1060,-4.234454,-9.804894,0.999997,0.000191,-0.004073,0.008178,0.000186,0.008181,-0.004076,89.129921,0.008181,
960,1280,1.467928,-6.774781,0.999992,0.000332,-0.007472,0.012476,0.000858,0.012513,-0.007509,87.542103,0.012596,
1670,1170,-3.022997,-8.601608,0.999996,0.000279,-0.005040,0.010690,0.001249,0.010789,-0.005138,85.487667,0.010793,
920,320,0.760298,-17.841435,0.999997,0.000226,-0.003154,0.008706,0.000102,0.008707,-0.003155,89.507984,0.008816,
630,1940,0.914364,-0.994718,0.999998,0.000153,-0.004555,0.010552,-0.001761,0.010755,-0.004758,-83.437053,0.010779,
570,1870,1.694400,-2.007128,0.999895,0.001179,-0.005469,0.009756,-0.000588,0.009778,-0.005492,-87.791878,0.009803,
1790,620,-2.702540,-14.128197,0.999996,0.000219,-0.005267,0.010301,-0.000195,0.010303,-0.005270,-89.281756,0.010304,
1250,550,-0.046817,-16.596358,0.999998,0.000188,-0.002515,0.006490,0.000392,0.006507,-0.002533,87.512884,0.006560,
730,400,1.771494,-16.572005,0.999996,0.000270,-0.004865,0.010134,-0.000105,0.010135,-0.004866,-89.598130,0.010138,
1490,370,-0.671648,-17.517844,0.999997,0.000233,-0.003549,0.008531,0.000433,0.008547,-0.003565,87.950175,0.008586,
1200,1600,0.077584,-2.925450,0.999998,0.000181,-0.002430,0.007009,0.000293,0.007019,-0.002439,88.221457,0.007127,
1110,1250,0.484333,-5.694227,0.999992,0.000359,-0.005820,0.008185,0.004567,0.009542,-0.007178,73.444042,0.009939,
1150,1940,0.046496,-0.587788,0.999997,0.000193,-0.000597,0.006376,-0.000223,0.006383,-0.000604,-88.173055,0.007048,
1760,1610,-2.030652,-4.132758,0.999995,0.000253,-0.005002,0.010160,-0.000178,0.010162,-0.005004,-89.325900,0.010163,
1620,780,-2.302138,-12.841553,0.999993,0.000306,-0.006358,0.011657,-0.000743,0.011687,-0.006388,-87.641526,0.011704,
910,1040,2.874136,-9.941360,0.999998,0.000181,-0.003610,0.011205,-0.000327,0.011213,-0.003617,-88.735452,0.011446,
870,980,2.971101,-10.590662,0.999995,0.000306,-0.003991,0.010860,0.000830,0.010906,-0.004037,86.811795,0.011028,
1300,760,-0.164880,-15.297620,0.999995,0.000263,-0.003263,0.004696,0.003306,0.005890,-0.004457,70.142919,0.006143,
1450,1210,-1.409092,-7.294777,0.999993,0.000310,-0.007920,0.013481,-0.001439,0.013577,-0.008016,-86.170960,0.013651,
620,1140,3.922391,-9.071341,0.999997,0.000214,-0.004416,0.009057,-0.000503,0.009075,-0.004435,-87.865644,0.009076,
940,910,2.347158,-11.528353,0.999996,0.000237,-0.005867,0.012809,0.001317,0.012902,-0.005960,85.987114,0.012914,
1280,430,-0.116174,-17.400167,0.999998,0.000171,-0.002373,0.007079,0.000215,0.007084,-0.002378,88.697964,0.007211,
1060,1350,0.603839,-5.278124,0.999996,0.000233,-0.005723,0.009365,0.003130,0.009989,-0.006347,78.734281,0.010110,
1050,1150,1.594663,-7.700338,0.999989,0.000356,-0.006576,0.013637,0.003332,0.014172,-0.007111,80.877968,0.014172,
1450,40,-0.034574,-20.027771,0.999998,0.000149,-0.000088,0.006174,-0.000663,0.006243,-0.000157,-84.019696,0.007120,
1420,440,-0.518252,-17.088085,0.999995,0.000264,-0.003309,0.008107,0.000789,0.008161,-0.003363,86.064245,0.008203,
1540,120,-0.256817,-19.465205,0.999997,0.000194,-0.001119,0.007398,-0.001162,0.007553,-0.001275,-82.371053,0.008087,
1350,1550,-0.320450,-3.405176,0.999996,0.000214,-0.003050,0.007514,-0.001025,0.007613,-0.003149,-84.510217,0.007651,
1280,2020,-0.007388,-0.093363,0.999998,0.000000,-0.000004,0.005990,0.000104,0.005992,-0.000006,89.004769,0.006915,
1610,240,-0.773111,-18.419077,0.999997,0.000219,-0.003124,0.008937,-0.000788,0.008988,-0.003175,-86.277813,0.009116,
790,1470,1.957760,-5.301150,0.999997,0.000204,-0.005545,0.010569,0.000203,0.010571,-0.005547,89.277511,0.010576,
930,1160,2.321022,-8.471610,0.999995,0.000271,-0.006036,0.012670,-0.001338,0.012765,-0.006131,-85.928158,0.012768,
740,1490,2.176008,-5.251233,0.999996,0.000267,-0.005405,0.010415,0.000128,0.010416,-0.005406,89.536577,0.010418,
1310,240,-0.112750,-18.740640,0.999998,0.000157,-0.001470,0.006914,-0.000084,0.006914,-0.001471,-89.422643,0.007285,
1820,1520,-2.596126,-5.247233,0.999995,0.000274,-0.005145,0.010199,-0.000062,0.010199,-0.005145,-89.768605,0.010199,
1880,1210,-3.908826,-8.500783,0.999998,0.000168,-0.004490,0.009249,0.000294,0.009255,-0.004496,88.775867,0.009256,
1380,2000,-0.032755,-0.218556,0.999998,0.000176,-0.000173,0.006185,0.000400,0.006210,-0.000199,86.414731,0.007058,
890,750,1.869440,-13.355533,0.999994,0.000264,-0.006833,0.011971,0.000007,0.011971,-0.006833,89.978021,0.012011,
1670,1150,-3.094100,-8.816364,0.999997,0.000247,-0.004867,0.010655,0.001291,0.010761,-0.004973,85.278758,0.010771,
1740,820,-3.150052,-12.156253,0.999996,0.000243,-0.005213,0.010446,-0.001051,0.010516,-0.005283,-86.177886,0.010516,
1410,1480,-0.559671,-4.164543,0.999996,0.000244,-0.004332,0.008519,-0.001869,0.008786,-0.004598,-81.891365,0.008789,
1710,300,-1.353075,-17.638673,0.999995,0.000263,-0.004260,0.009811,-0.000465,0.009827,-0.004275,-88.107914,0.009854,
1350,1940,-0.073614,-0.596874,0.999998,0.000156,-0.000704,0.006475,0.000321,0.006489,-0.000718,87.444787,0.007115,
1730,1700,-1.619543,-3.121107,0.999995,0.000263,-0.004821,0.010003,0.000071,0.010003,-0.004821,89.725306,0.010005,
1890,1070,-4.226318,-9.723210,0.999998,0.000177,-0.004081,0.008123,0.000101,0.008123,-0.004082,89.528125,0.008123,
920,1610,0.995788,-3.456241,0.999997,0.000203,-0.004381,0.009390,0.000679,0.009424,-0.004415,87.182254,0.009430,
1790,100,-0.649923,-19.425428,0.999996,0.000277,-0.002679,0.009616,-0.003027,0.010321,-0.003384,-76.893920,0.010523,
750,270,1.258400,-17.929563,0.999997,0.000218,-0.004033,0.009727,0.000757,0.009769,-0.004074,86.859361,0.009814,
920,910,2.464063,-11.471638,0.999996,0.000252,-0.005581,0.012376,0.001465,0.012495,-0.005700,85.365418,0.012511,
1650,1360,-2.164903,-6.428243,0.999994,0.000313,-0.006117,0.011204,0.000229,0.011207,-0.006120,89.241321,0.011223,
1110,1230,0.577916,-5.852975,0.999992,0.000347,-0.006012,0.008118,0.004447,0.009401,-0.007295,73.904593,0.009867,
1430,360,-0.473840,-17.720146,0.999997,0.000219,-0.002971,0.008037,0.000373,0.008050,-0.002984,88.061840,0.008139,
1280,1190,-0.544041,-5.052766,0.999948,0.000000,-0.007596,0.002131,-0.000011,0.002131,-0.007596,-89.933821,0.007836,
1700,1920,-0.611001,-0.936131,0.999996,0.000224,-0.002367,0.008730,0.002050,0.009097,-0.002734,79.859896,0.009335,
1370,1680,-0.321981,-2.459612,0.999997,0.000194,-0.002466,0.007640,-0.000291,0.007648,-0.002474,-88.353434,0.007806,
1490,1760,-0.546552,-2.012098,0.999997,0.000201,-0.002853,0.008119,0.000084,0.008119,-0.002854,89.559306,0.008238,
1700,1710,-1.450289,-2.939255,0.999995,0.000253,-0.004399,0.009859,0.000185,0.009861,-0.004402,89.255231,0.009880,
1820,870,-3.709484,-11.537963,0.999996,0.000249,-0.004668,0.009617,-0.000772,0.009658,-0.004710,-86.916905,0.009659,
1750,480,-2.078411,-15.703334,0.999997,0.000220,-0.005095,0.010239,0.000189,0.010241,-0.005097,89.295686,0.010241,
710,1630,1.941053,-3.905897,0.999997,0.000208,-0.004953,0.010099,0.000192,0.010101,-0.004956,89.270691,0.010102,
1250,530,-0.047762,-16.730358,0.999997,0.000196,-0.002532,0.006651,0.000366,0.006666,-0.002546,87.721834,0.006727,
1420,420,-0.502433,-17.249584,0.999996,0.000236,-0.003248,0.008083,0.000707,0.008127,-0.003292,86.443162,0.008176,
1490,350,-0.638041,-17.688600,0.999997,0.000224,-0.003389,0.008381,0.000323,0.008390,-0.003398,88.430007,0.008440,
1360,470,-0.339596,-16.996523,0.999998,0.000170,-0.003008,0.007617,0.000846,0.007684,-0.003075,85.475630,0.007735,
1510,740,-1.387761,-13.776137,0.999995,0.000240,-0.007158,0.011924,0.001080,0.011985,-0.007219,86.770768,0.012068,
1050,1130,1.763132,-7.996178,0.999989,0.000358,-0.006389,0.014580,0.004193,0.015388,-0.007196,79.101890,0.015398,
1770,620,-2.596564,-14.186801,0.999996,0.000213,-0.005328,0.010418,-0.000147,0.010420,-0.005330,-89.466808,0.010420,
1330,1940,-0.058670,-0.591970,0.999998,0.000175,-0.000717,0.006422,0.000235,0.006429,-0.000724,88.112883,0.007043,
1690,780,-2.724642,-12.678357,0.999995,0.000257,-0.005723,0.010973,-0.000961,0.011028,-0.005778,-86.716351,0.011032,
1610,220,-0.710325,-18.595795,0.999996,0.000233,-0.002909,0.008646,-0.000901,0.008716,-0.002979,-85.566282,0.008860,
890,730,1.794445,-13.591313,0.999995,0.000250,-0.006777,0.011806,-0.000190,0.011808,-0.006779,-89.415589,0.011851,
1680,1210,-2.927351,-8.179506,0.999997,0.000228,-0.005403,0.010902,0.001256,0.010998,-0.005499,85.620397,0.010998,
1440,40,-0.032625,-20.028815,0.999998,0.000155,-0.000149,0.006148,-0.000586,0.006202,-0.000203,-84.726506,0.007048,
1140,1520,0.243743,-3.570117,0.999997,0.000196,-0.002942,0.007157,0.001077,0.007270,-0.003056,83.977229,0.007301,
1350,1530,-0.321645,-3.554815,0.999996,0.000231,-0.003187,0.007491,-0.001192,0.007622,-0.003318,-83.704672,0.007644,
1540,1130,-2.529243,-8.868627,0.999995,0.000292,-0.005295,0.012223,0.001435,0.012340,-0.005412,85.347066,0.012371,
1540,100,-0.200812,-19.611588,0.999998,0.000192,-0.000845,0.007116,-0.001155,0.007280,-0.001009,-81.910030,0.007889,
560,1780,2.164255,-2.932274,0.999985,0.000000,-0.004482,0.009387,-0.000013,0.009387,-0.004482,-89.947676,0.009391,
840,510,1.502542,-15.810044,0.999995,0.000264,-0.005199,0.010156,-0.000526,0.010174,-0.005217,-88.038738,0.010175,
1830,1260,-3.516794,-7.914686,0.999996,0.000212,-0.004853,0.009821,0.000648,0.009850,-0.004881,87.476348,0.009850,
1360,1430,-0.371368,-4.350999,0.999996,0.000258,-0.003806,0.007614,-0.002210,0.008027,-0.004218,-79.419482,0.008030,
1740,800,-3.077326,-12.366918,0.999996,0.000250,-0.005289,0.010430,-0.001012,0.010495,-0.005354,-86.331816,0.010496,
1650,1320,-2.309782,-6.880879,0.999994,0.000305,-0.006182,0.011275,0.000542,0.011292,-0.006199,88.222645,0.011310,
1450,1410,-0.805597,-4.994775,0.999996,0.000260,-0.005501,0.009708,-0.002204,0.010021,-0.005814,-81.919196,0.010064,
670,520,2.413221,-15.152170,0.999996,0.000281,-0.005168,0.010235,-0.000109,0.010236,-0.005169,-89.593747,0.010236,
920,340,0.800768,-17.660159,0.999996,0.000234,-0.003249,0.008954,0.000077,0.008955,-0.003249,89.640664,0.009066,
1570,1790,-0.712390,-1.887249,0.999997,0.000211,-0.003156,0.008622,0.000470,0.008641,-0.003175,87.717155,0.008741,
870,280,0.835248,-18.093090,0.999996,0.000220,-0.003583,0.008926,0.000397,0.008939,-0.003595,88.182390,0.008996,
1060,1530,0.508376,-3.720013,0.999996,0.000231,-0.003649,0.008155,0.001341,0.008306,-0.003799,83.599823,0.008316,
1670,1130,-3.160794,-9.029351,0.999997,0.000226,-0.004638,0.010411,0.001089,0.010490,-0.004716,85.882259,0.010507,
620,1120,3.969303,-9.251909,0.999998,0.000198,-0.004377,0.009119,-0.000534,0.009141,-0.004398,-87.736986,0.009143,
1250,540,-0.047041,-16.662632,0.999997,0.000207,-0.002527,0.006575,0.000376,0.006590,-0.002543,87.639206,0.006647,
1870,1080,-4.134733,-9.630660,0.999996,0.000236,-0.004165,0.008413,0.000073,0.008413,-0.004165,89.666710,0.008414,
790,1450,2.015795,-5.516687,0.999997,0.000198,-0.005663,0.010696,0.000136,0.010697,-0.005664,89.522756,0.010703,
1820,1500,-2.654470,-5.450453,0.999995,0.000250,-0.005114,0.010223,-0.000033,0.010223,-0.005115,-89.877622,0.010223,
1200,1580,0.079393,-3.065112,0.999998,0.000166,-0.002449,0.006925,0.000324,0.006936,-0.002460,88.024265,0.007033,
750,250,1.181462,-18.121164,0.999997,0.000189,-0.003883,0.009757,0.000963,0.009824,-0.003950,85.983120,0.009887,
1000,1610,0.672708,-3.222520,0.999996,0.000246,-0.003846,0.008684,0.000882,0.008746,-0.003908,85.991252,0.008762,
1300,1330,-0.157620,-4.690053,0.999996,0.000271,-0.003037,0.005168,-0.002786,0.006024,-0.003894,-72.907682,0.006110,
1110,1210,0.696856,-6.016777,0.999991,0.000379,-0.005360,0.007949,0.004388,0.009266,-0.006677,73.299508,0.009562,
670,1270,3.294274,-7.736578,0.999996,0.000253,-0.005077,0.010073,-0.000807,0.010116,-0.005120,-86.960708,0.010116,
1700,1880,-0.810626,-1.295040,0.999997,0.000207,-0.003067,0.009130,0.001684,0.009358,-0.003296,82.282295,0.009494,
1710,1780,-1.264087,-2.273074,0.999996,0.000256,-0.004058,0.009767,0.000692,0.009802,-0.004092,87.142528,0.009846,
1750,800,-3.129651,-12.350330,0.999996,0.000252,-0.005237,0.010353,-0.000984,0.010415,-0.005299,-86.402212,0.010416,
710,1610,1.994374,-4.109631,0.999996,0.000239,-0.004978,0.010147,0.000214,0.010150,-0.004981,89.189076,0.010151,
1820,850,-3.645497,-11.733886,0.999995,0.000249,-0.004738,0.009607,-0.000750,0.009646,-0.004777,-87.015308,0.009646,
1050,1330,0.686093,-5.546996,0.999995,0.000251,-0.006230,0.010062,0.003146,0.010648,-0.006817,79.440578,0.010787,
930,1680,0.835792,-2.789641,0.999996,0.000228,-0.003487,0.008800,0.000201,0.008803,-0.003491,89.063243,0.008866,
1370,2000,-0.030374,-0.217465,0.999998,0.000168,-0.000188,0.006164,0.000359,0.006185,-0.000208,86.774037,0.007024,
1250,510,-0.046985,-16.863682,0.999998,0.000177,-0.002537,0.006737,0.000335,0.006749,-0.002549,87.931910,0.006816,
1470,1760,-0.495825,-1.984247,0.999998,0.000178,-0.002496,0.007996,0.000147,0.007998,-0.002498,89.194769,0.008184,
1420,400,-0.484371,-17.413738,0.999996,0.000216,-0.003171,0.008072,0.000616,0.008105,-0.003204,86.873867,0.008164,
1410,360,-0.415029,-17.757049,0.999996,0.000229,-0.002897,0.007894,0.000401,0.007909,-0.002912,87.874387,0.008000,
1280,860,-0.494001,-15.114711,0.999989,0.000000,-0.007583,0.002704,-0.000122,0.002706,-0.007584,-89.322181,0.007688,
780,650,2.210825,-14.127704,0.999995,0.000264,-0.005783,0.010800,0.000107,0.010801,-0.005784,89.631965,0.010810,
1400,170,-0.171984,-19.181304,0.999998,0.000173,-0.001253,0.006908,-0.000361,0.006924,-0.001269,-87.469130,0.007372,
1370,520,-0.389351,-16.582973,0.999997,0.000196,-0.003484,0.007801,0.001390,0.007970,-0.003653,83.083419,0.007979,
890,710,1.725242,-13.832203,0.999995,0.000244,-0.006682,0.011624,-0.000338,0.011630,-0.006689,-88.942712,0.011674,
1320,40,-0.010371,-20.035857,0.999998,0.000167,-0.000205,0.005959,-0.000181,0.005964,-0.000210,-88.316695,0.006769,
1670,780,-2.608821,-12.720522,0.999995,0.000287,-0.005895,0.011135,-0.000953,0.011188,-0.005948,-86.808251,0.011195,
1860,1210,-3.816896,-8.455190,0.999996,0.000239,-0.004577,0.009379,0.000493,0.009396,-0.004595,87.977548,0.009397,
1090,1940,0.087573,-0.600737,0.999998,0.000160,-0.000591,0.006524,-0.000431,0.006550,-0.000617,-86.544089,0.007234,
1490,330,-0.607812,-17.856087,0.999996,0.000231,-0.003206,0.008449,0.000152,0.008451,-0.003208,89.252898,0.008533,
1360,1410,-0.370482,-4.499809,0.999996,0.000242,-0.003951,0.007624,-0.002460,0.008125,-0.004452,-78.483831,0.008137,
670,500,2.354274,-15.357501,0.999997,0.000235,-0.005131,0.010243,-0.000150,0.010244,-0.005133,-89.439188,0.010244,
1350,1510,-0.326423,-3.703095,0.999996,0.000226,-0.003307,0.007454,-0.001399,0.007633,-0.003486,-82.714645,0.007642,
560,1770,2.201971,-3.028102,0.999977,0.000000,-0.004395,0.009462,0.000010,0.009462,-0.004395,89.958608,0.009470,
610,80,0.699485,-19.443026,0.999997,0.000209,-0.004583,0.011331,0.002642,0.011758,-0.005011,80.815087,0.011800,
1740,780,-3.003465,-12.576554,0.999997,0.000235,-0.005358,0.010530,-0.000924,0.010584,-0.005411,-86.681304,0.010585,
1540,80,-0.151835,-19.751566,0.999998,0.000161,-0.000618,0.006940,-0.001181,0.007120,-0.000798,-81.322941,0.007801,
750,230,1.098050,-18.320931,0.999997,0.000186,-0.003680,0.009683,0.001156,0.009783,-0.003779,85.091988,0.009866,
1730,1320,-2.777865,-7.082519,0.999996,0.000254,-0.005544,0.010603,0.000732,0.010636,-0.005577,87.410282,0.010640,
1450,1650,-0.582271,-2.850457,0.999996,0.000253,-0.003201,0.008282,-0.000510,0.008304,-0.003223,-87.459899,0.008373,
1820,1480,-2.715774,-5.659413,0.999996,0.000238,-0.005102,0.010262,0.000018,0.010262,-0.005102,89.931578,0.010262,
1230,540,0.003420,-16.673480,0.999998,0.000171,-0.002534,0.006562,-0.000035,0.006562,-0.002534,-89.776918,0.006618,
1110,1190,0.881198,-6.163166,0.999990,0.000366,-0.004112,0.006897,0.004130,0.008274,-0.005489,71.560921,0.008420,
1300,1310,-0.159074,-4.791348,0.999994,0.000293,-0.003146,0.004895,-0.003119,0.005963,-0.004213,-71.099122,0.006130,
980,1610,0.750517,-3.281910,0.999997,0.000187,-0.003931,0.008815,0.000799,0.008865,-0.003981,86.427235,0.008880,
1670,1110,-3.208361,-9.235275,0.999996,0.000237,-0.004443,0.010297,0.000974,0.010361,-0.004508,86.234393,0.010390,
620,1100,4.004696,-9.435017,0.999997,0.000224,-0.004310,0.008927,-0.000257,0.008932,-0.004315,-88.887656,0.008934,
1700,1860,-0.896454,-1.478630,0.999997,0.000194,-0.003334,0.009430,0.001465,0.009596,-0.003499,83.537087,0.009712,
880,1290,1.996623,-7.023280,0.999995,0.000249,-0.006718,0.011943,-0.000311,0.011948,-0.006723,-89.044978,0.011980,
1710,1760,-1.337720,-2.472564,0.999998,0.000214,-0.004205,0.009839,0.000518,0.009858,-0.004224,87.891989,0.009892,
910,1160,2.438259,-8.528180,0.999995,0.000286,-0.005817,0.012275,-0.001440,0.012389,-0.005931,-85.476657,0.012392,
1050,1570,0.524624,-3.421693,0.999996,0.000223,-0.003490,0.008233,0.001048,0.008326,-0.003583,84.932439,0.008353,
1300,1180,-0.817593,-5.290866,0.999971,0.000000,-0.005496,0.002468,-0.000956,0.002581,-0.005609,-83.247508,0.005615,
920,780,1.782925,-13.110509,0.999994,0.000264,-0.007153,0.012371,-0.000021,0.012371,-0.007153,-89.938154,0.012422,
1370,500,-0.381957,-16.740741,0.999997,0.000194,-0.003363,0.007760,0.001249,0.007898,-0.003502,83.670549,0.007915,
1590,220,-0.649382,-18.627035,0.999996,0.000219,-0.003004,0.008467,-0.000771,0.008519,-0.003056,-86.171431,0.008632,
1110,240,0.182790,-18.715811,0.999998,0.000152,-0.001658,0.007113,0.000109,0.007114,-0.001660,89.290175,0.007444,
1710,100,-0.437743,-19.526016,0.999997,0.000210,-0.001561,0.008350,-0.002379,0.008892,-0.002102,-77.179841,0.009294,
1420,380,-0.465587,-17.573485,0.999997,0.000223,-0.003084,0.008112,0.000506,0.008135,-0.003107,87.417927,0.008210,
1250,490,-0.046935,-16.999981,0.999998,0.000185,-0.002529,0.006825,0.000311,0.006836,-0.002539,88.095630,0.006911,
970,1940,0.187639,-0.639313,0.999998,0.000153,-0.001165,0.007046,-0.000862,0.007135,-0.001255,-84.071897,0.007619,
1640,1770,-1.014296,-2.203223,0.999998,0.000221,-0.003571,0.009360,0.000572,0.009385,-0.003596,87.471491,0.009470,
1880,1080,-4.176317,-9.635504,0.999997,0.000216,-0.004116,0.008251,0.000021,0.008251,-0.004116,89.903362,0.008251,
790,1430,2.075408,-5.732311,0.999996,0.000223,-0.005740,0.010765,0.000065,0.010765,-0.005740,89.772894,0.010773,
1200,1560,0.079405,-3.204470,0.999998,0.000150,-0.002483,0.006853,0.000357,0.006867,-0.002497,87.816033,0.006951,
610,900,3.933981,-11.212715,0.999996,0.000214,-0.004354,0.008953,0.000388,0.008964,-0.004365,88.333390,0.008965,
1230,40,0.000659,-20.036781,0.999999,0.000144,-0.000232,0.005972,0.000001,0.005972,-0.000232,89.994000,0.006766,
710,1590,2.052297,-4.314503,0.999996,0.000248,-0.005030,0.010188,0.000215,0.010191,-0.005033,89.192532,0.010192,
1840,1210,-3.725367,-8.414836,0.999996,0.000222,-0.004676,0.009505,0.000650,0.009534,-0.004706,87.379557,0.009535,
1350,1490,-0.326853,-3.852188,0.999997,0.000203,-0.003406,0.007427,-0.001581,0.007653,-0.003631,-81.865690,0.007656,
1490,310,-0.573045,-18.025241,0.999997,0.000229,-0.003006,0.008259,0.000011,0.008259,-0.003006,89.943221,0.008361,
1540,280,-0.664450,-18.189340,0.999997,0.000212,-0.002827,0.008517,-0.000389,0.008531,-0.002840,-88.036868,0.008688,
1040,1550,0.570445,-3.614568,0.999995,0.000256,-0.003829,0.008410,0.001237,0.008534,-0.003953,84.286211,0.008541,
1740,760,-2.927302,-12.790574,0.999997,0.000215,-0.005430,0.010572,-0.000819,0.010614,-0.005471,-87.078156,0.010615,
750,210,1.013939,-18.510108,0.999997,0.000193,-0.003504,0.009643,0.001420,0.009795,-0.003656,83.904015,0.009899,
1390,360,-0.359360,-17.790769,0.999996,0.000234,-0.002555,0.007656,0.000299,0.007665,-0.002564,88.322544,0.007804,
1890,120,-1.224601,-18.833151,0.999996,0.000240,-0.004732,0.010885,-0.001677,0.011063,-0.004910,-83.938387,0.011086,
1620,690,-1.962628,-13.884386,0.999995,0.000267,-0.006266,0.011292,0.000032,0.011292,-0.006266,89.896501,0.011315,
1660,1610,-1.533157,-3.812612,0.999997,0.000204,-0.004807,0.009963,-0.000307,0.009969,-0.004814,-88.809771,0.009971,
1820,1460,-2.778390,-5.864101,0.999996,0.000228,-0.005131,0.010221,0.000095,0.010222,-0.005131,89.645756,0.010222,
560,1760,2.242823,-3.119792,0.999965,0.000000,-0.004206,0.009914,0.000242,0.009918,-0.004210,89.017791,0.009956,
1250,620,-0.043579,-16.164942,0.999999,0.000138,-0.002345,0.005749,0.000510,0.005781,-0.002377,86.406692,0.005812,
1110,870,0.941823,-13.963304,0.999991,0.000362,-0.003679,0.006641,-0.004134,0.008093,-0.005131,-70.651894,0.008189,
1660,950,-3.177011,-10.877561,0.999995,0.000262,-0.004441,0.010331,-0.000986,0.010396,-0.004506,-86.199363,0.010427,
890,690,1.659945,-14.060366,0.999995,0.000249,-0.006556,0.011353,-0.000495,0.011366,-0.006570,-88.418553,0.011412,
1870,2020,-0.308333,-0.269001,0.999952,0.000000,-0.000313,0.011391,0.006030,0.013941,-0.002863,67.071393,0.014726,
1300,1370,-0.161878,-4.475866,0.999997,0.000207,-0.002856,0.005663,-0.002177,0.006187,-0.003380,-76.466161,0.006196,
1050,390,0.455060,-17.507852,0.999996,0.000252,-0.003107,0.008013,-0.000595,0.008044,-0.003139,-86.944206,0.008109,
1040,1350,0.718592,-5.421778,0.999994,0.000274,-0.006035,0.009988,0.002847,0.010479,-0.006526,80.219983,0.010583,
860,1290,2.129814,-7.091330,0.999994,0.000264,-0.006556,0.011786,-0.000494,0.011800,-0.006569,-88.459706,0.011825,
1660,1830,-0.878150,-1.684197,0.999997,0.000216,-0.003576,0.009135,0.000937,0.009204,-0.003645,85.807901,0.009270,
1220,1610,0.028267,-2.843411,0.999997,0.000206,-0.002451,0.007001,0.000167,0.007004,-0.002454,88.986795,0.007107,
690,80,0.471060,-19.620268,0.999993,0.000280,-0.002264,0.009136,0.003201,0.009974,-0.003101,75.339182,0.010209,
1700,1840,-0.990225,-1.674244,0.999997,0.000201,-0.003551,0.009504,0.001237,0.009620,-0.003667,84.635270,0.009711,
1450,670,-0.831827,-14.917177,0.999994,0.000311,-0.005869,0.010084,0.002313,0.010412,-0.006198,81.914882,0.010475,
1260,1490,-0.071713,-3.669377,0.999998,0.000172,-0.002516,0.006403,-0.000480,0.006428,-0.002541,-86.926806,0.006475,
1610,820,-2.415304,-12.395901,0.999993,0.000290,-0.006239,0.011781,-0.001063,0.011844,-0.006302,-86.636141,0.011852,
1220,40,0.001943,-20.036402,0.999999,0.000141,-0.000222,0.005973,0.000015,0.005973,-0.000222,89.861043,0.006772,
790,1160,3.074428,-8.711185,0.999996,0.000261,-0.004989,0.010642,-0.001272,0.010745,-0.005092,-85.379248,0.010750,
1420,360,-0.444811,-17.738518,0.999996,0.000231,-0.002982,0.007985,0.000402,0.008000,-0.002997,87.903017,0.008084,
880,170,0.473272,-19.048680,0.999996,0.000229,-0.002366,0.007991,0.001061,0.008099,-0.002473,84.210206,0.008301,
1730,1900,-0.788304,-1.145597,0.999996,0.000209,-0.003059,0.009415,0.001948,0.009712,-0.003356,81.325027,0.009865,
620,1080,4.021214,-9.611889,0.999997,0.000232,-0.004250,0.008780,-0.000142,0.008781,-0.004252,-89.377331,0.008783,
1090,1180,1.071722,-6.631712,0.999995,0.000267,-0.004955,0.008948,0.004628,0.010347,-0.006354,73.173446,0.010436,
1670,1090,-3.258567,-9.443694,0.999995,0.000267,-0.004331,0.010311,0.000870,0.010362,-0.004383,86.609656,0.010403,
1050,420,0.480136,-17.265579,0.999997,0.000203,-0.003239,0.008069,-0.000729,0.008116,-0.003286,-86.328132,0.008165,
1640,1750,-1.075695,-2.393204,0.999997,0.000217,-0.003759,0.009376,0.000376,0.009387,-0.003770,88.363365,0.009447,
590,900,4.019478,-11.180558,0.999997,0.000210,-0.004276,0.008748,0.000270,0.008754,-0.004281,88.811503,0.008754,
620,370,2.218906,-16.514779,0.999996,0.000286,-0.004921,0.010056,-0.000088,0.010057,-0.004922,-89.663338,0.010057,
1250,690,-0.036749,-15.803064,0.999998,0.000139,-0.002096,0.004547,0.000692,0.004618,-0.002167,84.113865,0.004621,
790,1410,2.137185,-5.948265,0.999997,0.000197,-0.005817,0.010798,-0.000036,0.010798,-0.005817,-89.874412,0.010809,
680,1110,3.718629,-9.297522,0.999997,0.000214,-0.004488,0.009590,-0.000727,0.009628,-0.004525,-87.051270,0.009634,
1200,1540,0.080347,-3.341871,0.999998,0.000164,-0.002517,0.006767,0.000384,0.006783,-0.002532,87.635772,0.006855,
710,1570,2.106671,-4.518793,0.999996,0.000243,-0.005092,0.010237,0.000214,0.010240,-0.005095,89.200945,0.010241,
1740,740,-2.853997,-13.000799,0.999997,0.000217,-0.005484,0.010537,-0.000754,0.010572,-0.005519,-87.309762,0.010576,
750,190,0.916681,-18.708858,0.999997,0.000195,-0.003207,0.009471,0.001619,0.009675,-0.003411,82.836704,0.009814,
1350,1470,-0.330963,-4.007222,0.999996,0.000246,-0.003503,0.007413,-0.001785,0.007697,-0.003788,-80.945533,0.007698,
1490,290,-0.536448,-18.188580,0.999996,0.000240,-0.002833,0.008145,-0.000117,0.008146,-0.002835,-89.389018,0.008271,
1250,600,-0.044622,-16.282710,0.999998,0.000163,-0.002410,0.005995,0.000459,0.006020,-0.002435,86.881796,0.006057,
1540,520,-1.102341,-16.000006,0.999996,0.000226,-0.004893,0.009715,0.000958,0.009778,-0.004955,86.264061,0.009778,
1620,710,-2.031691,-13.657237,0.999994,0.000297,-0.006325,0.011407,-0.000106,0.011408,-0.006326,-89.657054,0.011430,
1820,1440,-2.842534,-6.068746,0.999997,0.000201,-0.005161,0.010208,0.000142,0.010210,-0.005163,89.469009,0.010210,
1050,350,0.413636,-17.831933,0.999997,0.000240,-0.002892,0.007811,-0.000405,0.007826,-0.002907,-87.836214,0.007912,
1090,240,0.215191,-18.701551,0.999997,0.000215,-0.001583,0.007185,0.000188,0.007189,-0.001587,88.772666,0.007554,
1660,1810,-0.952937,-1.871720,0.999997,0.000214,-0.003753,0.009297,0.000780,0.009343,-0.003799,86.591652,0.009398,
1110,850,0.728167,-14.098328,0.999990,0.000402,-0.005025,0.007765,-0.004306,0.009079,-0.006340,-73.022921,0.009314,
1300,1350,-0.156586,-4.585555,0.999996,0.000261,-0.002939,0.005482,-0.002465,0.006151,-0.003608,-74.825004,0.006182,
1760,950,-3.625303,-10.827020,0.999996,0.000219,-0.004506,0.009737,-0.000753,0.009776,-0.004546,-86.981824,0.009784,
1060,1610,0.466644,-3.072349,0.999997,0.000208,-0.003359,0.007996,0.000904,0.008067,-0.003430,85.475808,0.008097,
670,80,0.505004,-19.610992,0.999996,0.000248,-0.001845,0.009777,0.003811,0.010915,-0.002984,73.371442,0.011283,
890,670,1.601931,-14.290907,0.999996,0.000245,-0.006394,0.011273,-0.000621,0.011295,-0.006416,-87.988841,0.011330,
1700,1820,-1.069831,-1.861461,0.999997,0.000181,-0.003779,0.009594,0.001014,0.009671,-0.003855,85.687226,0.009737,
1000,960,2.324016,-11.096057,0.999991,0.000337,-0.005535,0.014872,0.000062,0.014872,-0.005535,89.824644,0.015033,
1400,1010,-2.015568,-10.598971,0.999961,0.000000,-0.010599,0.028388,0.002496,0.028547,-0.010758,86.351327,0.028834,
780,1290,2.624228,-7.301483,0.999996,0.000234,-0.005856,0.011036,-0.000872,0.011081,-0.005901,-87.052738,0.011089,
1490,2000,-0.062830,-0.228857,0.999998,0.000183,-0.000446,0.006527,0.000833,0.006625,-0.000544,83.284250,0.007356,
1300,740,-0.158282,-15.396191,0.999996,0.000246,-0.003112,0.004987,0.003060,0.006013,-0.004138,71.463374,0.006154,
1620,760,-2.219573,-13.077466,0.999995,0.000280,-0.006401,0.011583,-0.000551,0.011600,-0.006418,-88.248060,0.011622,
920,760,1.697898,-13.361299,0.999994,0.000265,-0.007121,0.012249,-0.000268,0.012252,-0.007125,-89.208358,0.012307,
1670,1070,-3.292496,-9.649794,0.999996,0.000250,-0.004203,0.010148,0.000480,0.010164,-0.004219,88.085248,0.010212,
940,170,0.362785,-19.098256,0.999996,0.000216,-0.001782,0.007577,0.000859,0.007656,-0.001860,84.798583,0.007986,
620,1060,4.042581,-9.790003,0.999997,0.000222,-0.004238,0.008841,-0.000236,0.008846,-0.004243,-88.964972,0.008848,
830,1190,2.749377,-8.328751,0.999994,0.000290,-0.005554,0.011337,-0.001364,0.011447,-0.005663,-85.412156,0.011447,
1420,340,-0.422311,-17.896278,0.999996,0.000244,-0.002868,0.007770,0.000332,0.007781,-0.002878,88.213506,0.007868,
790,1390,2.203374,-6.165526,0.999996,0.000242,-0.005877,0.010917,-0.000144,0.010918,-0.005878,-89.508748,0.010929,
1450,630,-0.789949,-15.305134,0.999996,0.000240,-0.005330,0.009550,0.002094,0.009839,-0.005619,82.138722,0.009872,
1800,1330,-3.116830,-7.142786,0.999997,0.000206,-0.005159,0.010191,0.000568,0.010212,-0.005180,87.884965,0.010212,
1710,1900,-0.735427,-1.121435,0.999997,0.000208,-0.002659,0.009183,0.002007,0.009514,-0.002990,80.635933,0.009730,
1020,1490,0.698528,-4.212959,0.999997,0.000176,-0.004484,0.008946,0.001617,0.009138,-0.004676,83.228537,0.009139,
1740,1130,-3.479344,-9.073694,0.999995,0.000242,-0.004586,0.009838,0.000817,0.009884,-0.004632,86.769709,0.009891,
1010,50,0.047897,-19.965384,0.999998,0.000158,-0.000171,0.006343,0.000703,0.006418,-0.000246,83.912098,0.007273,
1270,1290,-0.084785,-4.701408,0.999998,0.000188,-0.002518,0.003345,-0.002068,0.004001,-0.003175,-72.398047,0.004224,
1590,820,-2.287687,-12.449210,0.999994,0.000304,-0.006441,0.012031,-0.000959,0.012081,-0.006490,-87.034874,0.012092,
1060,920,1.661859,-12.419935,0.999987,0.000419,-0.005783,0.013811,-0.005397,0.015200,-0.007171,-75.574430,0.015208,
650,900,3.757435,-11.263308,0.999995,0.000278,-0.004543,0.009326,0.000583,0.009350,-0.004567,87.596872,0.009351,
1160,410,0.166994,-17.531568,0.999997,0.000227,-0.002414,0.007224,-0.000302,0.007233,-0.002423,-88.205396,0.007363,
1760,1770,-1.524496,-2.512308,0.999996,0.000267,-0.004778,0.010074,0.000328,0.010081,-0.004785,88.736878,0.010085,
860,1110,2.916461,-9.193064,0.999996,0.000264,-0.004475,0.010953,-0.001190,0.011044,-0.004566,-85.616499,0.011099,
1200,1520,0.079856,-3.475412,0.999998,0.000188,-0.002547,0.006644,0.000426,0.006663,-0.002567,87.350237,0.006721,
1740,720,-2.778887,-13.214732,0.999996,0.000237,-0.005528,0.010556,-0.000653,0.010582,-0.005554,-87.678001,0.010587,
1430,400,-0.515810,-17.391181,0.999996,0.000222,-0.003167,0.008126,0.000559,0.008154,-0.003194,87.173126,0.008217,
1770,1460,-2.518809,-5.712737,0.999995,0.000249,-0.005329,0.010357,0.000061,0.010357,-0.005329,89.778241,0.010358,
560,1750,2.275646,-3.218112,0.999945,0.000000,-0.004170,0.009824,0.000150,0.009826,-0.004171,89.384122,0.009863,
750,610,2.254561,-14.462692,0.999995,0.000260,-0.005556,0.010595,0.000015,0.010595,-0.005556,89.947603,0.010599,
1530,1490,-1.125769,-4.572463,0.999996,0.000244,-0.005309,0.010051,-0.001175,0.010141,-0.005398,-85.650462,0.010148,
1880,60,-0.625454,-19.580115,0.999991,0.000381,-0.003128,0.012379,-0.004461,0.013570,-0.004320,-75.041788,0.013866,
1110,1680,0.281870,-2.437735,0.999998,0.000193,-0.002478,0.007558,0.000355,0.007571,-0.002491,87.975828,0.007717,
1170,240,0.088878,-18.744445,0.999997,0.000191,-0.001367,0.006891,0.000106,0.006892,-0.001368,89.266361,0.007298,
1820,1420,-2.907565,-6.273618,0.999997,0.000200,-0.005152,0.010234,0.000187,0.010236,-0.005155,89.304656,0.010236,
1350,1450,-0.333314,-4.156196,0.999997,0.000236,-0.003606,0.007383,-0.002000,0.007735,-0.003959,-80.000240,0.007736,
890,650,1.549142,-14.513070,0.999995,0.000271,-0.006214,0.011077,-0.000726,0.011108,-0.006245,-87.601449,0.011136,
1230,620,0.001538,-16.178378,0.999998,0.000169,-0.002340,0.005729,-0.000053,0.005729,-0.002341,-89.622921,0.005761,
1490,270,-0.498906,-18.353220,0.999997,0.000222,-0.002680,0.008062,-0.000200,0.008066,-0.002684,-88.932629,0.008215,
1040,1740,0.403099,-2.072644,0.999997,0.000239,-0.002722,0.007770,0.000193,0.007773,-0.002726,88.944204,0.007888,
1810,620,-2.807117,-14.069324,0.999996,0.000243,-0.005186,0.010227,-0.000178,0.010229,-0.005188,-89.339129,0.010229,
1040,1610,0.532951,-3.119001,0.999997,0.000211,-0.003288,0.008137,0.000787,0.008191,-0.003342,86.079589,0.008237,
1640,1830,-0.813186,-1.652328,0.999997,0.000225,-0.003027,0.008939,0.001049,0.009031,-0.003119,85.025999,0.009174,
1670,1050,-3.309193,-9.852261,0.999997,0.000208,-0.004078,0.010076,0.000353,0.010085,-0.004087,88.571272,0.010145,
1400,1030,-2.023753,-10.008279,0.999965,0.000000,-0.010562,0.028972,-0.000352,0.028975,-0.010566,-89.490133,0.029327,
710,1550,2.161894,-4.724463,0.999996,0.000244,-0.005166,0.010264,0.000174,0.010266,-0.005168,89.352384,0.010267,
920,170,0.397697,-19.084116,0.999996,0.000253,-0.001715,0.007711,0.001001,0.007816,-0.001820,84.002381,0.008180,
1450,90,-0.108792,-19.705600,0.999998,0.000187,-0.000582,0.006639,-0.000689,0.006704,-0.000648,-84.601583,0.007395,
790,420,1.534368,-16.557084,0.999996,0.000260,-0.004757,0.009917,-0.000214,0.009920,-0.004760,-89.164784,0.009922,
1700,1800,-1.151766,-2.060435,0.999997,0.000195,-0.003938,0.009613,0.000814,0.009662,-0.003987,86.575937,0.009711,
1680,950,-3.265572,-10.866619,0.999995,0.000277,-0.004462,0.010213,-0.000951,0.010274,-0.004523,-86.309203,0.010299,
620,1040,4.053920,-9.966892,0.999997,0.000233,-0.004244,0.008917,-0.000199,0.008920,-0.004247,-89.134813,0.008924,
890,1160,2.554018,-8.575391,0.999995,0.000256,-0.005582,0.011943,-0.001472,0.012066,-0.005705,-85.232299,0.012072,
1430,50,-0.042123,-19.966862,0.999998,0.000153,-0.000298,0.006215,-0.000553,0.006262,-0.000344,-85.184267,0.007040,
1180,1930,0.035892,-0.650404,0.999998,0.000163,-0.000575,0.006371,-0.000130,0.006374,-0.000578,-88.930821,0.007050,
1480,2000,-0.059489,-0.227977,0.999998,0.000197,-0.000335,0.006496,0.000808,0.006591,-0.000429,83.343288,0.007375,
1110,830,0.606872,-14.265836,0.999993,0.000334,-0.005942,0.008144,-0.004446,0.009430,-0.007228,-73.869955,0.009866,
1220,1430,0.027101,-4.015537,0.999999,0.000146,-0.002339,0.005649,0.000356,0.005665,-0.002355,87.453138,0.005692,
1020,1050,2.398474,-9.675859,0.999989,0.000389,-0.006606,0.018175,0.000644,0.018191,-0.006622,88.511737,0.018414,
920,740,1.623009,-13.607360,0.999993,0.000306,-0.007043,0.011991,-0.000501,0.012004,-0.007056,-88.493504,0.012065,
1260,400,-0.067022,-17.625642,0.999998,0.000181,-0.002311,0.007100,0.000216,0.007105,-0.002316,88.684284,0.007247,
760,1290,2.741304,-7.345214,0.999995,0.000272,-0.005698,0.010897,-0.000873,0.010943,-0.005744,-86.996586,0.010947,
1420,320,-0.402665,-18.052323,0.999997,0.000242,-0.002756,0.007773,0.000207,0.007777,-0.002760,88.876803,0.007886,
750,630,2.317686,-14.250493,0.999996,0.000256,-0.005609,0.010634,0.000093,0.010635,-0.005610,89.671094,0.010640,
1530,1450,-1.194915,-4.982079,0.999996,0.000253,-0.005627,0.010299,-0.001190,0.010387,-0.005716,-85.749378,0.010405,
1740,1770,-1.428508,-2.449827,0.999997,0.000219,-0.004577,0.010009,0.000434,0.010022,-0.004590,88.297100,0.010034,
1040,450,0.535620,-17.000787,0.999997,0.000223,-0.003339,0.008149,-0.000817,0.008207,-0.003397,-85.953497,0.008247,
630,900,3.846825,-11.238355,0.999996,0.000232,-0.004431,0.009134,0.000490,0.009151,-0.004449,87.935667,0.009153,
1360,1470,-0.368328,-4.045987,0.999995,0.000254,-0.003646,0.007596,-0.001847,0.007892,-0.003941,-80.903033,0.007892,
1740,700,-2.707288,-13.426481,0.999994,0.000280,-0.005538,0.010619,-0.000510,0.010635,-0.005554,-88.195402,0.010639,
670,480,2.296806,-15.563130,0.999996,0.000235,-0.005105,0.010211,-0.000169,0.010213,-0.005107,-89.368883,0.010213,
1350,1430,-0.333368,-4.308142,0.999996,0.000234,-0.003690,0.007362,-0.002225,0.007793,-0.004121,-79.035530,0.007797,
1210,540,0.054382,-16.660708,0.999998,0.000173,-0.002542,0.006584,-0.000391,0.006601,-0.002558,-87.550731,0.006656,
1830,620,-2.909853,-14.010372,0.999995,0.000261,-0.005125,0.010180,-0.000146,0.010182,-0.005126,-89.453163,0.010182,
1430,380,-0.496547,-17.554306,0.999997,0.000221,-0.003069,0.008177,0.000454,0.008195,-0.003087,87.693636,0.008278,
940,790,1.683309,-13.081478,0.999994,0.000268,-0.007411,0.012624,-0.000300,0.012629,-0.007416,-89.142131,0.012693,
1540,1450,-1.250445,-5.022402,0.999996,0.000270,-0.005668,0.010337,-0.001097,0.010412,-0.005743,-86.098050,0.010431,
1490,250,-0.461265,-18.511861,0.999997,0.000210,-0.002486,0.007929,-0.000329,0.007939,-0.002497,-88.192759,0.008119,
790,1370,2.269452,-6.389520,0.999995,0.000265,-0.005948,0.011034,-0.000241,0.011038,-0.005951,-89.187233,0.011049,
1820,1830,-1.547406,-2.091539,0.999995,0.000281,-0.004676,0.010181,0.000690,0.010213,-0.004708,87.346255,0.010223,
590,1360,3.378744,-7.039793,0.999996,0.000280,-0.005143,0.009975,-0.000168,0.009977,-0.005145,-89.362167,0.009978,
1200,1500,0.078545,-3.607331,0.999998,0.000215,-0.002549,0.006487,0.000472,0.006512,-0.002573,87.020279,0.006560,
1040,1720,0.428627,-2.231807,0.999996,0.000239,-0.002845,0.007810,0.000306,0.007819,-0.002854,88.358293,0.007913,
1670,1080,-3.278648,-9.547261,0.999995,0.000307,-0.004272,0.010243,0.000674,0.010274,-0.004303,87.347282,0.010319,
710,790,3.106195,-12.448319,0.999997,0.000236,-0.005260,0.010338,0.000931,0.010394,-0.005315,86.594980,0.010395,
1730,2020,-0.093410,-0.122452,0.999997,0.000000,-0.000421,0.007830,0.002937,0.008768,-0.001360,72.276903,0.009438,
1120,1610,0.284385,-2.946251,0.999998,0.000168,-0.002735,0.007431,0.000645,0.007472,-0.002776,86.381699,0.007554,
1020,170,0.235034,-19.153098,0.999997,0.000198,-0.001355,0.007095,0.000538,0.007129,-0.001389,86.371625,0.007559,
1660,1590,-1.584513,-4.014909,0.999996,0.000218,-0.004973,0.010059,-0.000368,0.010068,-0.004982,-88.598253,0.010068,
560,1740,2.299459,-3.334856,0.999927,0.000000,-0.004276,0.009565,-0.000049,0.009565,-0.004276,-89.797088,0.009583,
1890,90,-0.964200,-19.170591,0.999996,0.000228,-0.004539,0.012156,-0.002703,0.012583,-0.004966,-81.030515,0.012675,
870,320,0.939185,-17.731943,0.999998,0.000152,-0.003822,0.009179,0.000115,0.009180,-0.003823,89.492136,0.009222,
1450,70,-0.074989,-19.839525,0.999998,0.000150,-0.000391,0.006518,-0.000730,0.006594,-0.000467,-84.034699,0.007360,
1530,910,-2.388955,-11.507894,0.999994,0.000299,-0.005717,0.012595,-0.001391,0.012700,-0.005822,-85.681232,0.012715,
1180,40,0.008542,-20.036522,0.999999,0.000148,-0.000062,0.005992,0.000111,0.005994,-0.000064,88.953580,0.006884,
1480,790,-1.355601,-13.344101,0.999993,0.000338,-0.007705,0.012622,0.001248,0.012698,-0.007782,86.498507,0.012806,
1080,920,1.565049,-12.883864,0.999985,0.000482,-0.003824,0.012334,-0.007233,0.015099,-0.006588,-69.080731,0.015140,
1260,440,-0.070673,-17.341334,0.999997,0.000226,-0.002423,0.007060,0.000275,0.007068,-0.002431,88.339740,0.007182,
1380,590,-0.442387,-15.999285,0.999997,0.000191,-0.003881,0.007959,0.001883,0.008252,-0.004174,81.176469,0.008252,
1700,1790,-1.186886,-2.153692,0.999997,0.000186,-0.004018,0.009623,0.000712,0.009660,-0.004055,87.021186,0.009701,
1800,520,-2.447573,-15.129398,0.999995,0.000245,-0.005151,0.010196,0.000108,0.010197,-0.005152,89.597445,0.010197,
1360,1450,-0.369801,-4.196684,0.999997,0.000244,-0.003715,0.007597,-0.001997,0.007939,-0.004057,-80.277316,0.007940,
1120,1930,0.077311,-0.659228,0.999998,0.000155,-0.000796,0.006453,-0.000266,0.006463,-0.000806,-87.905020,0.007044,
780,530,1.866457,-15.403131,0.999996,0.000227,-0.005293,0.010371,-0.000300,0.010377,-0.005299,-88.902266,0.010377,
1750,840,-3.274619,-11.933458,0.999995,0.000262,-0.005067,0.010164,-0.001021,0.010232,-0.005135,-86.180332,0.010232,
790,1350,2.338468,-6.609192,0.999995,0.000286,-0.005984,0.011061,-0.000409,0.011071,-0.005993,-88.627212,0.011084,
1470,2000,-0.058058,-0.226551,0.999998,0.000197,-0.000248,0.006453,0.000772,0.006541,-0.000336,83.508982,0.007366,
1420,300,-0.376059,-18.206852,0.999997,0.000219,-0.002589,0.007669,0.000136,0.007671,-0.002591,89.237923,0.007804,
830,1740,1.077048,-2.470962,0.999997,0.000182,-0.003786,0.009342,-0.000253,0.009347,-0.003791,-88.895930,0.009402,
830,1160,2.873779,-8.669247,0.999995,0.000259,-0.005140,0.011038,-0.001340,0.011149,-0.005250,-85.298473,0.011155,
1820,1400,-2.973694,-6.479877,0.999996,0.000221,-0.005132,0.010221,0.000269,0.010225,-0.005137,88.996338,0.010225,
890,630,1.498762,-14.734374,0.999995,0.000262,-0.006015,0.010861,-0.000810,0.010900,-0.006054,-87.259057,0.010922,
810,980,3.213158,-10.566518,0.999997,0.000223,-0.004157,0.010278,0.000638,0.010306,-0.004185,87.475532,0.010366,
970,90,0.134004,-19.696549,0.999998,0.000196,-0.000880,0.006804,0.000868,0.006901,-0.000977,83.636686,0.007469,
1450,660,-0.819787,-15.017594,0.999994,0.000313,-0.005708,0.009963,0.002257,0.010281,-0.006026,81.965235,0.010332,
640,150,1.121466,-18.840291,0.999995,0.000296,-0.004392,0.010374,0.001519,0.010529,-0.004546,84.186779,0.010561,
1740,680,-2.636710,-13.639937,0.999995,0.000253,-0.005550,0.010617,-0.000423,0.010628,-0.005561,-88.500709,0.010632,
1040,1700,0.447813,-2.386414,0.999996,0.000233,-0.002955,0.007974,0.000419,0.007990,-0.002971,87.809618,0.008077,
620,1020,4.059891,-10.147297,0.999997,0.000218,-0.004243,0.008972,0.000149,0.008974,-0.004245,89.354042,0.008978,
1110,810,0.501337,-14.424434,0.999992,0.000337,-0.005892,0.008177,-0.004529,0.009508,-0.007224,-73.613093,0.009927,
1240,110,-0.004075,-19.610290,0.999998,0.000151,-0.000600,0.006280,-0.000015,0.006280,-0.000600,-89.871085,0.006931,
920,720,1.553934,-13.845354,0.999993,0.000298,-0.006878,0.011746,-0.000681,0.011771,-0.006902,-87.907719,0.011829,
1570,1770,-0.763427,-2.062425,0.999997,0.000201,-0.003286,0.008734,0.000362,0.008745,-0.003296,88.276595,0.008833,
730,1040,3.582188,-9.956063,0.999995,0.000268,-0.004294,0.009707,-0.000267,0.009713,-0.004299,-88.908684,0.009734,
750,650,2.381546,-14.035511,0.999995,0.000280,-0.005653,0.010673,0.000201,0.010675,-0.005656,89.296011,0.010682,
560,1730,2.350698,-3.413133,0.999905,0.000000,-0.004254,0.009087,-0.000165,0.009089,-0.004256,-89.291862,0.009095,
660,1290,3.273678,-7.554962,0.999996,0.000221,-0.005051,0.010012,-0.000694,0.010044,-0.005083,-87.369133,0.010044,
810,660,2.066139,-14.108627,0.999996,0.000228,-0.005985,0.010996,0.000018,0.010996,-0.005985,89.940365,0.011010,
870,300,0.888293,-17.914397,0.999998,0.000156,-0.003714,0.008956,0.000224,0.008960,-0.003717,88.988461,0.009003,
730,1680,1.694436,-3.333390,0.999997,0.000247,-0.004876,0.010075,0.000021,0.010075,-0.004876,89.919788,0.010077,
1350,1410,-0.333932,-4.450868,0.999996,0.000224,-0.003772,0.007342,-0.002438,0.007853,-0.004283,-78.154994,0.007864,
1670,1500,-1.862664,-4.976221,0.999996,0.000236,-0.005425,0.010463,-0.000307,0.010469,-0.005431,-88.892686,0.010471,
580,1360,3.427234,-7.071729,0.999995,0.000299,-0.005955,0.009928,-0.000120,0.009929,-0.005956,-89.566499,0.009995,
1200,1480,0.078349,-3.735821,0.999998,0.000200,-0.002522,0.006324,0.000509,0.006353,-0.002552,86.720669,0.006394,
1610,300,-0.952213,-17.876436,0.999997,0.000221,-0.003660,0.009084,-0.000292,0.009090,-0.003667,-88.690139,0.009147,
990,560,0.834106,-15.869621,0.999996,0.000246,-0.004857,0.009353,-0.001515,0.009513,-0.005016,-83.981995,0.009518,
1140,1500,0.244583,-3.713729,0.999997,0.000179,-0.002955,0.007049,0.001185,0.007187,-0.003094,83.334961,0.007210,
1320,1610,-0.220555,-2.907880,0.999998,0.000183,-0.002785,0.007288,-0.000661,0.007331,-0.002828,-86.261512,0.007394,
650,1960,0.671964,-0.714522,0.999994,0.000285,-0.003008,0.010120,-0.003146,0.010835,-0.003723,-77.196788,0.011010,
1800,500,-2.391022,-15.334960,0.999995,0.000253,-0.005138,0.010227,0.000152,0.010228,-0.005140,89.434584,0.010228,
1700,1770,-1.261061,-2.348984,0.999998,0.000185,-0.004172,0.009771,0.000558,0.009794,-0.004194,87.712224,0.009827,
920,850,2.130559,-12.225654,0.999995,0.000261,-0.006743,0.012681,0.000915,0.012724,-0.006786,87.309899,0.012734,
1160,40,0.009544,-20.036358,0.999999,0.000149,-0.000082,0.005996,0.000167,0.006000,-0.000087,88.427751,0.006879,
1620,740,-2.139528,-13.308163,0.999996,0.000236,-0.006399,0.011573,-0.000385,0.011581,-0.006408,-88.774001,0.011603,
1710,1700,-1.524307,-3.064967,0.999995,0.000238,-0.004534,0.009900,0.000159,0.009901,-0.004536,89.368441,0.009913,
1480,770,-1.274119,-13.593205,0.999996,0.000306,-0.007522,0.012284,0.001449,0.012389,-0.007627,85.836954,0.012499,
670,460,2.238853,-15.768385,0.999997,0.000205,-0.005069,0.010125,-0.000178,0.010128,-0.005071,-89.329466,0.010128,
1000,1490,0.789545,-4.292988,0.999996,0.000222,-0.004774,0.009294,0.001603,0.009474,-0.004955,83.582506,0.009477,
1000,940,2.191550,-11.402218,0.999994,0.000276,-0.005931,0.014616,0.000113,0.014617,-0.005932,89.684857,0.014703,
830,1170,2.836724,-8.559922,0.999995,0.000263,-0.005289,0.011152,-0.001349,0.011262,-0.005399,-85.341369,0.011265,
1730,30,-0.064121,-20.076865,0.999997,0.000000,-0.000474,0.007865,-0.002919,0.008785,-0.001394,-72.500099,0.009443,
1390,1200,-1.022481,-6.713733,0.999993,0.000294,-0.007065,0.011134,-0.003610,0.011824,-0.007755,-79.179793,0.012014,
1820,1380,-3.043291,-6.685350,0.999997,0.000199,-0.005118,0.010166,0.000356,0.010174,-0.005126,88.664758,0.010175,
790,1570,1.700032,-4.259296,0.999995,0.000252,-0.005084,0.010182,0.000352,0.010190,-0.005092,88.680953,0.010190,
820,530,1.654729,-15.536224,0.999996,0.000222,-0.005298,0.010295,-0.000457,0.010308,-0.005311,-88.322152,0.010310,
1270,350,-0.080926,-17.976462,0.999998,0.000170,-0.002077,0.007059,0.000148,0.007061,-0.002079,89.074841,0.007258,
1240,2000,-0.002164,-0.212355,0.999998,0.000155,-0.000263,0.006033,0.000004,0.006033,-0.000263,89.967246,0.006819,
1750,820,-3.203022,-12.140360,0.999994,0.000279,-0.005174,0.010351,-0.001033,0.010420,-0.005243,-86.208374,0.010420,
810,1160,2.974364,-8.690920,0.999996,0.000246,-0.005039,0.010809,-0.001296,0.010914,-0.005145,-85.355665,0.010920,
1740,660,-2.567004,-13.852408,0.999995,0.000271,-0.005535,0.010555,-0.000331,0.010562,-0.005542,-88.820944,0.010566,
1320,750,-0.229474,-15.194027,0.999996,0.000257,-0.003821,0.005896,0.003697,0.007142,-0.005068,71.363173,0.007348,
1530,890,-2.274971,-11.758504,0.999994,0.000299,-0.006205,0.012751,-0.001275,0.012836,-0.006291,-86.170694,0.012837,
1440,1980,-0.081306,-0.354200,0.999998,0.000173,-0.000484,0.006525,0.000656,0.006586,-0.000545,84.694787,0.007310,
1310,660,-0.194712,-15.791554,0.999998,0.000176,-0.003017,0.006183,0.002054,0.006621,-0.003455,77.966769,0.006623,
620,150,1.221041,-18.745804,0.999997,0.000230,-0.004907,0.010377,0.001002,0.010442,-0.004972,86.263629,0.010446,
1490,520,-0.868147,-16.179043,0.999997,0.000236,-0.004597,0.009286,0.001225,0.009394,-0.004705,84.995367,0.009394,
890,610,1.454798,-14.948506,0.999995,0.000270,-0.005857,0.010555,-0.000861,0.010600,-0.005903,-87.004233,0.010623,
1110,790,0.444822,-14.589686,0.999994,0.000313,-0.005740,0.008078,-0.004518,0.009425,-0.007086,-73.408824,0.009815,
620,1000,4.042329,-10.325255,0.999997,0.000198,-0.004232,0.008887,0.000256,0.008892,-0.004237,88.881341,0.008895,
1870,320,-2.182782,-16.915436,0.999997,0.000198,-0.004837,0.009923,0.000065,0.009923,-0.004837,89.745801,0.009924,
560,1720,2.395464,-3.501749,0.999912,0.000000,-0.004384,0.009031,-0.000301,0.009038,-0.004390,-88.716460,0.009039,
1570,1750,-0.814258,-2.237656,0.999997,0.000205,-0.003486,0.008861,0.000182,0.008864,-0.003488,89.156892,0.008931,
890,1040,2.943009,-9.941044,0.999997,0.000235,-0.003624,0.010923,-0.000318,0.010930,-0.003631,-88.750155,0.011133,
710,1680,1.794909,-3.397706,0.999996,0.000252,-0.004894,0.010109,0.000066,0.010109,-0.004895,89.747816,0.010111,
750,670,2.448994,-13.820625,0.999995,0.000300,-0.005681,0.010681,0.000311,0.010687,-0.005687,88.912047,0.010694,
640,1290,3.375646,-7.600072,0.999997,0.000247,-0.004968,0.009901,-0.000617,0.009926,-0.004994,-87.629060,0.009926,
1350,1390,-0.331370,-4.599945,0.999995,0.000250,-0.003893,0.007365,-0.002684,0.007972,-0.004500,-77.251168,0.007994,
1150,240,0.117441,-18.740637,0.999998,0.000185,-0.001510,0.006929,0.000066,0.006929,-0.001511,89.551686,0.007287,
1650,1500,-1.752547,-4.909223,0.999996,0.000233,-0.005458,0.010445,-0.000411,0.010456,-0.005469,-88.521815,0.010460,
740,1110,3.446478,-9.263670,0.999996,0.000223,-0.004510,0.009983,-0.000855,0.010033,-0.004561,-86.635076,0.010047,
1680,1790,-1.105575,-2.104836,0.999997,0.000219,-0.004128,0.009488,0.000601,0.009515,-0.004155,87.475844,0.009540,
1300,1610,-0.165715,-2.879387,0.999998,0.000184,-0.002560,0.007171,-0.000434,0.007190,-0.002579,-87.453224,0.007285,
1610,280,-0.893985,-18.060829,0.999997,0.000201,-0.003520,0.009077,-0.000468,0.009095,-0.003537,-87.874005,0.009169,
1220,110,0.007398,-19.609154,0.999998,0.000168,-0.000612,0.006292,-0.000005,0.006292,-0.000612,-89.959813,0.006939,
1060,40,0.021862,-20.032000,0.999998,0.000176,-0.000246,0.006148,0.000455,0.006180,-0.000279,85.953268,0.006981,
1140,1480,0.244370,-3.851162,0.999997,0.000204,-0.002995,0.006960,0.001305,0.007128,-0.003163,82.652648,0.007143,
830,1150,2.911138,-8.778688,0.999996,0.000250,-0.004992,0.010965,-0.001367,0.011081,-0.005109,-85.138224,0.011092,
980,1490,0.888737,-4.380359,0.999996,0.000240,-0.004938,0.009558,0.001493,0.009710,-0.005090,84.178573,0.009714,
1170,1740,0.117433,-1.942689,0.999998,0.000175,-0.001845,0.007092,0.000016,0.007092,-0.001845,89.898148,0.007359,
790,1330,2.414099,-6.833656,0.999994,0.000302,-0.006008,0.011099,-0.000560,0.011117,-0.006026,-88.125876,0.011130,
1100,1230,0.640008,-5.998234,0.999992,0.000312,-0.006414,0.009018,0.004409,0.010189,-0.007585,75.128838,0.010587,
1800,480,-2.333683,-15.540609,0.999995,0.000263,-0.005097,0.010231,0.000157,0.010232,-0.005098,89.411799,0.010232,
1890,600,-3.148315,-14.027995,0.999995,0.000246,-0.005044,0.010169,-0.000030,0.010169,-0.005045,-89.886316,0.010169,
1720,1130,-3.387851,-9.060942,0.999994,0.000273,-0.004605,0.009954,0.000856,0.010005,-0.004656,86.646423,0.010013,
610,1940,1.011188,-1.092432,0.999995,0.000258,-0.004790,0.010661,-0.001619,0.010829,-0.004958,-84.081445,0.010842,
1770,60,-0.298730,-19.820920,0.999994,0.000321,-0.001483,0.008857,-0.003435,0.009894,-0.002520,-73.198409,0.010283,
1040,1680,0.469353,-2.553278,0.999996,0.000233,-0.003036,0.008135,0.000446,0.008152,-0.003054,87.714876,0.008237,
1740,640,-2.499793,-14.063424,0.999994,0.000277,-0.005506,0.010527,-0.000209,0.010530,-0.005508,-89.253265,0.010534,
1820,1800,-1.685101,-2.398677,0.999997,0.000250,-0.004739,0.010186,0.000451,0.010199,-0.004752,88.270831,0.010207,
1420,280,-0.353510,-18.360414,0.999997,0.000220,-0.002406,0.007634,0.000018,0.007634,-0.002406,89.897466,0.007806,
710,1530,2.221005,-4.933423,0.999996,0.000248,-0.005215,0.010291,0.000130,0.010292,-0.005216,89.518651,0.010292,
1620,720,-2.065556,-13.543063,0.999995,0.000266,-0.006362,0.011478,-0.000196,0.011480,-0.006364,-89.370265,0.011503,
560,1710,2.417211,-3.589111,0.999881,0.000000,-0.005170,0.009618,-0.000773,0.009659,-0.005210,-87.016410,0.009669,
1440,1960,-0.108017,-0.484744,0.999998,0.000171,-0.000649,0.006612,0.000636,0.006668,-0.000704,85.028427,0.007327,
990,620,0.900231,-15.290041,0.999996,0.000241,-0.005415,0.009849,-0.001791,0.010057,-0.005622,-83.396518,0.010080,
1640,550,-1.686030,-15.337269,0.999996,0.000263,-0.005404,0.010386,0.000464,0.010400,-0.005418,88.316897,0.010403,
1130,820,0.446579,-14.626866,0.999994,0.000301,-0.005123,0.006458,-0.004299,0.007879,-0.006544,-71.705049,0.008434,
1820,890,-3.765939,-11.349152,0.999996,0.000239,-0.004573,0.009337,-0.000583,0.009361,-0.004597,-87.605398,0.009361,
580,900,4.060919,-11.165018,0.999997,0.000219,-0.004186,0.008682,0.000201,0.008685,-0.004189,89.104599,0.008687,
870,1040,3.018518,-9.944831,0.999997,0.000218,-0.003732,0.010680,-0.000294,0.010686,-0.003738,-88.832740,0.010845,
960,1980,0.115207,-0.364540,0.999998,0.000162,-0.000743,0.006783,-0.000916,0.006892,-0.000853,-83.162208,0.007515,
1600,1970,-0.223973,-0.464925,0.999998,0.000169,-0.001122,0.007304,0.001504,0.007565,-0.001383,80.176779,0.008056,
890,590,1.410205,-15.159848,0.999995,0.000286,-0.005692,0.010453,-0.000863,0.010499,-0.005738,-86.950397,0.010514,
1570,1730,-0.859582,-2.419858,0.999997,0.000205,-0.003705,0.009054,0.000017,0.009054,-0.003705,89.923201,0.009103,
1110,770,0.402796,-14.752884,0.999995,0.000297,-0.005353,0.007850,-0.004282,0.009117,-0.006620,-73.516405,0.009423,
680,1570,2.260219,-4.616380,0.999996,0.000241,-0.005130,0.010212,0.000168,0.010214,-0.005131,89.370848,0.010214,
1500,1650,-0.762509,-2.973861,0.999996,0.000244,-0.003744,0.008733,-0.000543,0.008757,-0.003768,-87.515144,0.008785,
1540,670,-1.393820,-14.433298,0.999994,0.000296,-0.006407,0.011190,0.001028,0.011250,-0.006467,86.666939,0.011292,
1720,2020,-0.092305,-0.122803,0.999997,0.000000,0.000091,0.007705,0.002776,0.008609,-0.000814,71.952982,0.009506,
920,700,1.493659,-14.079281,0.999994,0.000277,-0.006698,0.011484,-0.000827,0.011521,-0.006735,-87.399652,0.011576,
790,480,1.687272,-15.950950,0.999996,0.000235,-0.005081,0.010130,-0.000337,0.010137,-0.005088,-88.732481,0.010137,
1130,240,0.150672,-18.726907,0.999998,0.000182,-0.001663,0.007001,0.000011,0.007001,-0.001663,89.924300,0.007316,
800,530,1.760700,-15.470517,0.999995,0.000251,-0.005288,0.010352,-0.000377,0.010361,-0.005298,-88.619134,0.010362,
1350,1590,-0.309884,-3.109587,0.999997,0.000199,-0.002807,0.007459,-0.000740,0.007512,-0.002860,-85.896059,0.007583,
1710,1260,-2.896291,-7.688442,0.999996,0.000232,-0.005520,0.010753,0.000995,0.010813,-0.005581,86.514766,0.010815,
1040,1230,1.081402,-6.767305,0.999991,0.000335,-0.007811,0.012329,0.002546,0.012645,-0.008128,82.906421,0.012816,
1470,1860,-0.314545,-1.202981,0.999998,0.000182,-0.001589,0.007466,0.000611,0.007507,-0.001630,86.156523,0.007897,
1360,1550,-0.349929,-3.429057,0.999996,0.000230,-0.003227,0.007644,-0.001164,0.007768,-0.003351,-83.957079,0.007792,
830,1130,2.988718,-9.000150,0.999997,0.000223,-0.004707,0.010818,-0.001299,0.010926,-0.004815,-85.248309,0.010951,
800,310,1.183100,-17.665694,0.999997,0.000235,-0.004317,0.009573,0.000238,0.009577,-0.004321,89.020045,0.009593,
1140,1460,0.242189,-3.989045,0.999997,0.000222,-0.003043,0.006863,0.001460,0.007074,-0.003254,81.787025,0.007081,
1800,460,-2.274863,-15.745185,0.999996,0.000249,-0.005052,0.010158,0.000162,0.010160,-0.005054,89.389784,0.010160,
1750,620,-2.489418,-14.248345,0.999995,0.000253,-0.005407,0.010506,-0.000125,0.010507,-0.005408,-89.550745,0.010508,
1490,560,-0.917450,-15.798231,0.999997,0.000210,-0.004908,0.009578,0.001386,0.009709,-0.005039,84.582558,0.009712,
1440,1940,-0.142619,-0.620785,0.999998,0.000194,-0.000861,0.006822,0.000658,0.006878,-0.000917,85.139238,0.007469,
990,680,0.989327,-14.673433,0.999996,0.000205,-0.006233,0.010685,-0.001994,0.010916,-0.006464,-83.368229,0.010978,
1360,1610,-0.330900,-2.974443,0.999997,0.000216,-0.002797,0.007577,-0.000632,0.007615,-0.002835,-86.525014,0.007698,
750,1110,3.401592,-9.260124,0.999997,0.000220,-0.004494,0.010048,-0.000877,0.010101,-0.004546,-86.559280,0.010118,
1050,40,0.025944,-20.031614,0.999998,0.000196,-0.000301,0.006161,0.000459,0.006194,-0.000334,85.954017,0.006967,
1420,260,-0.326444,-18.512079,0.999997,0.000226,-0.002224,0.007488,-0.000052,0.007489,-0.002224,-89.694241,0.007692,
1150,1740,0.154956,-1.950689,0.999998,0.000187,-0.002003,0.007154,0.000096,0.007155,-0.002004,89.400656,0.007382,
770,1160,3.172565,-8.731152,0.999996,0.000233,-0.004891,0.010498,-0.001232,0.010596,-0.004989,-85.453314,0.010602,
1620,700,-1.996260,-13.770209,0.999995,0.000287,-0.006297,0.011364,-0.000030,0.011364,-0.006297,-89.902708,0.011386,
790,1290,2.566392,-7.280925,0.999995,0.000253,-0.005959,0.011124,-0.000847,0.011166,-0.006001,-87.169625,0.011176,
1820,1820,-1.595033,-2.192467,0.999996,0.000261,-0.004695,0.010149,0.000573,0.010171,-0.004717,87.793658,0.010180,
560,1810,2.041270,-2.646860,0.999995,0.000000,-0.004750,0.009572,-0.000017,0.009572,-0.004750,-89.931079,0.009572,
720,1110,3.536967,-9.272404,0.999996,0.000225,-0.004555,0.009881,-0.000814,0.009927,-0.004601,-86.784815,0.009936,
1450,680,-0.847316,-14.814281,0.999993,0.000317,-0.006036,0.010225,0.002364,0.010562,-0.006372,81.894746,0.010637,
1790,1460,-2.622966,-5.772514,0.999995,0.000273,-0.005223,0.010314,0.000083,0.010315,-0.005224,89.694757,0.010315,
1740,620,-2.436940,-14.278850,0.999995,0.000251,-0.005460,0.010527,-0.000135,0.010528,-0.005461,-89.514717,0.010530,
1570,1710,-0.905765,-2.600274,0.999997,0.000191,-0.003946,0.009054,-0.000104,0.009055,-0.003947,-89.543647,0.009080,
570,1940,1.197181,-1.286859,0.999982,0.000529,-0.004342,0.010975,-0.001741,0.011170,-0.004537,-83.595608,0.011235,
830,1040,3.170190,-9.950124,0.999996,0.000244,-0.003912,0.010313,-0.000275,0.010318,-0.003918,-88.893793,0.010418,
1110,750,0.371205,-14.907190,0.999994,0.000312,-0.005036,0.007741,-0.003979,0.008879,-0.006174,-74.041036,0.009102,
950,2000,0.075464,-0.232668,0.999998,0.000175,-0.000486,0.006557,-0.000924,0.006676,-0.000605,-82.649139,0.007385,
1720,30,-0.063262,-20.075827,0.999998,0.000000,-0.000008,0.007748,-0.002926,0.008728,-0.000988,-71.484510,0.009559,
1310,840,-0.450053,-14.836608,0.999983,0.000451,-0.004432,0.004141,0.002470,0.004802,-0.005092,75.025622,0.005720,
1770,50,-0.231021,-19.905425,0.999998,0.000186,-0.001039,0.008384,-0.003344,0.009450,-0.002105,-72.318507,0.009922,
630,60,0.419967,-19.751690,0.999993,0.000309,-0.003971,0.009898,0.002853,0.010462,-0.004535,78.817876,0.010493,
890,1010,2.939624,-10.274638,0.999997,0.000225,-0.003648,0.010915,0.000383,0.010925,-0.003658,88.492842,0.011122,
1480,1650,-0.687276,-2.921787,0.999995,0.000272,-0.003715,0.008609,-0.000624,0.008641,-0.003747,-87.106981,0.008666,
1580,1490,-1.394136,-4.764592,0.999993,0.000315,-0.005509,0.010330,-0.000798,0.010371,-0.005549,-87.122402,0.010379,
760,150,0.690002,-19.092574,0.999997,0.000201,-0.002620,0.008984,0.001962,0.009307,-0.002943,80.656557,0.009514,
1370,1630,-0.348716,-2.838055,0.999997,0.000232,-0.002812,0.007627,-0.000606,0.007662,-0.002847,-86.688629,0.007746,
1550,360,-0.863984,-17.467635,0.999997,0.000216,-0.003527,0.008959,0.000045,0.008959,-0.003528,89.795145,0.009026,
1690,1260,-2.784444,-7.648837,0.999997,0.000204,-0.005664,0.010981,0.001034,0.011045,-0.005728,86.458495,0.011047,
1040,1660,0.490754,-2.713363,0.999995,0.000252,-0.003119,0.008059,0.000555,0.008086,-0.003146,87.165004,0.008153,
880,610,1.511442,-14.909335,0.999995,0.000250,-0.005809,0.010592,-0.000759,0.010627,-0.005844,-87.355425,0.010645,
1560,1830,-0.580080,-1.535279,0.999998,0.000186,-0.002478,0.008274,0.000744,0.008325,-0.002529,86.061360,0.008536,
710,1490,2.335904,-5.345716,0.999995,0.000256,-0.005309,0.010373,0.000063,0.010373,-0.005309,89.770166,0.010374,
1140,1440,0.240794,-4.121858,0.999997,0.000205,-0.003121,0.006766,0.001694,0.007048,-0.003404,80.542699,0.007050,
1800,440,-2.215940,-15.949368,0.999997,0.000229,-0.005009,0.010106,0.000155,0.010108,-0.005011,89.412184,0.010108,
1040,40,0.028656,-20.030824,0.999998,0.000179,-0.000269,0.006170,0.000484,0.006206,-0.000305,85.721710,0.006996,
1700,1210,-3.033054,-8.207544,0.999996,0.000230,-0.005280,0.010698,0.001214,0.010790,-0.005371,85.680444,0.010790,
1620,680,-1.928912,-13.999609,0.999994,0.000274,-0.006230,0.011211,0.000100,0.011211,-0.006230,89.671579,0.011234,
800,290,1.118940,-17.856426,0.999998,0.000185,-0.004179,0.009495,0.000409,0.009507,-0.004191,88.290137,0.009529,
960,1960,0.152709,-0.499979,0.999998,0.000192,-0.001010,0.006906,-0.000896,0.007006,-0.001110,-83.624306,0.007531,
830,1110,3.045710,-9.214243,0.999997,0.000210,-0.004450,0.010635,-0.001036,0.010706,-0.004521,-86.089723,0.010749,
1310,360,-0.167746,-17.887352,0.999997,0.000184,-0.002243,0.007215,0.000202,0.007219,-0.002247,88.774259,0.007389,
720,970,3.585600,-10.637610,0.999995,0.000269,-0.004380,0.009721,0.000498,0.009738,-0.004398,87.980396,0.009754,
1440,1920,-0.173420,-0.756280,0.999997,0.000170,-0.001046,0.006888,0.000575,0.006929,-0.001087,85.875064,0.007454,
1820,1840,-1.494772,-1.987125,0.999996,0.000269,-0.004643,0.010247,0.000776,0.010288,-0.004684,87.023275,0.010302,
730,460,1.937728,-15.962212,0.999996,0.000240,-0.005064,0.010132,-0.000228,0.010136,-0.005067,-89.142466,0.010136,
750,1160,3.269322,-8.750209,0.999996,0.000253,-0.004871,0.010352,-0.001185,0.010444,-0.004963,-85.575340,0.010448,
750,1090,3.446444,-9.460578,0.999996,0.000238,-0.004383,0.009983,-0.000712,0.010019,-0.004418,-87.168676,0.010042,
600,750,3.519210,-12.605606,0.999996,0.000246,-0.004887,0.009773,0.000365,0.009782,-0.004896,88.575326,0.009782,
560,930,4.206272,-10.868823,0.999976,0.000000,-0.003852,0.008387,0.000115,0.008388,-0.003853,89.461204,0.008397,
1470,1460,-0.857757,-4.613380,0.999998,0.000212,-0.005126,0.009621,-0.001699,0.009814,-0.005320,-83.512914,0.009826,
790,1270,2.648966,-7.504342,0.999995,0.000268,-0.005872,0.011139,-0.000986,0.011196,-0.005929,-86.693938,0.011203,
1740,600,-2.371475,-14.487832,0.999995,0.000260,-0.005450,0.010485,-0.000054,0.010485,-0.005451,-89.804118,0.010488,
1360,1530,-0.355646,-3.583261,0.999995,0.000262,-0.003368,0.007634,-0.001353,0.007798,-0.003532,-83.089871,0.007809,
1550,700,-1.540288,-14.045336,0.999993,0.000344,-0.006686,0.011498,0.000739,0.011527,-0.006716,87.677148,0.011580,
1340,1610,-0.276284,-2.942938,0.999998,0.000182,-0.002731,0.007415,-0.000634,0.007454,-0.002771,-86.440004,0.007535,
570,1930,1.278350,-1.396401,0.999949,0.000863,-0.004655,0.010630,-0.001832,0.010847,-0.004871,-83.260460,0.010865,
950,920,2.350240,-11.432310,0.999996,0.000256,-0.005676,0.012984,0.001281,0.013072,-0.005764,86.089797,0.013102,
920,1050,2.826107,-9.826007,0.999998,0.000196,-0.003689,0.011504,-0.000504,0.011521,-0.003706,-88.102373,0.011763,
1570,1690,-0.951067,-2.782773,0.999996,0.000216,-0.004074,0.009137,-0.000173,0.009139,-0.004076,-89.249423,0.009157,
940,2000,0.079527,-0.234069,0.999998,0.000154,-0.000401,0.006616,-0.000988,0.006753,-0.000538,-82.134074,0.007507,
1110,730,0.358469,-15.054466,0.999995,0.000295,-0.004755,0.007563,-0.003724,0.008602,-0.005793,-74.420483,0.008772,
650,1640,2.209547,-3.999797,0.999997,0.000233,-0.004995,0.010100,0.000135,0.010101,-0.004996,89.489339,0.010101,
920,680,1.437847,-14.303935,0.999995,0.000280,-0.006501,0.011288,-0.000967,0.011341,-0.006553,-86.898950,0.011386,
1770,1080,-3.708557,-9.578691,0.999997,0.000215,-0.004404,0.009482,0.000326,0.009489,-0.004412,88.656874,0.009497,
1610,200,-0.643331,-18.768860,0.999996,0.000251,-0.002694,0.008578,-0.001109,0.008687,-0.002802,-84.432019,0.008867,
1770,40,-0.168117,-19.984975,0.999997,0.000221,-0.000711,0.008091,-0.003266,0.009170,-0.001791,-71.709180,0.009721,
1360,1220,-0.685961,-6.032626,0.999992,0.000368,-0.006175,0.008811,-0.004452,0.010034,-0.007398,-74.641409,0.010404,
1550,340,-0.822644,-17.647626,0.999997,0.000206,-0.003394,0.008943,-0.000047,0.008943,-0.003394,-89.782077,0.009029,
890,1030,2.956441,-10.052148,0.999996,0.000258,-0.003609,0.010929,-0.000080,0.010929,-0.003610,-89.683922,0.011137,
1800,420,-2.157752,-16.150740,0.999997,0.000204,-0.004987,0.010110,0.000164,0.010112,-0.004989,89.376392,0.010112,
1540,1830,-0.532679,-1.510959,0.999998,0.000217,-0.002269,0.008130,0.000677,0.008174,-0.002313,86.291981,0.008427,
1490,540,-0.890994,-15.988919,0.999996,0.000257,-0.004783,0.009430,0.001331,0.009553,-0.004906,84.696785,0.009554,
1660,510,-1.696225,-15.686527,0.999994,0.000276,-0.005187,0.010315,0.000385,0.010324,-0.005197,88.578417,0.010324,
1710,2020,-0.093868,-0.125941,0.999996,0.000000,0.000173,0.007573,0.002606,0.008398,-0.000653,72.420830,0.009343,
1250,1740,-0.036251,-1.926661,0.999998,0.000146,-0.001962,0.007019,-0.000120,0.007020,-0.001963,-89.233818,0.007244,
830,1090,3.098182,-9.428135,0.999997,0.000204,-0.004235,0.010579,-0.000970,0.010642,-0.004298,-86.267612,0.010707,
1040,170,0.206957,-19.165352,0.999997,0.000214,-0.001436,0.006989,0.000418,0.007009,-0.001457,87.168096,0.007397,
1140,1420,0.237913,-4.254542,0.999997,0.000231,-0.003211,0.006686,0.001984,0.007069,-0.003593,79.078096,0.007069,
1740,1210,-3.241791,-8.263858,0.999995,0.000276,-0.005076,0.010255,0.001059,0.010328,-0.005149,86.065338,0.010328,
1770,1520,-2.336619,-5.089549,0.999996,0.000223,-0.005218,0.010294,-0.000081,0.010295,-0.005219,-89.700700,0.010295,
1160,1610,0.174941,-2.882107,0.999998,0.000170,-0.002608,0.007197,0.000487,0.007221,-0.002632,87.165173,0.007309,
1040,1640,0.508205,-2.876402,0.999996,0.000211,-0.003178,0.008094,0.000661,0.008133,-0.003217,86.655170,0.008192,
790,1250,2.728560,-7.726661,0.999996,0.000256,-0.005744,0.011112,-0.001074,0.011180,-0.005813,-86.369629,0.011183,
710,1470,2.395479,-5.556353,0.999995,0.000252,-0.005373,0.010436,-0.000004,0.010436,-0.005373,-89.985296,0.010438,
1550,680,-1.484728,-14.273487,0.999995,0.000306,-0.006468,0.011313,0.000842,0.011353,-0.006508,87.295600,0.011393,
560,1440,3.251151,-6.326005,0.999949,0.000000,-0.004340,0.010258,-0.000010,0.010258,-0.004340,-89.961427,0.010298,
1440,1900,-0.205967,-0.899184,0.999997,0.000198,-0.001274,0.007044,0.000581,0.007085,-0.001315,86.026632,0.007537,
1820,1860,-1.389073,-1.779156,0.999995,0.000260,-0.004560,0.010263,0.000961,0.010325,-0.004622,86.305743,0.010344,
660,1990,0.384581,-0.399541,0.999995,0.000287,-0.001371,0.009567,-0.003968,0.010855,-0.002658,-72.019838,0.011316,
1030,40,0.031878,-20.028908,0.999998,0.000165,-0.000155,0.006214,0.000537,0.006259,-0.000200,85.212146,0.007114,
1110,710,0.348714,-15.209071,0.999995,0.000289,-0.004518,0.007473,-0.003426,0.008382,-0.005428,-75.128402,0.008503,
1570,1670,-0.995958,-2.970593,0.999997,0.000193,-0.004172,0.009257,-0.000279,0.009263,-0.004178,-88.810048,0.009278,
1450,1460,-0.754756,-4.517000,0.999995,0.000271,-0.004966,0.009319,-0.001875,0.009561,-0.005208,-82.644845,0.009573,
750,1070,3.470915,-9.661130,0.999996,0.000234,-0.004295,0.009865,-0.000396,0.009876,-0.004306,-88.398954,0.009903,
1740,580,-2.310955,-14.695444,0.999994,0.000277,-0.005397,0.010406,0.000028,0.010406,-0.005397,89.898480,0.010408,
1700,870,-3.122130,-11.686318,0.999996,0.000233,-0.005056,0.010480,-0.001162,0.010566,-0.005142,-85.746516,0.010567,
1800,1010,-3.866113,-10.242655,0.999998,0.000171,-0.004320,0.009316,-0.000282,0.009322,-0.004326,-88.816805,0.009330,
580,80,0.836192,-19.326433,0.999996,0.000235,-0.004783,0.012553,0.002935,0.013036,-0.005266,80.647262,0.013116,
1420,240,-0.300269,-18.661875,0.999997,0.000222,-0.002087,0.007479,-0.000167,0.007482,-0.002090,-89.000318,0.007721,
1760,1130,-3.570133,-9.087151,0.999996,0.000252,-0.004599,0.009716,0.000771,0.009757,-0.004640,86.924584,0.009761,
1660,410,-1.448245,-16.694374,0.999996,0.000261,-0.004699,0.009886,0.000194,0.009889,-0.004702,89.237357,0.009893,
780,370,1.448918,-17.021911,0.999996,0.000254,-0.004562,0.009746,-0.000026,0.009746,-0.004562,-89.895320,0.009752,
960,1940,0.202875,-0.644484,0.999997,0.000181,-0.001257,0.007107,-0.000916,0.007206,-0.001356,-83.822527,0.007659,
1620,660,-1.869217,-14.220957,0.999996,0.000244,-0.006166,0.011072,0.000227,0.011075,-0.006169,89.244855,0.011099,
1020,930,1.996240,-11.712189,0.999993,0.000285,-0.006337,0.014884,-0.001050,0.014936,-0.006388,-87.174419,0.014988,
630,840,3.676272,-11.806832,0.999997,0.000202,-0.004707,0.009522,0.000666,0.009553,-0.004739,87.328084,0.009553,
890,1800,0.696651,-1.807365,0.999997,0.000202,-0.003086,0.008585,-0.000527,0.008609,-0.003110,-87.417607,0.008719,
1700,1780,-1.222287,-2.248511,0.999997,0.000204,-0.004096,0.009699,0.000632,0.009728,-0.004124,87.384251,0.009765,
1670,1030,-3.324242,-10.054885,0.999996,0.000223,-0.004065,0.010095,0.000053,0.010095,-0.004066,89.787465,0.010159,
650,1620,2.268367,-4.204442,0.999996,0.000245,-0.005048,0.010125,0.000159,0.010127,-0.005050,89.400044,0.010127,
1360,1260,-0.500361,-5.691005,0.999993,0.000326,-0.006048,0.008670,-0.004505,0.009939,-0.007318,-74.262553,0.010302,
920,660,1.385749,-14.531500,0.999994,0.000277,-0.006295,0.011099,-0.001046,0.011161,-0.006358,-86.572005,0.011197,
1200,1430,0.073632,-4.037311,0.999998,0.000167,-0.002423,0.005744,0.000694,0.005803,-0.002481,85.178094,0.005823,
1540,1510,-1.145114,-4.408674,0.999997,0.000227,-0.005164,0.009985,-0.001050,0.010058,-0.005236,-86.052231,0.010061,
1660,490,-1.645454,-15.891354,0.999994,0.000273,-0.005120,0.010149,0.000386,0.010158,-0.005130,88.552731,0.010159,
1490,620,-0.994606,-15.207305,0.999995,0.000244,-0.005629,0.010089,0.001680,0.010267,-0.005807,83.965117,0.010296,
1310,2000,-0.015833,-0.214048,0.999998,0.000185,-0.000210,0.006075,0.000198,0.006081,-0.000216,88.200115,0.006901,
1540,1810,-0.583398,-1.678310,0.999997,0.000221,-0.002503,0.008305,0.000606,0.008338,-0.002537,86.802755,0.008549,
1290,240,-0.084100,-18.745416,0.999998,0.000145,-0.001378,0.006871,-0.000102,0.006872,-0.001379,-89.290176,0.007271,
890,1050,2.933366,-9.831638,0.999997,0.000230,-0.003685,0.010917,-0.000463,0.010932,-0.003699,-88.185576,0.011120,
1570,1200,-2.333454,-8.080616,0.999996,0.000264,-0.006316,0.012225,0.001206,0.012303,-0.006394,86.295273,0.012306,
650,50,0.268414,-19.894307,0.999996,0.000240,-0.001739,0.008905,0.003612,0.010015,-0.002849,72.918734,0.010321,
1840,510,-2.623896,-15.104856,0.999994,0.000287,-0.005082,0.010146,0.000095,0.010146,-0.005083,89.642116,0.010146,
830,1070,3.140880,-9.639625,0.999996,0.000210,-0.004079,0.010395,-0.000617,0.010421,-0.004105,-87.561442,0.010499,
1110,690,0.343020,-15.364457,0.999995,0.000269,-0.004270,0.007448,-0.003101,0.008218,-0.005040,-76.056651,0.008288,
1000,170,0.261402,-19.141573,0.999998,0.000212,-0.001306,0.007237,0.000637,0.007285,-0.001353,85.759115,0.007749,
1020,40,0.032935,-20.028626,0.999998,0.000166,-0.000104,0.006245,0.000607,0.006303,-0.000162,84.586941,0.007186,
1140,1400,0.233206,-4.387850,0.999996,0.000254,-0.003308,0.006586,0.002262,0.007078,-0.003800,77.713625,0.007085,
580,1100,4.171964,-9.472556,0.999997,0.000204,-0.003989,0.008311,-0.000046,0.008312,-0.003989,-89.785186,0.008314,
1800,400,-2.100322,-16.356189,0.999997,0.000215,-0.004958,0.010099,0.000131,0.010100,-0.004959,89.501271,0.010101,
670,1250,3.367745,-7.938994,0.999996,0.000247,-0.005019,0.010062,-0.000881,0.010113,-0.005070,-86.669093,0.010113,
790,1230,2.808713,-7.948991,0.999995,0.000255,-0.005584,0.010958,-0.001162,0.011040,-0.005665,-86.002699,0.011041,
1490,230,-0.423518,-18.669972,0.999997,0.000216,-0.002296,0.007816,-0.000439,0.007835,-0.002315,-87.518514,0.008051,
1040,1620,0.525008,-3.039257,0.999997,0.000214,-0.003252,0.008122,0.000727,0.008168,-0.003298,86.358320,0.008218,
660,1970,0.564630,-0.604781,0.999996,0.000246,-0.002127,0.009979,-0.003733,0.011037,-0.003185,-74.169911,0.011361,
1300,720,-0.155898,-15.501158,0.999996,0.000242,-0.002992,0.005255,0.002715,0.006068,-0.003805,73.320262,0.006133,
710,1450,2.457756,-5.766236,0.999995,0.000258,-0.005393,0.010427,-0.000073,0.010428,-0.005393,-89.735768,0.010430,
1820,1130,-3.842696,-9.136367,0.999996,0.000243,-0.004474,0.009278,0.000622,0.009306,-0.004502,87.417543,0.009307,
1230,1740,0.003101,-1.922654,0.999998,0.000191,-0.001976,0.007013,0.000015,0.007013,-0.001976,89.906325,0.007233,
1420,220,-0.271113,-18.812277,0.999997,0.000224,-0.001934,0.007264,-0.000222,0.007269,-0.001939,-88.619936,0.007528,
560,1420,3.312282,-6.537141,0.999923,0.000000,-0.004329,0.009988,0.000123,0.009989,-0.004331,89.509471,0.010019,
920,1490,1.195728,-4.623605,0.999995,0.000258,-0.005339,0.010170,0.001043,0.010240,-0.005409,86.168596,0.010245,
620,1030,4.059581,-10.056585,0.999996,0.000249,-0.004238,0.008957,-0.000034,0.008957,-0.004238,-89.853641,0.008961,
1740,1000,-3.597865,-10.349286,0.999997,0.000205,-0.004327,0.009693,-0.000367,0.009702,-0.004336,-88.502891,0.009720,
1140,1610,0.229498,-2.913003,0.999998,0.000165,-0.002775,0.007324,0.000670,0.007368,-0.002819,86.223060,0.007435,
650,240,1.583271,-17.938436,0.999995,0.000277,-0.004664,0.010147,0.000658,0.010176,-0.004693,87.460928,0.010187,
1630,620,-1.811032,-14.625897,0.999996,0.000242,-0.005876,0.010773,0.000365,0.010781,-0.005884,88.746129,0.010796,
690,1680,1.890875,-3.462756,0.999996,0.000231,-0.004864,0.010098,0.000028,0.010098,-0.004864,89.893381,0.010101,
750,1050,3.487187,-9.857055,0.999996,0.000227,-0.004244,0.009817,-0.000352,0.009826,-0.004253,-88.565294,0.009856,
1750,860,-3.339775,-11.733188,0.999996,0.000231,-0.004951,0.010080,-0.001002,0.010147,-0.005017,-86.202397,0.010147,
1570,1650,-1.037006,-3.159292,0.999997,0.000198,-0.004260,0.009360,-0.000401,0.009371,-0.004272,-88.316210,0.009383,
1620,640,-1.808150,-14.444655,0.999996,0.000247,-0.006042,0.011006,0.000324,0.011012,-0.006048,88.913032,0.011030,
1470,1840,-0.355646,-1.356932,0.999997,0.000187,-0.001809,0.007553,0.000525,0.007582,-0.001838,86.802592,0.007910,
1470,880,-1.801144,-12.207124,0.999993,0.000336,-0.007342,0.013914,0.000100,0.013915,-0.007343,89.730151,0.013922,
1210,800,0.066064,-15.438925,0.999994,0.000288,-0.003188,0.002268,-0.001196,0.002519,-0.003438,-78.160619,0.003560,
580,690,3.410178,-13.137520,0.999994,0.000283,-0.005301,0.009714,0.000360,0.009722,-0.005309,88.625993,0.009736,
570,1360,3.499788,-7.107414,0.999289,0.003357,-0.006399,0.009876,-0.000169,0.009878,-0.006401,-89.403587,0.010021,
630,540,2.677224,-14.819587,0.999994,0.000275,-0.005111,0.010179,-0.000051,0.010179,-0.005111,-89.807805,0.010179,
1800,1130,-3.752637,-9.117983,0.999996,0.000254,-0.004525,0.009447,0.000674,0.009480,-0.004558,87.244459,0.009482,
1370,770,-0.497548,-14.571519,0.999994,0.000301,-0.005934,0.008884,0.004185,0.009984,-0.007034,75.270582,0.010259,
1750,1260,-3.111356,-7.757451,0.999996,0.000261,-0.005262,0.010336,0.000954,0.010394,-0.005320,86.511340,0.010395,
960,1920,0.242641,-0.784286,0.999998,0.000174,-0.001503,0.007183,-0.000809,0.007258,-0.001577,-84.726775,0.007635,
1830,370,-2.156345,-16.559273,0.999996,0.000258,-0.004918,0.010087,0.000070,0.010087,-0.004919,89.733404,0.010088,
1570,220,-0.590170,-18.655721,0.999996,0.000246,-0.002714,0.008322,-0.000751,0.008372,-0.002765,-86.125232,0.008532,
890,1070,2.906638,-9.614482,0.999997,0.000233,-0.003892,0.011098,-0.000812,0.011142,-0.003936,-86.907284,0.011301,
1700,1760,-1.297730,-2.448754,0.999997,0.000214,-0.004241,0.009768,0.000465,0.009784,-0.004257,88.102261,0.009811,
570,1100,4.214829,-9.483069,0.999947,0.000901,-0.003905,0.008120,-0.000004,0.008120,-0.003905,-89.982089,0.008122,
670,1230,3.438065,-8.140234,0.999995,0.000258,-0.004925,0.009878,-0.000850,0.009927,-0.004974,-86.725078,0.009927,
870,1800,0.764827,-1.844974,0.999997,0.000179,-0.003350,0.008722,-0.000527,0.008745,-0.003373,-87.503100,0.008821,
920,640,1.341770,-14.751618,0.999994,0.000281,-0.006099,0.010821,-0.001065,0.010888,-0.006166,-86.411266,0.010920,
1770,1500,-2.395655,-5.296931,0.999996,0.000229,-0.005255,0.010318,-0.000056,0.010318,-0.005255,-89.792260,0.010319,
1420,200,-0.246878,-18.953637,0.999998,0.000222,-0.001741,0.007181,-0.000343,0.007194,-0.001754,-87.798568,0.007502,
1270,240,-0.057715,-18.748680,0.999998,0.000140,-0.001441,0.006838,-0.000019,0.006838,-0.001441,-89.868970,0.007209,
1140,570,0.245313,-16.342372,0.999997,0.000230,-0.002975,0.007010,-0.001269,0.007169,-0.003134,-82.868997,0.007188,
1620,620,-1.754026,-14.662546,0.999995,0.000266,-0.005915,0.010787,0.000443,0.010799,-0.005927,88.481220,0.010816,
1040,1600,0.539187,-3.200568,0.999997,0.000200,-0.003326,0.008176,0.000844,0.008237,-0.003388,85.825539,0.008281,
900,1230,2.134540,-7.690080,0.999995,0.000240,-0.006758,0.012419,-0.000818,0.012454,-0.006793,-87.561856,0.012471,
1200,1460,0.076713,-3.861577,0.999998,0.000192,-0.002489,0.006126,0.000574,0.006164,-0.002527,86.203893,0.006197,
560,1150,4.151354,-9.077996,0.999987,0.000000,-0.003734,0.008534,-0.000127,0.008536,-0.003735,-89.408078,0.008558,
1750,1520,-2.232260,-5.026006,0.999995,0.000231,-0.005256,0.010317,-0.000134,0.010318,-0.005258,-89.505939,0.010319,
1740,1020,-3.616931,-10.153152,0.999997,0.000218,-0.004311,0.009711,-0.000176,0.009713,-0.004313,-89.281890,0.009733,
1270,330,-0.079116,-18.117890,0.999998,0.000186,-0.001993,0.007099,0.000088,0.007100,-0.001994,89.444016,0.007324,
1660,390,-1.396742,-16.893422,0.999996,0.000240,-0.004661,0.009845,0.000141,0.009846,-0.004663,89.444138,0.009851,
610,840,3.769573,-11.768060,0.999996,0.000249,-0.004641,0.009368,0.000541,0.009389,-0.004661,87.790532,0.009389,
1080,410,0.377141,-17.414562,0.999996,0.000229,-0.002895,0.007755,-0.000598,0.007789,-0.002929,-86.794769,0.007868,
1440,1880,-0.239301,-1.040745,0.999997,0.000197,-0.001415,0.007090,0.000473,0.007116,-0.001442,86.827118,0.007524,
1470,960,-2.358645,-11.064826,0.999993,0.000299,-0.005403,0.014364,-0.000378,0.014371,-0.005411,-88.903690,0.014517,
750,1030,3.503966,-10.054083,0.999996,0.000229,-0.004250,0.009876,-0.000051,0.009876,-0.004250,-89.793706,0.009908,
1000,590,0.816084,-15.627402,0.999998,0.000227,-0.005046,0.009478,-0.001771,0.009691,-0.005259,-83.146789,0.009703,
1110,670,0.341821,-15.510486,0.999995,0.000269,-0.004028,0.007444,-0.002768,0.008077,-0.004661,-77.121331,0.008109,
1070,1680,0.378367,-2.491707,0.999996,0.000209,-0.002754,0.007817,0.000407,0.007833,-0.002770,87.800033,0.007944,
1630,600,-1.759016,-14.841293,0.999994,0.000256,-0.005760,0.010656,0.000427,0.010667,-0.005771,88.510189,0.010679,
620,980,4.026514,-10.504063,0.999996,0.000223,-0.004230,0.008801,0.000133,0.008802,-0.004232,89.414136,0.008804,
1800,380,-2.039286,-16.558475,0.999997,0.000224,-0.004963,0.010111,0.000066,0.010111,-0.004963,89.749829,0.010111,
1730,860,-3.240979,-11.755628,0.999997,0.000244,-0.005029,0.010244,-0.001067,0.010318,-0.005103,-86.022546,0.010319,
1490,210,-0.380516,-18.826025,0.999997,0.000215,-0.002106,0.007653,-0.000523,0.007681,-0.002134,-86.940248,0.007929,
820,170,0.611461,-18.988921,0.999997,0.000184,-0.002419,0.008564,0.001470,0.008757,-0.002613,82.509134,0.008991,
1630,940,-3.019025,-10.999793,0.999997,0.000225,-0.004492,0.010667,-0.001111,0.010748,-0.004573,-85.829076,0.010788,
1300,700,-0.156727,-15.602665,0.999996,0.000229,-0.002902,0.005522,0.002382,0.006149,-0.003528,75.254366,0.006171,
590,1940,1.106621,-1.190110,0.999997,0.000204,-0.004657,0.010762,-0.001715,0.010950,-0.004846,-83.731113,0.010974,
1230,1260,0.006453,-4.671510,0.999992,0.000367,-0.003000,0.002075,0.000056,0.002075,-0.003000,89.369468,0.003073,
960,1900,0.292335,-0.934019,0.999998,0.000177,-0.001726,0.007404,-0.000794,0.007473,-0.001795,-85.067141,0.007802,
670,1210,3.501654,-8.335039,0.999995,0.000263,-0.004846,0.009772,-0.000858,0.009823,-0.004896,-86.653182,0.009823,
1370,750,-0.466190,-14.747057,0.999995,0.000292,-0.005622,0.008552,0.003971,0.009588,-0.006659,75.369011,0.009827,
1700,1740,-1.359588,-2.641730,0.999996,0.000249,-0.004343,0.009759,0.000264,0.009764,-0.004348,88.929315,0.009783,
1000,920,2.050371,-11.692368,0.999993,0.000308,-0.006465,0.014253,0.000115,0.014254,-0.006466,89.682476,0.014274,
1730,1260,-3.004835,-7.724256,0.999996,0.000253,-0.005357,0.010523,0.000975,0.010582,-0.005417,86.499301,0.010583,
1410,1800,-0.297661,-1.597734,0.999997,0.000197,-0.002135,0.007417,0.000067,0.007417,-0.002136,89.598634,0.007636,
600,1110,4.074327,-9.364055,0.999997,0.000212,-0.004255,0.008779,-0.000285,0.008786,-0.004262,-88.748632,0.008787,
1830,350,-2.090391,-16.762219,0.999996,0.000248,-0.004899,0.010061,0.000043,0.010061,-0.004899,89.834945,0.010062,
1280,530,-0.123201,-16.705728,0.999998,0.000171,-0.002603,0.006762,0.000512,0.006790,-0.002631,86.877880,0.006847,
890,1510,1.317175,-4.531612,0.999996,0.000236,-0.005246,0.010139,0.000831,0.010184,-0.005291,86.917236,0.010187,
1230,240,0.001948,-18.758005,0.999998,0.000158,-0.001498,0.006800,-0.000006,0.006800,-0.001498,-89.959860,0.007146,
920,620,1.296897,-14.967350,0.999994,0.000275,-0.005886,0.010551,-0.001082,0.010622,-0.005957,-86.251130,0.010648,
1240,1610,-0.020985,-2.842638,0.999997,0.000204,-0.002467,0.006995,-0.000158,0.006998,-0.002470,-89.044087,0.007098,
650,40,0.181965,-19.979179,0.999996,0.000259,-0.001460,0.008603,0.003691,0.009811,-0.002669,71.869017,0.010146,
1060,1550,0.500032,-3.559366,0.999996,0.000220,-0.003526,0.008116,0.001194,0.008237,-0.003647,84.202917,0.008255,
1040,1580,0.553365,-3.364408,0.999996,0.000223,-0.003481,0.008309,0.000987,0.008392,-0.003563,85.245404,0.008423,
970,40,0.039558,-20.026822,0.999998,0.000175,-0.000406,0.006381,0.000798,0.006474,-0.000498,83.386088,0.007205,
1490,600,-0.965908,-15.408031,0.999996,0.000230,-0.005344,0.009931,0.001582,0.010093,-0.005506,84.149728,0.010107,
1570,1870,-0.486753,-1.214661,0.999997,0.000223,-0.002293,0.008089,0.000951,0.008175,-0.002380,84.808991,0.008410,
560,1140,4.174276,-9.164142,0.999983,0.000000,-0.003679,0.008703,-0.000088,0.008703,-0.003679,-89.593683,0.008738,
1620,810,-2.431710,-12.490830,0.999994,0.000282,-0.006199,0.011691,-0.001013,0.011748,-0.006256,-86.769828,0.011757,
1740,1040,-3.610727,-9.958350,0.999996,0.000228,-0.004300,0.009724,0.000251,0.009728,-0.004305,88.975453,0.009749,
810,1640,1.428205,-3.494260,0.999995,0.000267,-0.004694,0.009873,0.000224,0.009877,-0.004697,89.119651,0.009881,
1320,790,-0.279235,-14.962834,0.999995,0.000263,-0.004348,0.005745,0.004150,0.007232,-0.005835,70.284544,0.007672,
1440,1860,-0.268974,-1.183200,0.999997,0.000195,-0.001595,0.007300,0.000447,0.007322,-0.001618,87.128981,0.007693,
1070,1660,0.395757,-2.647572,0.999997,0.000191,-0.002939,0.007803,0.000568,0.007833,-0.002969,86.980370,0.007909,
810,140,0.507097,-19.234785,0.999995,0.000281,-0.002283,0.008326,0.001647,0.008576,-0.002533,81.374740,0.008812,
1360,750,-0.411836,-14.843261,0.999994,0.000318,-0.005302,0.008062,0.003997,0.009166,-0.006406,74.555179,0.009405,
1800,360,-1.973246,-16.761218,0.999996,0.000217,-0.004964,0.010092,-0.000018,0.010092,-0.004964,-89.932431,0.010092,
830,1050,3.161479,-9.845183,0.999997,0.000216,-0.003940,0.010302,-0.000394,0.010313,-0.003950,-88.416770,0.010407,
750,1010,3.491729,-10.253877,0.999996,0.000239,-0.004254,0.009866,0.000322,0.009873,-0.004262,88.694819,0.009904,
1490,1000,-2.620001,-10.446848,0.999992,0.000379,-0.004170,0.013682,-0.000431,0.013692,-0.004180,-88.616495,0.014034,
1470,1820,-0.390277,-1.506944,0.999997,0.000188,-0.001979,0.007732,0.000450,0.007752,-0.002000,87.352633,0.008049,
1490,190,-0.341995,-18.978568,0.999998,0.000185,-0.001929,0.007527,-0.000601,0.007565,-0.001967,-86.377264,0.007851,
1050,760,0.754450,-14.248185,0.999996,0.000228,-0.006865,0.010700,-0.003275,0.011291,-0.007456,-79.773430,0.011483,
620,960,4.011909,-10.682679,0.999996,0.000217,-0.004285,0.008859,0.000197,0.008862,-0.004288,89.141360,0.008863,
790,1210,2.888082,-8.169858,0.999997,0.000234,-0.005413,0.010967,-0.001287,0.011068,-0.005513,-85.533568,0.011068,
1530,870,-2.154562,-12.022318,0.999994,0.000296,-0.006587,0.012845,-0.001058,0.012902,-0.006644,-86.892814,0.012904,
1110,650,0.343645,-15.658450,0.999995,0.000248,-0.003842,0.007434,-0.002487,0.007958,-0.004366,-78.097430,0.007971,
1370,730,-0.444196,-14.922926,0.999996,0.000266,-0.005247,0.008372,0.003707,0.009316,-0.006191,75.717896,0.009482,
1230,1340,0.002003,-4.442695,0.999996,0.000218,-0.001967,0.003931,0.000070,0.003932,-0.001967,89.322377,0.003932,
1590,1260,-2.171942,-7.407688,0.999995,0.000295,-0.006619,0.012062,0.000710,0.012089,-0.006646,87.827888,0.012109,
1870,770,-3.622888,-12.389561,0.999995,0.000259,-0.004790,0.009742,-0.000327,0.009750,-0.004797,-88.710040,0.009750,
840,530,1.548894,-15.605074,0.999995,0.000259,-0.005345,0.010274,-0.000535,0.010292,-0.005364,-88.038744,0.010295,
920,600,1.256719,-15.177753,0.999995,0.000270,-0.005646,0.010339,-0.001071,0.010410,-0.005717,-86.182417,0.010427,
1300,680,-0.162078,-15.712530,0.999997,0.000198,-0.002866,0.005728,0.002121,0.006223,-0.003361,76.864325,0.006230,
870,260,0.777899,-18.271013,0.999997,0.000205,-0.003385,0.008751,0.000513,0.008773,-0.003406,87.583795,0.008845,
1120,490,0.296277,-16.878512,0.999996,0.000233,-0.002905,0.007386,-0.000855,0.007457,-0.002975,-85.282520,0.007507,
1700,1720,-1.419293,-2.838166,0.999996,0.000241,-0.004390,0.009877,0.000194,0.009880,-0.004393,89.221596,0.009900,
1040,1560,0.563804,-3.531809,0.999996,0.000215,-0.003698,0.008385,0.001141,0.008492,-0.003805,84.652740,0.008507,
1740,1060,-3.593895,-9.763907,0.999996,0.000221,-0.004297,0.009658,0.000322,0.009665,-0.004304,88.679607,0.009684,
560,1130,4.188272,-9.251820,0.999982,0.000000,-0.003779,0.008422,-0.000210,0.008425,-0.003782,-89.015692,0.008440,
890,1490,1.353990,-4.736873,0.999995,0.000267,-0.005447,0.010332,0.000824,0.010375,-0.005490,87.019822,0.010381,
840,1110,3.002849,-9.208066,0.999997,0.000205,-0.004454,0.010730,-0.001069,0.010805,-0.004529,-85.991678,0.010852,
1290,1560,-0.148412,-3.222733,0.999998,0.000175,-0.002625,0.007008,-0.000486,0.007032,-0.002649,-87.118939,0.007103,
1800,340,-1.907857,-16.964001,0.999996,0.000226,-0.004927,0.010040,-0.000021,0.010040,-0.004927,-89.918196,0.010041,
1600,810,-2.306572,-12.540400,0.999995,0.000265,-0.006414,0.011939,-0.000912,0.011984,-0.006459,-87.161106,0.011996,
810,120,0.423783,-19.400033,0.999998,0.000198,-0.001941,0.008207,0.001776,0.008509,-0.002243,80.353025,0.008820,
1300,790,-0.200539,-15.159151,0.999997,0.000215,-0.003701,0.004437,0.003552,0.005769,-0.005033,69.440319,0.006280,
670,1680,1.988352,-3.528076,0.999997,0.000214,-0.004900,0.010076,0.000049,0.010076,-0.004900,89.811909,0.010077,
1740,1710,-1.636314,-3.052541,0.999995,0.000264,-0.004818,0.009997,0.000061,0.009997,-0.004819,89.764578,0.010000,
1390,1800,-0.257763,-1.579623,0.999997,0.000206,-0.001779,0.007307,0.000153,0.007310,-0.001781,89.034308,0.007623,
1830,330,-2.024113,-16.964364,0.999996,0.000259,-0.004888,0.009974,0.000050,0.009974,-0.004888,89.805319,0.009975,
960,1880,0.334865,-1.082162,0.999997,0.000187,-0.001913,0.007460,-0.000668,0.007507,-0.001960,-85.941269,0.007788,
1340,750,-0.315351,-15.022780,0.999996,0.000236,-0.004621,0.006924,0.003960,0.008152,-0.005849,72.776190,0.008405,
1200,1660,0.072121,-2.500747,0.999997,0.000202,-0.002301,0.007120,0.000207,0.007125,-0.002306,88.739787,0.007271,
1890,1200,-3.983840,-8.620097,0.999997,0.000188,-0.004413,0.009024,0.000203,0.009027,-0.004416,89.134843,0.009028,
1340,1470,-0.296885,-3.969784,0.999996,0.000262,-0.003314,0.007235,-0.001637,0.007483,-0.003562,-81.376930,0.007486,
1880,600,-3.098956,-14.059260,0.999995,0.000276,-0.005054,0.010156,-0.000027,0.010156,-0.005054,-89.897304,0.010156,
1420,40,-0.028379,-20.030093,0.999999,0.000126,-0.000272,0.006146,-0.000479,0.006181,-0.000307,-85.758335,0.006967,
1490,170,-0.296497,-19.127351,0.999998,0.000184,-0.001698,0.007369,-0.000680,0.007419,-0.001748,-85.737520,0.007757,
710,580,2.379615,-14.656873,0.999994,0.000296,-0.005352,0.010408,-0.000006,0.010408,-0.005352,-89.979805,0.010409,
1000,900,1.899017,-11.982546,0.999992,0.000352,-0.007051,0.014186,-0.000017,0.014186,-0.007051,-89.954659,0.014186,
620,940,3.978382,-10.861613,0.999996,0.000217,-0.004344,0.009063,0.000487,0.009080,-0.004361,87.922492,0.009083,
1530,850,-2.038793,-12.278031,0.999994,0.000289,-0.006917,0.012871,-0.000776,0.012902,-0.006947,-87.758276,0.012914,
830,1030,3.178715,-10.053128,0.999996,0.000256,-0.003905,0.010327,-0.000054,0.010327,-0.003905,-89.784220,0.010429,
1510,1000,-2.697423,-10.418514,0.999994,0.000316,-0.003864,0.012649,-0.000543,0.012667,-0.003882,-88.117543,0.012979,
1570,1260,-2.040088,-7.342114,0.999996,0.000267,-0.006808,0.012256,0.000498,0.012269,-0.006821,88.503972,0.012294,
1300,660,-0.167129,-15.825791,0.999998,0.000202,-0.002845,0.005932,0.001888,0.006321,-0.003234,78.360926,0.006321,
1110,630,0.344703,-15.802114,0.999995,0.000255,-0.003725,0.007432,-0.002260,0.007872,-0.004166,-78.971634,0.007877,
1440,1840,-0.303456,-1.332673,0.999998,0.000193,-0.001750,0.007368,0.000348,0.007381,-0.001763,87.820113,0.007709,
1210,1340,0.042051,-4.469570,0.999998,0.000179,-0.002077,0.004070,0.000962,0.004217,-0.002224,81.306986,0.004219,
1370,710,-0.430052,-15.085663,0.999995,0.000246,-0.004934,0.008241,0.003419,0.009075,-0.005768,76.283515,0.009186,
750,990,3.475701,-10.450404,0.999996,0.000254,-0.004300,0.009825,0.000329,0.009833,-0.004308,88.665926,0.009858,
1710,860,-3.139111,-11.779564,0.999994,0.000296,-0.005109,0.010430,-0.001138,0.010513,-0.005192,-85.833120,0.010513,
1040,1540,0.575661,-3.698204,0.999996,0.000249,-0.003947,0.008440,0.001339,0.008583,-0.004090,83.899436,0.008586,
1800,320,-1.844756,-17.163307,0.999996,0.000225,-0.004842,0.010017,-0.000099,0.010018,-0.004843,-89.616372,0.010020,
920,820,1.971978,-12.608219,0.999995,0.000270,-0.007019,0.012633,0.000524,0.012647,-0.007033,88.472491,0.012674,
560,1120,4.208547,-9.340162,0.999987,0.000000,-0.003819,0.008192,-0.000289,0.008199,-0.003826,-88.622033,0.008205,
1280,1610,-0.117748,-2.865276,0.999998,0.000183,-0.002387,0.007055,-0.000264,0.007062,-0.002394,-88.400453,0.007183,
1740,1500,-2.239619,-5.201790,0.999996,0.000222,-0.005329,0.010387,-0.000121,0.010388,-0.005330,-89.560711,0.010389,
1450,1520,-0.705095,-3.973796,0.999996,0.000248,-0.004298,0.008850,-0.001402,0.008998,-0.004446,-83.981878,0.008998,
960,1860,0.380243,-1.233523,0.999997,0.000219,-0.002142,0.007699,-0.000618,0.007738,-0.002181,-86.422326,0.007979,
1700,1700,-1.481452,-3.038807,0.999995,0.000251,-0.004432,0.009838,0.000156,0.009839,-0.004434,89.374970,0.009855,
1830,310,-1.952910,-17.164133,0.999997,0.000212,-0.004874,0.010016,-0.000063,0.010016,-0.004875,-89.756804,0.010018,
580,1940,1.153781,-1.237979,0.999997,0.000218,-0.004453,0.010858,-0.001746,0.011055,-0.004650,-83.577963,0.011101,
1510,1740,-0.646022,-2.213556,0.999997,0.000196,-0.003189,0.008467,-0.000007,0.008467,-0.003189,-89.964299,0.008553,
1490,660,-1.056493,-14.793395,0.999995,0.000256,-0.006101,0.010597,0.001739,0.010776,-0.006280,84.117776,0.010825,
890,1470,1.398987,-4.948998,0.999995,0.000269,-0.005646,0.010450,0.000853,0.010495,-0.005692,86.975166,0.010508,
1570,1630,-1.075849,-3.348085,0.999997,0.000226,-0.004332,0.009433,-0.000462,0.009449,-0.004347,-88.080490,0.009459,
1490,150,-0.255548,-19.274728,0.999998,0.000187,-0.001477,0.007262,-0.000749,0.007326,-0.001541,-85.134284,0.007725,
1420,370,-0.456453,-17.656186,0.999997,0.000231,-0.003028,0.008091,0.000443,0.008109,-0.003045,87.720385,0.008192,
1300,570,-0.176728,-16.401164,0.999998,0.000179,-0.002890,0.006751,0.001170,0.006891,-0.003029,83.179277,0.006907,
1760,1070,-3.673025,-9.669860,0.999996,0.000234,-0.004356,0.009554,0.000309,0.009561,-0.004363,88.727470,0.009573,
890,240,0.656130,-18.480423,0.999997,0.000222,-0.002980,0.008580,0.000623,0.008613,-0.003013,86.922293,0.008742,
1670,260,-1.045935,-18.126001,0.999997,0.000186,-0.004045,0.009375,-0.000632,0.009404,-0.004075,-87.309126,0.009432,
1380,670,-0.463561,-15.346762,0.999995,0.000240,-0.004680,0.008332,0.002886,0.008943,-0.005291,78.040592,0.008993,
1270,310,-0.072876,-18.261417,0.999997,0.000198,-0.001887,0.007037,0.000084,0.007038,-0.001888,89.458538,0.007286,
1880,1200,-3.939544,-8.593888,0.999997,0.000189,-0.004438,0.009136,0.000275,0.009142,-0.004444,88.839341,0.009143,
1360,1330,-0.390408,-5.120244,0.999996,0.000264,-0.004907,0.007888,-0.003659,0.008860,-0.005880,-75.118008,0.009017,
1200,1900,0.030021,-0.840614,0.999998,0.000164,-0.000890,0.006491,-0.000064,0.006491,-0.000890,-89.500140,0.007038,
990,1860,0.321437,-1.205441,0.999998,0.000214,-0.001630,0.007492,-0.000592,0.007530,-0.001668,-86.302439,0.007910,
790,1190,2.968272,-8.389981,0.999996,0.000238,-0.005220,0.010867,-0.001261,0.010965,-0.005319,-85.546226,0.010967,
1640,1610,-1.440503,-3.750558,0.999996,0.000237,-0.004757,0.009899,-0.000357,0.009908,-0.004766,-88.606831,0.009910,
940,710,1.388802,-14.057620,0.999992,0.000321,-0.006852,0.011573,-0.001072,0.011635,-0.006915,-86.682097,0.011704,
1110,610,0.344570,-15.953588,0.999996,0.000248,-0.003659,0.007410,-0.002070,0.007785,-0.004034,-79.745939,0.007787,
620,920,3.933521,-11.043454,0.999997,0.000196,-0.004376,0.009062,0.000511,0.009081,-0.004395,87.826033,0.009083,
640,1870,1.344684,-1.690188,0.999996,0.000250,-0.004599,0.010323,-0.001060,0.010398,-0.004674,-85.958226,0.010416,
610,300,2.028747,-17.179685,0.999997,0.000229,-0.004871,0.009985,-0.000001,0.009985,-0.004871,-89.994641,0.009986,
1300,640,-0.170225,-15.946456,0.999997,0.000200,-0.002841,0.006123,0.001691,0.006432,-0.003149,79.665234,0.006432,
1230,1280,0.001479,-4.629248,0.999995,0.000303,-0.002316,0.002400,0.000099,0.002402,-0.002318,88.793481,0.002727,
1000,1290,1.129009,-6.385320,0.999994,0.000312,-0.007463,0.012022,0.001929,0.012211,-0.007652,84.399255,0.012341,
780,1030,3.377325,-10.055246,0.999996,0.000238,-0.004140,0.010020,-0.000056,0.010020,-0.004140,-89.772077,0.010071,
1370,690,-0.423143,-15.243605,0.999996,0.000243,-0.004703,0.008061,0.003158,0.008800,-0.005442,76.835457,0.008882,
560,1110,4.242553,-9.411503,0.999975,0.000000,-0.003757,0.007990,-0.000176,0.007993,-0.003759,-89.142000,0.007997,
1040,1520,0.589974,-3.871983,0.999996,0.000245,-0.004155,0.008519,0.001534,0.008702,-0.004338,83.195549,0.008702,
960,1840,0.424340,-1.391075,0.999996,0.000241,-0.002329,0.007750,-0.000483,0.007773,-0.002352,-87.262509,0.007972,
1830,290,-1.877649,-17.366371,0.999996,0.000233,-0.004859,0.010097,-0.000127,0.010098,-0.004861,-89.513306,0.010101,
920,580,1.223035,-15.384147,0.999996,0.000237,-0.005453,0.010241,-0.001056,0.010311,-0.005523,-86.168338,0.010320,
1800,300,-1.771770,-17.365561,0.999996,0.000245,-0.004771,0.010112,-0.000273,0.010117,-0.004776,-88.948862,0.010122,
1530,830,-1.931782,-12.536964,0.999994,0.000284,-0.007111,0.012876,-0.000473,0.012887,-0.007122,-88.645688,0.012911,
680,70,0.400540,-19.717915,0.999997,0.000212,-0.001642,0.009469,0.003742,0.010612,-0.002784,73.018504,0.011004,
1670,900,-3.075830,-11.397880,0.999997,0.000211,-0.004941,0.010694,-0.001270,0.010797,-0.005043,-85.384669,0.010805,
1440,1830,-0.317243,-1.404571,0.999998,0.000209,-0.001852,0.007455,0.000297,0.007464,-0.001861,88.172355,0.007771,
1410,40,-0.024602,-20.031941,0.999998,0.000147,-0.000274,0.006124,-0.000461,0.006157,-0.000307,-85.896054,0.006939,
1440,1820,-0.332743,-1.479697,0.999997,0.000196,-0.001956,0.007565,0.000277,0.007573,-0.001964,88.335456,0.007861,
1120,590,0.307473,-16.142538,0.999997,0.000219,-0.003437,0.007290,-0.001734,0.007563,-0.003710,-81.040363,0.007564,
1420,410,-0.493466,-17.331285,0.999996,0.000217,-0.003212,0.008076,0.000659,0.008114,-0.003250,86.669928,0.008167,
580,1550,2.826312,-5.138309,0.999996,0.000219,-0.005087,0.010060,0.000038,0.010060,-0.005087,89.854813,0.010061,
1490,130,-0.214425,-19.417593,0.999998,0.000180,-0.001264,0.007105,-0.000787,0.007178,-0.001337,-84.675849,0.007635,
750,970,3.457889,-10.647249,0.999996,0.000254,-0.004402,0.009983,0.000598,0.010008,-0.004427,87.624750,0.010030,
1740,1480,-2.295825,-5.412058,0.999995,0.000253,-0.005376,0.010417,-0.000075,0.010417,-0.005376,-89.728911,0.010419,
1700,1900,-0.707849,-1.108801,0.999997,0.000212,-0.002812,0.009076,0.001921,0.009379,-0.003115,81.043976,0.009554,
870,440,1.205475,-16.604156,0.999997,0.000239,-0.004532,0.009652,-0.000447,0.009666,-0.004546,-88.194831,0.009672,
1260,1610,-0.070311,-2.854386,0.999998,0.000170,-0.002423,0.007004,-0.000275,0.007012,-0.002431,-88.332696,0.007121,
830,1010,3.163328,-10.260702,0.999997,0.000211,-0.003908,0.010356,0.000351,0.010364,-0.003917,88.591625,0.010467,
1660,250,-0.969934,-18.240906,0.999996,0.000216,-0.003786,0.009322,-0.000742,0.009364,-0.003828,-86.768939,0.009416,
1570,1590,-1.147140,-3.727439,0.999997,0.000216,-0.004549,0.009595,-0.000611,0.009622,-0.004575,-87.529328,0.009625,
650,1940,0.829293,-0.918930,0.999996,0.000220,-0.003542,0.010341,-0.002563,0.010800,-0.004000,-79.865924,0.010920,
790,1170,3.038965,-8.604570,0.999996,0.000257,-0.005051,0.010651,-0.001239,0.010748,-0.005148,-85.516842,0.010751,
820,1110,3.090511,-9.220409,0.999996,0.000241,-0.004434,0.010537,-0.001014,0.010605,-0.004503,-86.143730,0.010645,
1300,620,-0.172990,-16.071611,0.999997,0.000188,-0.002859,0.006282,0.001541,0.006535,-0.003111,80.683244,0.006537,
1080,1490,0.449027,-3.975783,0.999996,0.000211,-0.003707,0.007878,0.001628,0.008102,-0.003932,82.150023,0.008104,
1200,520,0.080531,-16.786093,0.999998,0.000151,-0.002546,0.006739,-0.000392,0.006756,-0.002562,-87.587588,0.006821,
1000,880,1.746545,-12.265922,0.999992,0.000368,-0.007457,0.014008,-0.000343,0.014013,-0.007462,-89.085410,0.014023,
1070,920,1.608738,-12.646482,0.999984,0.000472,-0.004768,0.013140,-0.006594,0.015306,-0.006934,-71.815936,0.015329,
1230,1320,0.003079,-4.516242,0.999995,0.000242,-0.001975,0.003421,0.000062,0.003421,-0.001976,89.337432,0.003435,
740,770,2.870739,-12.718695,0.999996,0.000288,-0.005517,0.010744,0.000911,0.010794,-0.005568,86.803069,0.010796,
1240,290,-0.015507,-18.410941,0.999997,0.000203,-0.001806,0.006970,0.000054,0.006970,-0.001806,89.647028,0.007235,
560,1100,4.254637,-9.495073,0.999947,0.000000,-0.003781,0.007984,0.000049,0.007984,-0.003781,89.762659,0.007988,
620,1340,3.298605,-7.154534,0.999997,0.000223,-0.004982,0.010002,-0.000394,0.010012,-0.004992,-88.495263,0.010012,
980,1290,1.279451,-6.526744,0.999995,0.000332,-0.007481,0.012255,0.001410,0.012355,-0.007581,85.935360,0.012461,
1620,1650,-1.250463,-3.295010,0.999996,0.000279,-0.004465,0.009642,-0.000248,0.009647,-0.004469,-88.995091,0.009655,
1380,650,-0.457119,-15.513561,0.999997,0.000179,-0.004470,0.008148,0.002644,0.008679,-0.005001,78.628831,0.008713,
1370,670,-0.415243,-15.410320,0.999996,0.000236,-0.004493,0.007986,0.002912,0.008632,-0.005139,77.490901,0.008684,
1110,590,0.345139,-16.101807,0.999996,0.000242,-0.003567,0.007476,-0.001848,0.007777,-0.003868,-80.749358,0.007777,
620,1870,1.442956,-1.779652,0.999995,0.000277,-0.004872,0.010276,-0.000672,0.010306,-0.004902,-87.464750,0.010310,
1610,1000,-3.066202,-10.370822,0.999997,0.000243,-0.003838,0.010490,-0.000434,0.010503,-0.003851,-88.268505,0.010627,
1270,290,-0.071469,-18.400472,0.999998,0.000177,-0.001770,0.007027,0.000021,0.007027,-0.001770,89.865935,0.007310,
1040,1500,0.605298,-4.045997,0.999996,0.000231,-0.004304,0.008598,0.001686,0.008815,-0.004521,82.677057,0.008816,
1530,810,-1.827095,-12.794276,0.999994,0.000274,-0.007270,0.012731,-0.000170,0.012733,-0.007271,-89.513014,0.012775,
960,1820,0.466969,-1.543499,0.999997,0.000212,-0.002541,0.007995,-0.000424,0.008012,-0.002558,-87.697091,0.008184,
1140,810,0.347842,-14.816072,0.999994,0.000330,-0.004761,0.005745,-0.004140,0.007180,-0.006196,-70.880660,0.007785,
920,540,1.149303,-15.793317,0.999995,0.000260,-0.005129,0.009931,-0.001016,0.010000,-0.005197,-86.159252,0.010002,
730,380,1.711220,-16.775926,0.999996,0.000250,-0.004872,0.010086,-0.000037,0.010086,-0.004872,-89.859401,0.010088,
1800,280,-1.695770,-17.570090,0.999996,0.000229,-0.004716,0.010133,-0.000418,0.010144,-0.004728,-88.388448,0.010152,
1530,1780,-0.625137,-1.911972,0.999996,0.000229,-0.002853,0.008385,0.000341,0.008396,-0.002863,88.263603,0.008536,
890,1450,1.442880,-5.160865,0.999994,0.000288,-0.005801,0.010509,0.000863,0.010555,-0.005847,86.979338,0.010575,
650,920,3.801369,-11.076139,0.999996,0.000257,-0.004519,0.009284,0.000615,0.009311,-0.004547,87.455751,0.009312,
1830,270,-1.798641,-17.570479,0.999996,0.000245,-0.004843,0.010097,-0.000237,0.010101,-0.004847,-89.091112,0.010104,
1440,1800,-0.365408,-1.635721,0.999998,0.000182,-0.002139,0.007591,0.000177,0.007594,-0.002142,88.958088,0.007830,
1420,390,-0.474075,-17.493882,0.999997,0.000213,-0.003131,0.008082,0.000567,0.008110,-0.003160,87.114408,0.008176,
1120,570,0.305246,-16.291528,0.999997,0.000195,-0.003323,0.007324,-0.001520,0.007537,-0.003535,-82.030858,0.007542,
750,950,3.413675,-10.852814,0.999995,0.000261,-0.004499,0.010054,0.000884,0.010107,-0.004552,86.536623,0.010124,
1660,230,-0.896344,-18.428530,0.999997,0.000188,-0.003628,0.009225,-0.000891,0.009286,-0.003689,-86.052774,0.009351,
840,1510,1.583887,-4.710988,0.999995,0.000266,-0.005376,0.010386,0.000548,0.010405,-0.005395,88.010077,0.010407,
680,2010,0.211701,-0.218565,0.999998,0.000202,-0.000673,0.008471,-0.003557,0.009692,-0.001894,-71.059764,0.010274,
1490,110,-0.172727,-19.559564,0.999997,0.000185,-0.001038,0.007018,-0.000850,0.007106,-0.001127,-84.041575,0.007638,
1710,210,-1.001806,-18.515807,0.999996,0.000230,-0.003495,0.009600,-0.001387,0.009745,-0.003640,-84.017652,0.009849,
870,460,1.248196,-16.409051,0.999998,0.000204,-0.004733,0.009766,-0.000550,0.009787,-0.004754,-87.830232,0.009789,
560,1090,4.252408,-9.575359,0.999937,0.000000,-0.003813,0.008247,0.000268,0.008253,-0.003819,88.725327,0.008261,
1430,1400,-0.704918,-4.977476,0.999996,0.000251,-0.005420,0.009440,-0.002443,0.009832,-0.005811,-80.899035,0.009886,
1430,40,-0.031231,-20.029083,0.999998,0.000139,-0.000225,0.006158,-0.000528,0.006201,-0.000268,-85.306754,0.007011,
1230,1300,0.001993,-4.579549,0.999997,0.000214,-0.002064,0.002867,0.000097,0.002869,-0.002066,88.871540,0.002960,
1110,570,0.339966,-16.257219,0.999996,0.000222,-0.003493,0.007475,-0.001673,0.007724,-0.003743,-81.518153,0.007725,
1200,1610,0.077076,-2.855351,0.999998,0.000185,-0.002418,0.007041,0.000265,0.007048,-0.002426,88.394943,0.007162,
1200,480,0.079094,-17.059646,0.999997,0.000188,-0.002469,0.006891,-0.000323,0.006902,-0.002480,-88.024483,0.006992,
1390,910,-1.505231,-12.835292,0.999987,0.000397,-0.004728,0.011907,0.006120,0.013916,-0.006736,71.828202,0.013919,
1300,600,-0.175127,-16.199322,0.999997,0.000200,-0.002874,0.006473,0.001373,0.006670,-0.003072,81.814650,0.006677,
1490,1080,-2.533720,-9.374581,0.999994,0.000264,-0.004585,0.013275,0.000753,0.013306,-0.004616,87.588529,0.013513,
1890,590,-3.117221,-14.130946,0.999995,0.000228,-0.005054,0.010196,-0.000018,0.010196,-0.005054,-89.931607,0.010196,
660,70,0.426146,-19.709670,0.999997,0.000206,-0.001518,0.009788,0.003992,0.011055,-0.002785,72.384345,0.011500,
1090,1680,0.329442,-2.463860,0.999997,0.000186,-0.002453,0.007639,0.000295,0.007648,-0.002462,88.328663,0.007808,
1140,410,0.217781,-17.506341,0.999997,0.000214,-0.002619,0.007321,-0.000550,0.007352,-0.002650,-86.843821,0.007447,
930,320,0.728802,-17.859491,0.999997,0.000204,-0.003160,0.008674,0.000067,0.008675,-0.003161,89.675284,0.008780,
1370,650,-0.411748,-15.570927,0.999996,0.000225,-0.004257,0.007891,0.002595,0.008422,-0.004788,78.433964,0.008448,
1420,2000,-0.042674,-0.221406,0.999998,0.000159,-0.000419,0.006294,0.000509,0.006333,-0.000457,85.691831,0.007063,
1270,270,-0.062733,-18.544022,0.999998,0.000176,-0.001628,0.006976,0.000014,0.006976,-0.001628,89.907802,0.007299,
1880,1800,-1.975098,-2.642237,0.999997,0.000217,-0.004867,0.009778,0.000096,0.009779,-0.004868,89.623174,0.009779,
1710,30,-0.063709,-20.075985,0.999998,0.000000,0.000155,0.007576,-0.002802,0.008515,-0.000784,-71.471760,0.009412,
1120,810,0.448997,-14.555224,0.999992,0.000324,-0.005468,0.007345,-0.004479,0.008756,-0.006878,-72.520207,0.009219,
960,1800,0.507508,-1.709678,0.999996,0.000223,-0.002723,0.008039,-0.000311,0.008048,-0.002732,-88.346477,0.008185,
760,1030,3.459587,-10.054338,0.999996,0.000242,-0.004205,0.009916,-0.000062,0.009916,-0.004206,-89.747392,0.009954,
1160,1930,0.046918,-0.651031,0.999998,0.000167,-0.000596,0.006408,-0.000212,0.006415,-0.000603,-88.270255,0.007085,
1380,1810,-0.232047,-1.499428,0.999997,0.000192,-0.001582,0.007260,0.000206,0.007265,-0.001587,88.664157,0.007639,
1810,1400,-2.922944,-6.452137,0.999996,0.000242,-0.005177,0.010271,0.000277,0.010276,-0.005182,88.971320,0.010276,
1040,1480,0.615973,-4.221792,0.999996,0.000235,-0.004403,0.008715,0.001838,0.008968,-0.004656,82.173965,0.008970,
620,1360,3.229179,-6.951443,0.999996,0.000242,-0.005012,0.010061,-0.000315,0.010068,-0.005019,-88.801558,0.010068,
850,1560,1.419475,-4.164645,0.999996,0.000276,-0.004967,0.009987,0.000539,0.010006,-0.004987,87.940051,0.010006,
1800,260,-1.613050,-17.773183,0.999996,0.000238,-0.004677,0.010119,-0.000609,0.010144,-0.004702,-87.645385,0.010153,
920,520,1.116236,-15.989340,0.999996,0.000251,-0.004867,0.009722,-0.000936,0.009782,-0.004927,-86.345273,0.009782,
1670,1010,-3.313340,-10.259339,0.999997,0.000199,-0.004086,0.010085,-0.000328,0.010093,-0.004094,-88.673095,0.010153,
790,1150,3.109219,-8.817871,0.999995,0.000283,-0.004905,0.010625,-0.001269,0.010728,-0.005008,-85.360715,0.010736,
890,1430,1.485293,-5.371452,0.999994,0.000279,-0.005983,0.010776,0.000807,0.010815,-0.006021,87.249110,0.010838,
1740,1460,-2.356415,-5.620492,0.999996,0.000248,-0.005412,0.010472,0.000025,0.010473,-0.005412,89.911588,0.010474,
1570,1570,-1.185943,-3.920389,0.999997,0.000227,-0.004774,0.009707,-0.000712,0.009742,-0.004809,-87.190065,0.009742,
1660,210,-0.820533,-18.612485,0.999997,0.000220,-0.003404,0.009047,-0.001077,0.009139,-0.003496,-85.091969,0.009223,
560,1080,4.260845,-9.660213,0.999945,0.000000,-0.003752,0.008024,0.000175,0.008026,-0.003754,89.147351,0.008032,
840,1490,1.630083,-4.921009,0.999995,0.000247,-0.005497,0.010442,0.000521,0.010459,-0.005514,88.129157,0.010465,
1000,410,0.632122,-17.239190,0.999996,0.000228,-0.003470,0.008454,-0.000610,0.008485,-0.003501,-87.079799,0.008528,
1700,1160,-3.206744,-8.737433,0.999996,0.000259,-0.004920,0.010467,0.001234,0.010565,-0.005019,85.443527,0.010569,
1490,90,-0.129847,-19.697894,0.999998,0.000173,-0.000832,0.006787,-0.000841,0.006879,-0.000923,-83.777256,0.007467,
1440,1780,-0.391170,-1.785258,0.999997,0.000205,-0.002327,0.007716,0.000115,0.007717,-0.002329,89.341700,0.007917,
750,930,3.368180,-11.052839,0.999995,0.000261,-0.004568,0.009993,0.000872,0.010045,-0.004620,86.586263,0.010056,
1060,410,0.439972,-17.369382,0.999997,0.000213,-0.003174,0.007974,-0.000716,0.008020,-0.003220,-86.340948,0.008072,
910,760,1.770068,-13.315739,0.999994,0.000273,-0.007042,0.012213,-0.000125,0.012214,-0.007043,-89.628255,0.012262,
1150,1680,0.180031,-2.385115,0.999998,0.000167,-0.002371,0.007258,0.000279,0.007266,-0.002380,88.342712,0.007408,
1300,550,-0.177615,-16.538460,0.999998,0.000177,-0.002870,0.006837,0.001040,0.006947,-0.002980,83.954976,0.006970,
1070,240,0.245482,-18.688980,0.999997,0.000202,-0.001703,0.007269,0.000200,0.007273,-0.001707,88.726305,0.007607,
1370,630,-0.407377,-15.730000,0.999995,0.000249,-0.004023,0.007831,0.002297,0.008260,-0.004452,79.409341,0.008268,
1730,620,-2.381119,-14.305073,0.999995,0.000248,-0.005521,0.010553,-0.000136,0.010554,-0.005522,-89.513700,0.010558,
1300,580,-0.177180,-16.333232,0.999998,0.000196,-0.002900,0.006687,0.001238,0.006844,-0.003057,82.759107,0.006857,
1720,550,-2.116653,-15.074119,0.999995,0.000291,-0.005381,0.010367,0.000154,0.010369,-0.005382,89.438779,0.010371,
1810,1080,-3.881078,-9.594894,0.999998,0.000208,-0.004350,0.009143,0.000201,0.009146,-0.004353,89.148118,0.009149,
740,1030,3.543433,-10.054129,0.999996,0.000235,-0.004278,0.009821,-0.000052,0.009821,-0.004278,-89.789225,0.009849,
1830,250,-1.709783,-17.773137,0.999996,0.000246,-0.004817,0.010135,-0.000313,0.010141,-0.004824,-88.799528,0.010145,
1530,790,-1.734644,-13.046733,0.999994,0.000289,-0.007309,0.012543,0.000127,0.012544,-0.007310,89.634305,0.012601,
1710,80,-0.334384,-19.686249,0.999996,0.000238,-0.001224,0.007978,-0.002430,0.008581,-0.001826,-76.078080,0.009040,
1000,860,1.608569,-12.539467,0.999993,0.000333,-0.007722,0.013770,-0.000707,0.013793,-0.007745,-88.118706,0.013828,
1110,1290,0.394586,-5.366751,0.999994,0.000305,-0.005243,0.007836,0.004213,0.009075,-0.006482,73.604068,0.009349,
970,70,0.093554,-19.831436,0.999998,0.000188,-0.000659,0.006678,0.000861,0.006778,-0.000758,83.393457,0.007428,
1040,1460,0.627947,-4.396676,0.999995,0.000252,-0.004531,0.008854,0.001952,0.009133,-0.004810,81.869622,0.009137,
930,1820,0.539517,-1.584327,0.999997,0.000191,-0.002468,0.008219,-0.000612,0.008254,-0.002503,-86.735512,0.008464,
1190,1890,0.042109,-0.908179,0.999998,0.000159,-0.000912,0.006529,-0.000082,0.006530,-0.000913,-89.368294,0.007072,
1640,490,-1.543218,-15.957917,0.999995,0.000252,-0.005102,0.010107,0.000437,0.010120,-0.005114,88.355165,0.010120,
910,40,0.054232,-20.020902,0.999999,0.000133,-0.000142,0.006606,0.001247,0.006829,-0.000365,79.860645,0.007683,
1180,1610,0.125549,-2.866962,0.999997,0.000198,-0.002430,0.007091,0.000265,0.007099,-0.002437,88.409734,0.007214,
1780,1130,-3.662134,-9.102340,0.999996,0.000253,-0.004563,0.009576,0.000716,0.009612,-0.004599,87.107703,0.009615,
1690,1640,-1.601622,-3.603674,0.999996,0.000257,-0.004792,0.009999,-0.000169,0.010001,-0.004794,-89.346340,0.010004,
1440,1760,-0.424185,-1.944029,0.999996,0.000246,-0.002488,0.007763,0.000005,0.007763,-0.002488,89.969845,0.007928,
590,410,2.492203,-16.012702,0.999995,0.000271,-0.005478,0.010008,-0.000107,0.010009,-0.005479,-89.603364,0.010024,
560,1070,4.268968,-9.745623,0.999937,0.000000,-0.003670,0.007895,-0.000001,0.007895,-0.003670,-89.995696,0.007902,
890,1410,1.535892,-5.593113,0.999995,0.000253,-0.006177,0.011027,0.000738,0.011058,-0.006208,87.548469,0.011086,
830,1860,0.682858,-1.374578,0.999996,0.000223,-0.002552,0.008704,-0.001277,0.008847,-0.002695,-83.606152,0.009069,
1270,250,-0.062416,-18.679107,0.999998,0.000155,-0.001497,0.006861,-0.000005,0.006861,-0.001497,-89.964535,0.007215,
1640,210,-0.758781,-18.641957,0.999998,0.000185,-0.002862,0.008868,-0.001156,0.008981,-0.002975,-84.424942,0.009150,
1620,600,-1.699885,-14.879068,0.999995,0.000276,-0.005774,0.010634,0.000512,0.010650,-0.005790,88.215906,0.010664,
1400,910,-1.556816,-12.620569,0.999976,0.000549,-0.005605,0.012854,0.005128,0.014183,-0.006933,75.471921,0.014184,
660,1670,2.068300,-3.662502,0.999997,0.000226,-0.004918,0.010085,0.000098,0.010086,-0.004918,89.624231,0.010087,
1710,620,-2.268940,-14.367032,0.999996,0.000227,-0.005611,0.010633,-0.000060,0.010634,-0.005611,-89.789771,0.010639,
750,1150,3.304606,-8.854949,0.999996,0.000253,-0.004784,0.010243,-0.001115,0.010326,-0.004866,-85.779945,0.010331,
1180,490,0.129115,-16.976796,0.999998,0.000183,-0.002540,0.006942,-0.000375,0.006957,-0.002555,-87.738308,0.007038,
1700,2020,-0.103393,-0.122536,0.999997,0.000000,-0.000008,0.007414,0.002353,0.008097,-0.000691,73.811080,0.008978,
620,1380,3.160080,-6.748562,0.999996,0.000222,-0.005066,0.010085,-0.000290,0.010091,-0.005071,-88.903896,0.010091,
680,2000,0.279853,-0.300232,0.999998,0.000230,-0.001014,0.008843,-0.003674,0.010062,-0.002232,-71.649971,0.010568,
1550,780,-1.831848,-13.084760,0.999994,0.000310,-0.007098,0.012315,-0.000070,0.012316,-0.007099,-89.793488,0.012363,
1300,560,-0.178034,-16.469874,0.999998,0.000183,-0.002883,0.006787,0.001104,0.006912,-0.003008,83.570465,0.006931,
670,1190,3.565570,-8.532870,0.999995,0.000281,-0.004810,0.009831,-0.000916,0.009888,-0.004867,-86.434543,0.009889,
710,1460,2.426443,-5.661049,0.999995,0.000260,-0.005387,0.010438,-0.000038,0.010438,-0.005387,-89.862760,0.010439,
1140,1930,0.059491,-0.654229,0.999998,0.000150,-0.000757,0.006426,-0.000211,0.006433,-0.000763,-88.318459,0.007029,
1420,180,-0.213537,-19.099397,0.999998,0.000203,-0.001555,0.007039,-0.000369,0.007054,-0.001571,-87.547733,0.007407,
1760,550,-2.328621,-14.947574,0.999995,0.000276,-0.005256,0.010329,0.000093,0.010330,-0.005256,89.658591,0.010330,
1710,1000,-3.470929,-10.352808,0.999996,0.000250,-0.004238,0.009878,-0.000356,0.009887,-0.004247,-88.556339,0.009919,
1830,230,-1.618020,-17.979019,0.999995,0.000273,-0.004798,0.010137,-0.000476,0.010152,-0.004813,-88.176701,0.010156,
1530,770,-1.645513,-13.297733,0.999993,0.000290,-0.007282,0.012372,0.000393,0.012380,-0.007290,88.854759,0.012445,
830,1560,1.517306,-4.229672,0.999994,0.000290,-0.005084,0.010110,0.000463,0.010124,-0.005098,88.255992,0.010125,
1380,170,-0.152426,-19.187918,0.999998,0.000181,-0.001016,0.006831,-0.000371,0.006848,-0.001034,-87.298430,0.007384,
1790,1080,-3.795701,-9.586045,0.999997,0.000214,-0.004396,0.009338,0.000248,0.009343,-0.004401,88.967385,0.009348,
670,1360,2.973045,-6.816583,0.999997,0.000252,-0.005233,0.010219,-0.000479,0.010234,-0.005248,-88.224306,0.010235,
800,410,1.463188,-16.686117,0.999995,0.000275,-0.004682,0.009874,-0.000203,0.009876,-0.004684,-89.202175,0.009881,
1710,900,-3.273317,-11.360729,0.999997,0.000213,-0.004848,0.010367,-0.001156,0.010454,-0.004936,-85.679173,0.010460,
1000,840,1.479457,-12.809650,0.999993,0.000335,-0.007844,0.013380,-0.001082,0.013435,-0.007899,-87.090297,0.013504,
1110,1310,0.367498,-5.214731,0.999994,0.000315,-0.004958,0.007706,0.003901,0.008811,-0.006064,74.180303,0.009017,
1430,1780,-0.368241,-1.774419,0.999996,0.000220,-0.002372,0.007660,0.000052,0.007660,-0.002372,89.701122,0.007843,
1490,510,-0.852702,-16.273669,0.999996,0.000248,-0.004487,0.009235,0.001159,0.009332,-0.004585,85.205235,0.009333,
1740,1440,-2.419085,-5.832523,0.999996,0.000248,-0.005460,0.010485,0.000105,0.010486,-0.005460,89.621845,0.010489,
970,310,0.582794,-18.019488,0.999997,0.000206,-0.003070,0.008265,-0.000031,0.008265,-0.003070,-89.843001,0.008356,
580,410,2.542422,-15.978215,0.999996,0.000233,-0.006805,0.010305,-0.000156,0.010307,-0.006806,-89.478126,0.010482,
1040,1440,0.638982,-4.570628,0.999995,0.000271,-0.004761,0.008945,0.002106,0.009261,-0.005078,81.456944,0.009275,
1190,1870,0.043144,-1.037876,0.999998,0.000163,-0.001057,0.006605,-0.000083,0.006605,-0.001058,-89.380423,0.007096,
560,1060,4.280804,-9.813310,0.999941,0.000000,-0.003642,0.007796,-0.000032,0.007796,-0.003643,-89.840264,0.007801,
1080,1430,0.460940,-4.456983,0.999996,0.000240,-0.004272,0.008124,0.002359,0.008557,-0.004705,79.582134,0.008572,
1440,1740,-0.446407,-2.096762,0.999996,0.000235,-0.002624,0.007910,-0.000101,0.007911,-0.002625,-89.448884,0.008059,
890,1390,1.588840,-5.812250,0.999995,0.000271,-0.006336,0.011174,0.000620,0.011196,-0.006358,87.974133,0.011231,
1700,1120,-3.318581,-9.148093,0.999996,0.000245,-0.004578,0.010086,0.000892,0.010140,-0.004632,86.532888,0.010152,
1670,990,-3.293069,-10.460172,0.999997,0.000209,-0.004156,0.010111,-0.000409,0.010123,-0.004167,-88.357543,0.010176,
1040,430,0.520402,-17.162449,0.999997,0.000211,-0.003259,0.008111,-0.000718,0.008156,-0.003304,-86.402881,0.008204,
1670,280,-1.116732,-17.934260,0.999996,0.000229,-0.004190,0.009502,-0.000476,0.009518,-0.004207,-88.012896,0.009540,
1270,230,-0.052713,-18.819102,0.999998,0.000153,-0.001369,0.006798,-0.000012,0.006798,-0.001369,-89.915248,0.007191,
1370,610,-0.406796,-15.883108,0.999996,0.000225,-0.003870,0.007784,0.002048,0.008133,-0.004220,80.317479,0.008135,
1140,1380,0.233380,-4.520836,0.999996,0.000224,-0.003385,0.006412,0.002566,0.007044,-0.004016,76.176136,0.007067,
750,910,3.320757,-11.252908,0.999995,0.000253,-0.004719,0.010197,0.001030,0.010268,-0.004790,86.066878,0.010276,
1300,540,-0.176552,-16.607988,0.999997,0.000195,-0.002842,0.006896,0.000976,0.006993,-0.002939,84.331778,0.007022,
1620,580,-1.648677,-15.090801,0.999995,0.000263,-0.005612,0.010539,0.000518,0.010555,-0.005629,88.166534,0.010563,
1700,30,-0.070227,-20.070877,0.999997,0.000000,0.000093,0.007437,-0.002573,0.008249,-0.000718,-72.490803,0.009139,
1570,1640,-1.056539,-3.252839,0.999996,0.000218,-0.004301,0.009407,-0.000437,0.009421,-0.004315,-88.177268,0.009432,
930,780,1.711456,-13.159027,0.999994,0.000245,-0.007269,0.012460,-0.000217,0.012463,-0.007272,-89.368485,0.012520,
710,1430,2.520761,-5.975252,0.999995,0.000258,-0.005411,0.010463,-0.000173,0.010465,-0.005413,-89.374947,0.010467,
670,1170,3.628753,-8.731423,0.999996,0.000250,-0.004703,0.009681,-0.000819,0.009728,-0.004750,-86.752431,0.009729,
1080,1930,0.104211,-0.668939,0.999998,0.000164,-0.000686,0.006584,-0.000433,0.006610,-0.000712,-86.607454,0.007256,
1420,160,-0.189246,-19.236685,0.999998,0.000227,-0.001357,0.006953,-0.000435,0.006976,-0.001380,-87.011424,0.007389,
1160,490,0.181705,-16.954592,0.999997,0.000207,-0.002759,0.007081,-0.000721,0.007133,-0.002812,-85.831309,0.007186,
1620,490,-1.442151,-16.022577,0.999993,0.000332,-0.004989,0.010006,0.000520,0.010024,-0.005007,88.016783,0.010024,
1580,750,-1.917133,-13.329254,0.999995,0.000304,-0.006750,0.011932,-0.000096,0.011933,-0.006751,-89.706747,0.011967,
1530,750,-1.568670,-13.545537,0.999994,0.000287,-0.007169,0.012133,0.000604,0.012152,-0.007188,88.209460,0.012219,
1740,550,-2.223643,-15.010246,0.999996,0.000250,-0.005305,0.010349,0.000119,0.010350,-0.005306,89.563454,0.010351,
1140,2000,0.018160,-0.214013,0.999999,0.000120,-0.000285,0.006052,-0.000219,0.006059,-0.000293,-88.020250,0.006834,
1180,170,0.053824,-19.217532,0.999999,0.000147,-0.000891,0.006573,0.000104,0.006574,-0.000892,89.202139,0.007132,
1830,210,-1.515702,-18.182888,0.999994,0.000280,-0.004777,0.010235,-0.000608,0.010259,-0.004802,-87.685344,0.010266,
1870,960,-4.123388,-10.657999,0.999997,0.000211,-0.004189,0.008443,-0.000078,0.008444,-0.004190,-89.644292,0.008444,
1780,1490,-2.477563,-5.430788,0.999996,0.000220,-0.005249,0.010303,-0.000018,0.010303,-0.005249,-89.932291,0.010303,
620,1110,3.989354,-9.343913,0.999997,0.000211,-0.004352,0.009048,-0.000416,0.009061,-0.004365,-88.222498,0.009063,
1110,1330,0.358594,-5.066558,0.999996,0.000275,-0.004681,0.007546,0.003659,0.008558,-0.005693,74.549164,0.008712,
1000,820,1.367687,-13.076305,0.999991,0.000371,-0.007865,0.012986,-0.001291,0.013066,-0.007945,-86.470494,0.013167,
720,390,1.789631,-16.641949,0.999997,0.000240,-0.004869,0.010135,-0.000107,0.010136,-0.004870,-89.591783,0.010138,
1660,1770,-1.089680,-2.247319,0.999997,0.000217,-0.004054,0.009505,0.000460,0.009521,-0.004069,88.059400,0.009554,
560,1050,4.286645,-9.894766,0.999940,0.000000,-0.003668,0.007729,-0.000193,0.007732,-0.003671,-89.029991,0.007735,
1690,1620,-1.655125,-3.805483,0.999996,0.000230,-0.004935,0.010085,-0.000236,0.010089,-0.004938,-89.098416,0.010090,
1610,940,-2.931351,-11.014101,0.999996,0.000275,-0.004582,0.010914,-0.001223,0.011010,-0.004678,-85.515321,0.011051,
630,1160,3.835012,-8.874429,0.999996,0.000238,-0.004475,0.009129,-0.000483,0.009146,-0.004492,-87.968098,0.009147,
1040,1420,0.649691,-4.751276,0.999996,0.000262,-0.005053,0.009043,0.002298,0.009408,-0.005418,80.971388,0.009444,
890,1370,1.645573,-6.042073,0.999995,0.000264,-0.006467,0.011356,0.000530,0.011372,-0.006482,88.298942,0.011409,
1190,1850,0.053146,-1.174450,0.999998,0.000169,-0.001184,0.006711,-0.000066,0.006712,-0.001185,-89.520030,0.007165,
1270,210,-0.053019,-18.952472,0.999998,0.000171,-0.001208,0.006693,-0.000043,0.006693,-0.001208,-89.685789,0.007134,
960,1260,1.552610,-7.033038,0.999991,0.000353,-0.007574,0.012711,0.000593,0.012728,-0.007591,88.327159,0.012807,
570,200,1.772784,-17.997725,0.999953,0.000768,-0.005504,0.010057,0.000493,0.010073,-0.005520,88.185458,0.010088,
790,1130,3.176435,-9.032131,0.999995,0.000284,-0.004691,0.010398,-0.001064,0.010473,-0.004765,-85.987528,0.010487,
830,1430,1.843131,-5.597673,0.999995,0.000268,-0.005865,0.010837,0.000307,0.010843,-0.005871,88.947224,0.010855,
1300,490,-0.173378,-16.959487,0.999997,0.000193,-0.002719,0.007064,0.000637,0.007105,-0.002761,86.289233,0.007164,
1700,580,-2.095679,-14.822837,0.999995,0.000259,-0.005506,0.010536,0.000131,0.010537,-0.005507,89.532464,0.010540,
830,120,0.392716,-19.412381,0.999996,0.000218,-0.001474,0.008040,0.001717,0.008341,-0.001774,80.074718,0.008788,
750,870,3.188824,-11.670131,0.999996,0.000248,-0.004995,0.010343,0.001152,0.010429,-0.005081,85.728396,0.010430,
1620,560,-1.602249,-15.301508,0.999995,0.000266,-0.005459,0.010432,0.000536,0.010450,-0.005478,88.068895,0.010454,
670,1150,3.676416,-8.922379,0.999997,0.000207,-0.004590,0.009498,-0.000675,0.009530,-0.004623,-87.262716,0.009532,
1460,1650,-0.614661,-2.871347,0.999996,0.000250,-0.003367,0.008392,-0.000544,0.008417,-0.003392,-87.355277,0.008470,
910,780,1.854006,-13.069972,0.999993,0.000305,-0.007044,0.012301,0.000130,0.012302,-0.007045,89.614670,0.012345,
1000,390,0.607215,-17.408616,0.999997,0.000221,-0.003248,0.008439,-0.000429,0.008454,-0.003263,-87.900973,0.008527,
1690,2020,-0.096048,-0.123285,0.999997,0.000000,-0.000400,0.007264,0.002103,0.007803,-0.000939,75.622988,0.008520,
1560,750,-1.780076,-13.407461,0.999997,0.000237,-0.006955,0.012060,0.000149,0.012061,-0.006956,89.550142,0.012109,
1530,730,-1.496882,-13.787508,0.999995,0.000273,-0.006988,0.011815,0.000801,0.011849,-0.007022,87.566548,0.011916,
1830,190,-1.409009,-18.389529,0.999994,0.000296,-0.004729,0.010310,-0.000799,0.010352,-0.004771,-86.967279,0.010363,
1530,180,-0.397662,-19.017234,0.999996,0.000234,-0.001816,0.007683,-0.000853,0.007759,-0.001892,-84.911909,0.008091,
810,1860,0.736933,-1.400605,0.999996,0.000231,-0.003019,0.008898,-0.001250,0.009028,-0.003149,-84.074527,0.009164,
1060,1930,0.120163,-0.674376,0.999998,0.000145,-0.000895,0.006657,-0.000448,0.006684,-0.000922,-86.615219,0.007245,
920,500,1.087921,-16.180685,0.999997,0.000230,-0.004649,0.009616,-0.000837,0.009665,-0.004698,-86.652151,0.009667,
1420,140,-0.155562,-19.378381,0.999998,0.000189,-0.001182,0.006844,-0.000463,0.006870,-0.001209,-86.709698,0.007336,
1440,1720,-0.478053,-2.261540,0.999996,0.000224,-0.002776,0.007975,-0.000208,0.007979,-0.002780,-88.893141,0.008100,
880,690,1.726230,-14.020841,0.999995,0.000238,-0.006532,0.011361,-0.000391,0.011370,-0.006541,-88.747943,0.011413,
1860,1570,-2.650771,-4.863360,0.999995,0.000261,-0.005026,0.010077,-0.000076,0.010077,-0.005027,-89.710812,0.010077,
1870,950,-4.113309,-10.743709,0.999997,0.000209,-0.004218,0.008565,-0.000201,0.008568,-0.004221,-89.098353,0.008568,
1400,940,-1.794173,-12.205138,0.999983,0.000486,-0.005641,0.015886,0.007025,0.017976,-0.007731,73.433070,0.018034,
1490,530,-0.880277,-16.083997,0.999996,0.000248,-0.004705,0.009350,0.001285,0.009466,-0.004821,84.819041,0.009467,
720,370,1.729582,-16.845692,0.999995,0.000299,-0.004873,0.010084,-0.000024,0.010084,-0.004873,-89.908475,0.010086,
1300,520,-0.176462,-16.748165,0.999997,0.000195,-0.002802,0.006987,0.000828,0.007057,-0.002872,85.198144,0.007097,
1800,240,-1.523081,-17.977594,0.999995,0.000277,-0.004610,0.010148,-0.000792,0.010191,-0.004652,-86.938391,0.010204,
590,1100,4.131048,-9.461931,0.999997,0.000217,-0.004133,0.008470,-0.000111,0.008471,-0.004134,-89.497688,0.008472,
1140,1360,0.232589,-4.652501,0.999997,0.000205,-0.003484,0.006334,0.002888,0.007120,-0.004271,74.764588,0.007167,
1780,1470,-2.540278,-5.639101,0.999996,0.000243,-0.005254,0.010338,0.000052,0.010339,-0.005254,89.809850,0.010339,
1660,1750,-1.152896,-2.438432,0.999997,0.000245,-0.004164,0.009526,0.000294,0.009532,-0.004170,88.770262,0.009557,
1370,590,-0.405228,-16.035994,0.999997,0.000202,-0.003753,0.007765,0.001865,0.008059,-0.004047,81.029753,0.008059,
890,1350,1.709248,-6.269728,0.999995,0.000276,-0.006590,0.011569,0.000391,0.011577,-0.006598,88.766840,0.011615,
1040,1400,0.667755,-4.939951,0.999995,0.000279,-0.005332,0.009297,0.002501,0.009713,-0.005748,80.563294,0.009767,
710,1410,2.586472,-6.186690,0.999995,0.000258,-0.005465,0.010485,-0.000275,0.010490,-0.005470,-89.012926,0.010493,
1270,190,-0.042265,-19.087911,0.999998,0.000158,-0.001072,0.006613,-0.000065,0.006613,-0.001072,-89.515152,0.007099,
830,1450,1.788047,-5.383793,0.999995,0.000251,-0.005751,0.010697,0.000403,0.010707,-0.005761,88.598198,0.010718,
560,1040,4.290266,-9.975372,0.999930,0.000000,-0.003668,0.008086,-0.000214,0.008089,-0.003672,-88.956920,0.008101,
1190,1340,0.085339,-4.518984,0.999997,0.000220,-0.002393,0.004428,0.001769,0.004859,-0.002824,76.287948,0.004881,
1110,1350,0.348606,-4.909784,0.999995,0.000268,-0.004435,0.007463,0.003350,0.008342,-0.005313,75.307784,0.008445,
1000,800,1.264838,-13.338234,0.999993,0.000325,-0.007802,0.012622,-0.001573,0.012742,-0.007922,-85.621029,0.012868,
1440,1650,-0.552236,-2.830366,0.999997,0.000256,-0.003129,0.008176,-0.000542,0.008202,-0.003155,-87.258892,0.008274,
750,850,3.120659,-11.879498,0.999995,0.000253,-0.005169,0.010516,0.001161,0.010601,-0.005254,85.790858,0.010601,
1740,1420,-2.483956,-6.043074,0.999996,0.000253,-0.005506,0.010510,0.000188,0.010512,-0.005508,89.328694,0.010516,
620,770,3.491405,-12.461260,0.999995,0.000253,-0.004909,0.009842,0.000511,0.009860,-0.004927,88.017806,0.009860,
1690,30,-0.067452,-20.072777,0.999996,0.000000,-0.000132,0.007288,-0.002333,0.007960,-0.000804,-73.920643,0.008764,
1700,560,-2.036145,-15.033731,0.999996,0.000246,-0.005417,0.010409,0.000181,0.010411,-0.005419,89.343230,0.010414,
1010,300,0.461242,-18.159073,0.999997,0.000213,-0.002476,0.007871,0.000051,0.007872,-0.002476,89.719923,0.008050,
1190,1830,0.056095,-1.308034,0.999998,0.000150,-0.001312,0.006792,-0.000018,0.006792,-0.001312,-89.875407,0.007205,
1340,110,-0.062503,-19.598774,0.999998,0.000163,-0.000692,0.006433,-0.000269,0.006443,-0.000702,-87.843468,0.007069,
1710,880,-3.206710,-11.569874,0.999996,0.000227,-0.004991,0.010410,-0.001170,0.010498,-0.005079,-85.680256,0.010500,
780,590,2.029235,-14.773315,0.999997,0.000189,-0.005580,0.010583,-0.000152,0.010584,-0.005581,-89.461396,0.010590,
960,1220,1.759008,-7.554565,0.999994,0.000322,-0.007494,0.013188,-0.000022,0.013188,-0.007494,-89.939516,0.013228,
1620,540,-1.555966,-15.510301,0.999995,0.000253,-0.005351,0.010334,0.000569,0.010355,-0.005371,87.926831,0.010357,
800,770,2.526568,-12.847742,0.999994,0.000293,-0.005972,0.011213,0.000846,0.011255,-0.006014,87.189142,0.011264,
1050,240,0.286036,-18.668922,0.999997,0.000200,-0.002036,0.007405,0.000153,0.007407,-0.002039,89.072008,0.007652,
880,670,1.666710,-14.248199,0.999995,0.000260,-0.006382,0.011239,-0.000528,0.011255,-0.006398,-88.285045,0.011290,
670,390,2.035575,-16.479254,0.999997,0.000202,-0.004956,0.010096,-0.000096,0.010096,-0.004957,-89.636417,0.010097,
1570,1550,-1.224300,-4.119684,0.999996,0.000241,-0.004997,0.009878,-0.000790,0.009920,-0.005038,-86.967652,0.009921,
950,180,0.365231,-19.032447,0.999997,0.000233,-0.001962,0.007583,0.000732,0.007639,-0.002017,85.642541,0.007917,
1440,1700,-0.497728,-2.417933,0.999996,0.000228,-0.002903,0.008031,-0.000323,0.008040,-0.002912,-88.310681,0.008142,
1530,710,-1.437011,-14.023185,0.999995,0.000272,-0.006814,0.011586,0.000967,0.011637,-0.006865,87.000733,0.011699,
1300,670,-0.164593,-15.767880,0.999998,0.000202,-0.002850,0.005819,0.001994,0.006256,-0.003286,77.648101,0.006258,
1420,120,-0.132323,-19.512411,0.999998,0.000172,-0.000956,0.006748,-0.000518,0.006783,-0.000991,-86.172531,0.007327,
1040,1930,0.140401,-0.682366,0.999998,0.000144,-0.001027,0.006742,-0.000507,0.006775,-0.001060,-86.280114,0.007289,
1830,410,-2.278987,-16.154945,0.999996,0.000226,-0.004989,0.010057,0.000131,0.010058,-0.004991,89.501748,0.010058,
1000,50,0.050231,-19.965242,0.999998,0.000187,-0.000149,0.006372,0.000763,0.006460,-0.000237,83.410571,0.007326,
1760,230,-1.294206,-18.200690,0.999995,0.000255,-0.004624,0.009953,-0.000775,0.009994,-0.004665,-86.965847,0.010002,
1880,1390,-3.311116,-6.760242,0.999995,0.000257,-0.004996,0.010074,0.000117,0.010075,-0.004997,89.554749,0.010075,
1300,500,-0.173164,-16.890065,0.999997,0.000192,-0.002749,0.007044,0.000690,0.007093,-0.002798,85.989390,0.007145,
1650,1080,-3.192373,-9.541419,0.999996,0.000249,-0.004195,0.010373,0.000759,0.010413,-0.004235,87.024271,0.010473,
1630,1000,-3.143980,-10.367381,0.999996,0.000236,-0.003957,0.010341,-0.000396,0.010352,-0.003968,-88.413463,0.010445,
590,1290,3.619547,-7.730805,0.999995,0.000279,-0.004863,0.009749,-0.000307,0.009755,-0.004870,-88.797393,0.009755,
560,1030,4.301087,-10.050008,0.999942,0.000000,-0.003410,0.008154,0.000080,0.008155,-0.003411,89.602886,0.008191,
1390,1820,-0.235570,-1.432039,0.999997,0.000190,-0.001604,0.007238,0.000216,0.007243,-0.001609,88.600365,0.007607,
1040,1380,0.686017,-5.127748,0.999994,0.000291,-0.005579,0.009563,0.002643,0.010011,-0.006027,80.377583,0.010080,
1800,220,-1.431203,-18.180258,0.999995,0.000261,-0.004514,0.010173,-0.001029,0.010244,-0.004585,-86.012078,0.010263,
1110,1790,0.202350,-1.623751,0.999998,0.000172,-0.001828,0.007164,0.000006,0.007164,-0.001828,89.958730,0.007444,
920,480,1.053763,-16.372748,0.999997,0.000235,-0.004530,0.009517,-0.000765,0.009558,-0.004572,-86.891785,0.009561,
890,1330,1.777599,-6.508395,0.999996,0.000280,-0.006707,0.011779,0.000223,0.011782,-0.006709,89.309676,0.011820,
660,1650,2.129505,-3.866174,0.999996,0.000226,-0.004946,0.010115,0.000131,0.010116,-0.004947,89.500291,0.010117,
1040,410,0.503102,-17.325594,0.999996,0.000248,-0.003178,0.008083,-0.000651,0.008120,-0.003216,-86.701264,0.008179,
1670,970,-3.269847,-10.663503,0.999996,0.000215,-0.004284,0.010249,-0.000752,0.010288,-0.004323,-87.046653,0.010331,
1680,2020,-0.091842,-0.120161,0.999998,0.000000,-0.000833,0.007198,0.001939,0.007642,-0.001276,77.111519,0.008187,
750,830,3.045575,-12.092153,0.999996,0.000244,-0.005324,0.010615,0.001132,0.010695,-0.005404,85.957228,0.010696,
1080,110,0.085030,-19.591219,0.999998,0.000192,-0.000540,0.006521,0.000452,0.006550,-0.000569,86.352904,0.007257,
1190,1810,0.064706,-1.447407,0.999998,0.000146,-0.001458,0.006857,-0.000020,0.006857,-0.001458,-89.861523,0.007225,
800,590,1.917598,-14.836657,0.999997,0.000169,-0.005577,0.010593,-0.000248,0.010597,-0.005581,-89.123269,0.010602,
620,750,3.420525,-12.659429,0.999996,0.000232,-0.004947,0.009815,0.000475,0.009830,-0.004962,88.157128,0.009831,
1270,170,-0.041176,-19.218679,0.999998,0.000160,-0.000928,0.006571,-0.000042,0.006571,-0.000928,-89.680053,0.007113,
1620,520,-1.509026,-15.719610,0.999995,0.000264,-0.005242,0.010226,0.000551,0.010245,-0.005262,87.962831,0.010247,
1700,540,-1.981750,-15.241811,0.999996,0.000263,-0.005324,0.010367,0.000252,0.010371,-0.005328,89.080849,0.010372,
880,650,1.611382,-14.472737,0.999995,0.000291,-0.006193,0.011094,-0.000625,0.011117,-0.006215,-87.931606,0.011143,
1280,670,-0.107883,-15.841248,0.999997,0.000231,-0.002601,0.005360,0.001571,0.005659,-0.002900,79.231814,0.005659,
960,680,1.178034,-14.505137,0.999995,0.000266,-0.006453,0.011066,-0.001547,0.011202,-0.006588,-84.992339,0.011260,
1530,690,-1.379587,-14.254305,0.999996,0.000254,-0.006623,0.011351,0.001081,0.011416,-0.006688,86.569278,0.011472,
1400,370,-0.394177,-17.696264,0.999996,0.000230,-0.002828,0.007837,0.000443,0.007856,-0.002846,87.627922,0.007954,
1580,1130,-2.728261,-8.940739,0.999996,0.000237,-0.004929,0.011460,0.001465,0.011590,-0.005059,84.930723,0.011621,
1020,1930,0.161728,-0.691237,0.999998,0.000199,-0.000948,0.006825,-0.000630,0.006875,-0.000998,-85.397560,0.007430,
1440,1680,-0.522551,-2.584367,0.999997,0.000231,-0.002985,0.008231,-0.000351,0.008242,-0.002996,-88.210890,0.008344,
840,710,2.048900,-13.646535,0.999995,0.000277,-0.006316,0.011410,0.000135,0.011411,-0.006317,89.564326,0.011433,
810,380,1.338988,-17.011445,0.999996,0.000246,-0.004581,0.009770,-0.000093,0.009771,-0.004582,-89.630480,0.009777,
1680,750,-2.548925,-13.030172,0.999995,0.000267,-0.005907,0.011053,-0.000749,0.011086,-0.005940,-87.475260,0.011095,
1420,540,-0.580984,-16.256443,0.999996,0.000240,-0.004138,0.008528,0.001594,0.008726,-0.004335,82.934443,0.008726,
1760,210,-1.197400,-18.399012,0.999997,0.000206,-0.004506,0.009962,-0.000991,0.010030,-0.004573,-86.099341,0.010043,
1380,1730,-0.306926,-2.092096,0.999997,0.000217,-0.002169,0.007544,-0.000100,0.007545,-0.002170,-89.407565,0.007768,
670,1130,3.720529,-9.112820,0.999997,0.000203,-0.004549,0.009485,-0.000703,0.009520,-0.004584,-87.140789,0.009522,
1000,780,1.187297,-13.586946,0.999993,0.000322,-0.007634,0.012270,-0.001804,0.012432,-0.007796,-84.863814,0.012565,
790,1110,3.222243,-9.237829,0.999996,0.000250,-0.004479,0.010299,-0.000960,0.010362,-0.004541,-86.297017,0.010388,
1830,170,-1.284639,-18.600918,0.999995,0.000274,-0.004708,0.010445,-0.001013,0.010513,-0.004776,-86.190840,0.010527,
1300,480,-0.171089,-17.030941,0.999998,0.000179,-0.002700,0.007090,0.000590,0.007126,-0.002735,86.564341,0.007189,
1800,200,-1.325842,-18.388446,0.999995,0.000252,-0.004375,0.010258,-0.001251,0.010364,-0.004481,-85.148045,0.010396,
560,1020,4.296123,-10.140388,0.999931,0.000000,-0.003163,0.008140,0.000300,0.008148,-0.003171,88.481432,0.008215,
1630,1080,-3.110833,-9.532856,0.999995,0.000283,-0.004122,0.010524,0.000829,0.010571,-0.004168,86.770063,0.010649,
1730,1000,-3.555961,-10.349643,0.999997,0.000201,-0.004288,0.009752,-0.000364,0.009762,-0.004298,-88.514136,0.009785,
1040,1360,0.706703,-5.320880,0.999995,0.000268,-0.005870,0.009851,0.002781,0.010329,-0.006347,80.257140,0.010419,
1840,1730,-2.054803,-3.183272,0.999997,0.000220,-0.004840,0.009974,-0.000069,0.009975,-0.004840,-89.734934,0.009976,
1360,1670,-0.304507,-2.523955,0.999997,0.000232,-0.002517,0.007563,-0.000361,0.007576,-0.002530,-87.953836,0.007714,
880,970,2.903126,-10.708914,0.999996,0.000256,-0.004086,0.011040,0.001023,0.011109,-0.004155,86.150004,0.011226,
750,810,2.970808,-12.305776,0.999997,0.000239,-0.005424,0.010627,0.001055,0.010696,-0.005493,86.255959,0.010697,
1620,500,-1.462394,-15.922269,0.999994,0.000302,-0.005078,0.010084,0.000536,0.010103,-0.005097,87.978535,0.010103,
1680,30,-0.065861,-20.076351,0.999996,0.000000,-0.000481,0.007151,-0.002074,0.007679,-0.001009,-75.738842,0.008345,
1100,110,0.075512,-19.595302,0.999998,0.000178,-0.000588,0.006498,0.000389,0.006519,-0.000610,86.863494,0.007202,
1110,1770,0.221487,-1.772055,0.999998,0.000171,-0.001989,0.007305,0.000032,0.007305,-0.001989,89.804050,0.007553,
1140,1340,0.232690,-4.780503,0.999996,0.000222,-0.003592,0.006226,0.003209,0.007182,-0.004548,73.412378,0.007266,
1620,750,-2.179730,-13.192400,0.999995,0.000235,-0.006399,0.011580,-0.000470,0.011592,-0.006411,-88.503830,0.011614,
1270,150,-0.033098,-19.352303,0.999998,0.000168,-0.000817,0.006498,-0.000092,0.006499,-0.000818,-89.277887,0.007079,
890,570,1.365086,-15.370428,0.999995,0.000273,-0.005492,0.010375,-0.000853,0.010420,-0.005538,-86.931377,0.010427,
630,1620,2.369216,-4.267329,0.999997,0.000219,-0.005027,0.010088,0.000126,0.010089,-0.005028,89.520640,0.010089,
830,1470,1.735778,-5.167254,0.999995,0.000255,-0.005651,0.010599,0.000439,0.010611,-0.005663,88.454969,0.010619,
960,660,1.135626,-14.724605,0.999995,0.000265,-0.006171,0.010768,-0.001553,0.010910,-0.006312,-84.804084,0.010954,
1190,1790,0.066409,-1.581685,0.999998,0.000171,-0.001574,0.006946,0.000024,0.006946,-0.001574,89.841042,0.007284,
1300,650,-0.168361,-15.886388,0.999998,0.000197,-0.002851,0.006023,0.001787,0.006369,-0.003198,79.028916,0.006369,
1700,1750,-1.329109,-2.544360,0.999997,0.000234,-0.004300,0.009734,0.000353,0.009743,-0.004309,88.560246,0.009764,
1240,1930,-0.005770,-0.645825,0.999999,0.000131,-0.000712,0.006324,-0.000011,0.006324,-0.000712,-89.909752,0.006928,
1420,560,-0.595588,-16.081946,0.999996,0.000238,-0.004295,0.008558,0.001749,0.008792,-0.004529,82.388671,0.008793,
1530,670,-1.328809,-14.481723,0.999995,0.000281,-0.006410,0.011135,0.001167,0.011212,-0.006487,86.211234,0.011258,
1700,520,-1.929166,-15.450274,0.999995,0.000259,-0.005263,0.010356,0.000287,0.010361,-0.005268,88.949200,0.010362,
810,360,1.282347,-17.209907,0.999996,0.000235,-0.004549,0.009662,-0.000033,0.009662,-0.004549,-89.866735,0.009667,
740,450,1.861264,-16.095725,0.999996,0.000245,-0.004993,0.010088,-0.000228,0.010092,-0.004997,-89.134975,0.010092,
670,1090,3.801016,-9.493979,0.999997,0.000217,-0.004425,0.009340,-0.000379,0.009351,-0.004436,-88.424892,0.009355,
1000,760,1.110876,-13.832913,0.999993,0.000299,-0.007405,0.011914,-0.001978,0.012114,-0.007605,-84.213935,0.012245,
890,1560,1.220484,-4.030121,0.999994,0.000310,-0.004934,0.009818,0.000722,0.009853,-0.004969,87.204795,0.009853,
1390,940,-1.743116,-12.435741,0.999980,0.000550,-0.004858,0.015827,0.008030,0.018578,-0.007610,71.086938,0.018679,
1680,730,-2.473365,-13.252894,0.999994,0.000276,-0.005963,0.011085,-0.000625,0.011108,-0.005986,-87.903762,0.011119,
1490,550,-0.904648,-15.892505,0.999996,0.000225,-0.004843,0.009510,0.001355,0.009636,-0.004970,84.653063,0.009638,
1710,420,-1.713314,-16.441244,0.999995,0.000271,-0.004909,0.010103,0.000218,0.010106,-0.004913,89.167842,0.010107,
1440,1660,-0.542442,-2.749718,0.999997,0.000254,-0.003068,0.008149,-0.000493,0.008171,-0.003089,-87.490620,0.008251,
1820,530,-2.580667,-14.964909,0.999995,0.000245,-0.005131,0.010165,0.000077,0.010165,-0.005131,89.713002,0.010165,
660,1110,3.809856,-9.310946,0.999996,0.000218,-0.004497,0.009410,-0.000656,0.009441,-0.004528,-87.307307,0.009443,
1840,1710,-2.122269,-3.382190,0.999997,0.000225,-0.004827,0.009965,-0.000095,0.009966,-0.004827,-89.631238,0.009968,
1040,1340,0.731352,-5.522352,0.999995,0.000264,-0.006205,0.010150,0.002909,0.010652,-0.006707,80.208491,0.010771,
1830,130,-1.011354,-19.022010,0.999996,0.000240,-0.004565,0.010518,-0.001572,0.010680,-0.004727,-84.113716,0.010703,
1850,960,-4.039052,-10.675786,0.999996,0.000237,-0.004282,0.008748,-0.000155,0.008750,-0.004284,-89.320180,0.008751,
1300,460,-0.169092,-17.176352,0.999998,0.000172,-0.002621,0.007174,0.000489,0.007198,-0.002645,87.148021,0.007282,
1800,180,-1.219889,-18.591729,0.999996,0.000241,-0.004177,0.010222,-0.001609,0.010400,-0.004354,-83.702040,0.010446,
560,1010,4.267604,-10.220219,0.999953,0.000000,-0.002964,0.007932,0.000361,0.007944,-0.002975,88.103062,0.008027,
1670,2020,-0.081244,-0.116460,0.999998,0.000000,-0.000888,0.007154,0.001864,0.007565,-0.001299,77.560763,0.008090,
1620,480,-1.421072,-16.123283,0.999994,0.000299,-0.004909,0.009956,0.000499,0.009972,-0.004926,88.080022,0.009973,
1760,1390,-2.693508,-6.415652,0.999995,0.000287,-0.005421,0.010491,0.000372,0.010499,-0.005430,88.661701,0.010502,
750,790,2.895766,-12.519830,0.999996,0.000271,-0.005518,0.010756,0.001019,0.010820,-0.005581,86.431444,0.010821,
1600,750,-2.050376,-13.256959,0.999996,0.000212,-0.006583,0.011779,-0.000297,0.011784,-0.006588,-89.072884,0.011811,
1790,1640,-2.093935,-3.924439,0.999994,0.000259,-0.004982,0.010134,-0.000168,0.010136,-0.004984,-89.362455,0.010136,
890,1310,1.850456,-6.745024,0.999996,0.000272,-0.006779,0.011929,0.000021,0.011929,-0.006779,89.935189,0.011966,
1570,1530,-1.263878,-4.321861,0.999997,0.000244,-0.005112,0.010032,-0.000809,0.010075,-0.005155,-86.951288,0.010076,
1270,130,-0.029756,-19.479317,0.999998,0.000182,-0.000675,0.006387,-0.000086,0.006388,-0.000676,-89.306256,0.007019,
1300,590,-0.175951,-16.265725,0.999998,0.000195,-0.002896,0.006597,0.001291,0.006770,-0.003069,82.391649,0.006779,
960,640,1.101468,-14.936008,0.999995,0.000265,-0.005886,0.010372,-0.001549,0.010519,-0.006032,-84.604900,0.010556,
1110,1750,0.233808,-1.916881,0.999997,0.000187,-0.002080,0.007272,0.000140,0.007274,-0.002083,89.142940,0.007492,
1360,110,-0.074517,-19.595048,0.999998,0.000172,-0.000594,0.006493,-0.000366,0.006512,-0.000613,-87.048980,0.007191,
1700,500,-1.875421,-15.658449,0.999996,0.000223,-0.005197,0.010285,0.000288,0.010290,-0.005202,88.934441,0.010291,
1190,1770,0.074899,-1.726544,0.999998,0.000165,-0.001726,0.007035,0.000009,0.007036,-0.001726,89.940150,0.007334,
1580,230,-0.649089,-18.556264,0.999997,0.000203,-0.003023,0.008528,-0.000701,0.008571,-0.003065,-86.538672,0.008686,
670,1070,3.815587,-9.679577,0.999998,0.000177,-0.004369,0.009317,-0.000246,0.009322,-0.004374,-88.968678,0.009328,
1560,590,-1.335133,-15.212472,0.999993,0.000316,-0.005637,0.010398,0.000986,0.010459,-0.005697,86.493523,0.010473,
910,840,2.143344,-12.317277,0.999995,0.000256,-0.006675,0.012531,0.000893,0.012572,-0.006717,87.342776,0.012582,
1220,1930,0.008849,-0.647224,0.999998,0.000147,-0.000742,0.006327,-0.000009,0.006327,-0.000742,-89.928540,0.006917,
1830,110,-0.863095,-19.237067,0.999995,0.000245,-0.004332,0.010505,-0.001971,0.010763,-0.004589,-82.562444,0.010801,
1420,580,-0.606062,-15.907247,0.999995,0.000244,-0.004411,0.008657,0.001868,0.008919,-0.004673,82.020572,0.008922,
640,1110,3.901418,-9.326743,0.999997,0.000219,-0.004409,0.009234,-0.000533,0.009255,-0.004430,-87.764567,0.009258,
1820,510,-2.521532,-15.167106,0.999994,0.000268,-0.005123,0.010186,0.000106,0.010186,-0.005123,89.603678,0.010186,
880,1030,2.990170,-10.052797,0.999996,0.000265,-0.003674,0.010843,-0.000079,0.010843,-0.003675,-89.689069,0.011029,
1040,1760,0.379134,-1.920206,0.999997,0.000225,-0.002532,0.007661,0.000094,0.007662,-0.002533,89.472138,0.007807,
750,770,2.814006,-12.738608,0.999996,0.000280,-0.005599,0.010827,0.000920,0.010878,-0.005650,86.804383,0.010881,
680,1990,0.356713,-0.391716,0.999996,0.000281,-0.001428,0.009325,-0.003771,0.010516,-0.002618,-72.478028,0.010948,
710,1390,2.654260,-6.396773,0.999995,0.000265,-0.005490,0.010488,-0.000365,0.010497,-0.005499,-88.690853,0.010500,
1000,530,0.758410,-16.183620,0.999996,0.000245,-0.004344,0.009017,-0.001315,0.009145,-0.004472,-84.433699,0.009146,
560,1000,4.257954,-10.297880,0.999969,0.000000,-0.002876,0.007671,0.000035,0.007671,-0.002876,89.807233,0.007751,
680,1590,2.202550,-4.411072,0.999995,0.000284,-0.005088,0.010187,0.000162,0.010189,-0.005090,89.391943,0.010189,
1350,1300,-0.367832,-5.262056,0.999995,0.000261,-0.005010,0.007597,-0.004077,0.008801,-0.006214,-73.551339,0.009046,
1620,1790,-0.884342,-1.982650,0.999997,0.000209,-0.003310,0.008991,0.000661,0.009027,-0.003345,86.932187,0.009127,
1440,650,-0.755854,-15.172024,0.999995,0.000285,-0.005465,0.009628,0.002294,0.009969,-0.005806,81.545777,0.010014,
1370,570,-0.402485,-16.191999,0.999997,0.000195,-0.003670,0.007723,0.001737,0.007982,-0.003929,81.519657,0.007983,
1740,1400,-2.547672,-6.253487,0.999995,0.000269,-0.005543,0.010551,0.000314,0.010557,-0.005549,88.883881,0.010562,
860,970,2.984739,-10.694918,0.999995,0.000284,-0.004131,0.010815,0.000973,0.010878,-0.004194,86.288992,0.010973,
620,1400,3.091713,-6.545635,0.999997,0.000200,-0.005076,0.010111,-0.000228,0.010115,-0.005079,-89.140329,0.010115,
1530,650,-1.284921,-14.702984,0.999996,0.000263,-0.006171,0.010856,0.001208,0.010941,-0.006257,85.961312,0.010979,
1690,900,-3.175802,-11.379247,0.999996,0.000256,-0.004867,0.010527,-0.001221,0.010623,-0.004963,-85.494437,0.010631,
1020,1350,0.842637,-5.563496,0.999994,0.000320,-0.006319,0.010524,0.002542,0.010899,-0.006694,81.602813,0.010993,
1730,400,-1.756143,-16.580986,0.999996,0.000259,-0.004879,0.010141,0.000118,0.010142,-0.004880,89.550780,0.010144,
1270,110,-0.022700,-19.607145,0.999998,0.000169,-0.000562,0.006298,-0.000095,0.006299,-0.000563,-89.203713,0.006971,
1670,30,-0.059521,-20.077363,0.999997,0.000000,-0.000646,0.007108,-0.001963,0.007577,-0.001115,-76.571117,0.008181,
1800,160,-1.093233,-18.800633,0.999997,0.000251,-0.003943,0.010289,-0.001971,0.010557,-0.004211,-82.257879,0.010628,
1530,50,-0.074677,-19.956629,0.999998,0.000167,-0.000294,0.006585,-0.001036,0.006737,-0.000446,-81.621681,0.007535,
1670,950,-3.220430,-10.873154,0.999995,0.000250,-0.004451,0.010273,-0.000970,0.010337,-0.004515,-86.246025,0.010364,
1550,300,-0.741405,-17.998612,0.999997,0.000212,-0.003062,0.008658,-0.000262,0.008664,-0.003068,-88.720089,0.008786,
1380,570,-0.438869,-16.155096,0.999997,0.000206,-0.003723,0.007866,0.001692,0.008108,-0.003964,81.861943,0.008108,
1390,930,-1.675207,-12.580643,0.999985,0.000437,-0.004622,0.014143,0.007551,0.016804,-0.007283,70.586476,0.016853,
1000,740,1.056019,-14.066306,0.999994,0.000291,-0.007115,0.011506,-0.002120,0.011744,-0.007353,-83.585999,0.011868,
1420,600,-0.618415,-15.734181,0.999995,0.000247,-0.004547,0.008847,0.001983,0.009134,-0.004834,81.752506,0.009139,
1700,480,-1.823248,-15.865719,0.999996,0.000215,-0.005106,0.010176,0.000284,0.010181,-0.005111,88.934181,0.010181,
1300,1930,-0.045268,-0.651153,0.999999,0.000135,-0.000582,0.006391,0.000196,0.006397,-0.000588,88.388243,0.007071,
900,1990,0.121109,-0.307301,0.999998,0.000172,-0.000606,0.006938,-0.001273,0.007147,-0.000815,-80.672492,0.007825,
1620,730,-2.101652,-13.426657,0.999997,0.000222,-0.006387,0.011538,-0.000284,0.011542,-0.006392,-89.092623,0.011565,
800,790,2.607750,-12.622498,0.999993,0.000306,-0.005901,0.011218,0.000983,0.011274,-0.005957,86.725064,0.011280,
1490,570,-0.929007,-15.702025,0.999996,0.000231,-0.004985,0.009646,0.001434,0.009786,-0.005124,84.454421,0.009789,
890,1680,0.985791,-2.886525,0.999996,0.000233,-0.004132,0.009224,0.000234,0.009228,-0.004136,88.994555,0.009244,
1110,1730,0.247465,-2.064682,0.999997,0.000208,-0.002223,0.007400,0.000184,0.007403,-0.002227,88.907029,0.007597,
1570,1510,-1.300926,-4.522703,0.999996,0.000248,-0.005246,0.010137,-0.000833,0.010182,-0.005291,-86.908588,0.010184,
960,620,1.068092,-15.140971,0.999995,0.000265,-0.005693,0.010228,-0.001518,0.010371,-0.005837,-84.602935,0.010398,
1560,570,-1.295082,-15.419588,0.999995,0.000293,-0.005425,0.010263,0.000945,0.010320,-0.005482,86.565748,0.010327,
1300,440,-0.164504,-17.318965,0.999998,0.000171,-0.002524,0.007182,0.000383,0.007197,-0.002540,87.741724,0.007300,
690,2010,0.204175,-0.216358,0.999998,0.000207,-0.000903,0.008375,-0.003355,0.009461,-0.001989,-72.061772,0.009977,
570,1810,1.993915,-2.603189,0.999995,0.000252,-0.004799,0.009650,-0.000080,0.009651,-0.004799,-89.684638,0.009651,
880,630,1.557451,-14.692414,0.999995,0.000273,-0.005986,0.010894,-0.000707,0.010924,-0.006016,-87.606573,0.010942,
1880,1720,-2.282131,-3.430113,0.999996,0.000202,-0.004914,0.009828,-0.000093,0.009829,-0.004915,-89.638591,0.009829,
1260,670,-0.061046,-15.883618,0.999998,0.000163,-0.002266,0.005038,0.000882,0.005143,-0.002371,83.211587,0.005149,
560,990,4.249958,-10.368576,0.999967,0.000000,-0.002857,0.007881,-0.000401,0.007896,-0.002871,-87.862586,0.007993,
660,1590,2.304180,-4.476493,0.999996,0.000258,-0.005059,0.010171,0.000184,0.010174,-0.005061,89.309347,0.010174,
1800,530,-2.478070,-15.026289,0.999995,0.000260,-0.005155,0.010192,0.000081,0.010192,-0.005155,89.697670,0.010193,
830,1490,1.684200,-4.954187,0.999996,0.000245,-0.005509,0.010474,0.000472,0.010488,-0.005523,88.309300,0.010493,
1560,1130,-2.629620,-8.909300,0.999995,0.000269,-0.005059,0.011793,0.001442,0.011915,-0.005182,85.145315,0.011949,
790,1310,2.489576,-7.056001,0.999995,0.000284,-0.005985,0.011119,-0.000691,0.011147,-0.006013,-87.690798,0.011159,
1290,1380,-0.136144,-4.383513,0.999996,0.000259,-0.002687,0.005502,-0.001870,0.005909,-0.003094,-77.726040,0.005911,
1370,550,-0.398101,-16.344427,0.999997,0.000196,-0.003607,0.007743,0.001628,0.007972,-0.003836,81.995241,0.007974,
1890,1080,-4.216708,-9.642867,0.999997,0.000183,-0.004101,0.008070,0.000014,0.008070,-0.004101,89.932427,0.008071,
1740,1380,-2.619468,-6.467517,0.999995,0.000288,-0.005546,0.010596,0.000416,0.010607,-0.005557,88.525604,0.010611,
1530,630,-1.241527,-14.918386,0.999996,0.000250,-0.005905,0.010577,0.001190,0.010663,-0.005991,85.891167,0.010690,
1140,870,0.846655,-14.530451,0.999977,0.000654,-0.003735,0.003773,-0.002494,0.004526,-0.004488,-73.201522,0.005204,
1350,1400,-0.333737,-4.524883,0.999996,0.000220,-0.003822,0.007350,-0.002554,0.007906,-0.004378,-77.717030,0.007921,
1660,2020,-0.069702,-0.112008,0.999998,0.000000,-0.000788,0.007121,0.001870,0.007540,-0.001208,77.347658,0.008100,
960,650,1.118271,-14.833076,0.999995,0.000278,-0.006026,0.010562,-0.001545,0.010705,-0.006169,-84.722971,0.010746,
620,1840,1.605293,-2.084884,0.999996,0.000238,-0.004890,0.010159,-0.000408,0.010170,-0.004901,-88.449489,0.010173,
1710,1320,-2.666341,-7.035401,0.999994,0.000341,-0.005711,0.010768,0.000706,0.010798,-0.005741,87.550941,0.010806,
1190,1750,0.078146,-1.865473,0.999998,0.000162,-0.001826,0.007016,0.000058,0.007016,-0.001826,89.622917,0.007280,
1270,90,-0.019630,-19.731447,0.999998,0.000164,-0.000410,0.006155,-0.000072,0.006156,-0.000411,-89.373714,0.006884,
1800,580,-2.629468,-14.512736,0.999995,0.000241,-0.005188,0.010287,0.000007,0.010287,-0.005188,89.972873,0.010287,
1670,930,-3.174209,-11.076602,0.999997,0.000230,-0.004628,0.010376,-0.001030,0.010447,-0.004698,-86.092074,0.010464,
1890,770,-3.718175,-12.329448,0.999995,0.000288,-0.004767,0.009601,-0.000204,0.009604,-0.004770,-89.185738,0.009604,
670,540,2.470922,-14.945441,0.999995,0.000276,-0.005184,0.010243,-0.000067,0.010243,-0.005184,-89.752640,0.010244,
920,460,1.021413,-16.563443,0.999998,0.000206,-0.004487,0.009438,-0.000715,0.009475,-0.004524,-87.068414,0.009478,
740,250,1.218049,-18.101725,0.999997,0.000191,-0.003985,0.009834,0.000944,0.009899,-0.004049,86.109790,0.009953,
1220,50,0.001588,-19.976381,0.999998,0.000138,-0.000233,0.005998,0.000027,0.005998,-0.000233,89.748002,0.006795,
1550,280,-0.693130,-18.173892,0.999998,0.000174,-0.002850,0.008595,-0.000425,0.008611,-0.002866,-87.878118,0.008770,
890,840,2.274293,-12.252830,0.999994,0.000311,-0.006486,0.012250,0.001052,0.012309,-0.006545,86.796921,0.012317,
1110,1710,0.262374,-2.213554,0.999997,0.000206,-0.002328,0.007388,0.000281,0.007396,-0.002336,88.342914,0.007561,
1470,1660,-0.636507,-2.809307,0.999997,0.000226,-0.003456,0.008480,-0.000530,0.008504,-0.003480,-87.463595,0.008551,
1700,460,-1.772208,-16.067825,0.999996,0.000228,-0.005015,0.010124,0.000248,0.010128,-0.005019,89.060120,0.010129,
1590,1960,-0.239637,-0.532334,0.999998,0.000168,-0.001361,0.007352,0.001362,0.007559,-0.001569,81.319646,0.007979,
1380,550,-0.434242,-16.311640,0.999997,0.000209,-0.003628,0.007877,0.001574,0.008088,-0.003839,82.349766,0.008092,
720,770,2.980680,-12.677028,0.999996,0.000255,-0.005379,0.010556,0.000866,0.010603,-0.005426,86.898625,0.010604,
1240,670,-0.017747,-15.909312,0.999998,0.000178,-0.002139,0.004869,0.000328,0.004884,-0.002155,87.326360,0.004895,
1570,1490,-1.338276,-4.725236,0.999995,0.000278,-0.005440,0.010281,-0.000868,0.010329,-0.005488,-86.847664,0.010336,
1030,1220,1.214913,-6.995522,0.999991,0.000336,-0.007788,0.012870,0.002119,0.013085,-0.008003,84.203680,0.013193,
1000,720,1.003022,-14.299220,0.999995,0.000290,-0.006781,0.011105,-0.002172,0.011365,-0.007041,-83.175790,0.011473,
1420,1200,-1.241150,-7.118673,0.999993,0.000306,-0.007439,0.012967,-0.002482,0.013265,-0.007737,-83.162719,0.013326,
560,980,4.258338,-10.450818,0.999951,0.000000,-0.003016,0.008198,-0.000488,0.008219,-0.003037,-87.514132,0.008311,
1320,1190,-0.776742,-5.561775,0.999997,0.000222,-0.003787,0.003807,-0.001972,0.004289,-0.004269,-76.275088,0.004941,
1280,1930,-0.035219,-0.650957,0.999998,0.000149,-0.000607,0.006363,0.000140,0.006366,-0.000610,88.846939,0.007026,
860,650,1.733043,-14.393341,0.999995,0.000245,-0.006133,0.011125,-0.000412,0.011135,-0.006142,-88.634153,0.011155,
960,600,1.034859,-15.349680,0.999996,0.000251,-0.005493,0.010089,-0.001463,0.010225,-0.005629,-84.681861,0.010243,
760,670,2.390248,-13.850142,0.999996,0.000270,-0.005729,0.010754,0.000272,0.010758,-0.005734,89.055977,0.010766,
1490,1010,-2.639113,-10.308832,0.999993,0.000318,-0.004075,0.013474,-0.000297,0.013479,-0.004080,-89.029884,0.013824,
1030,1480,0.660987,-4.261253,0.999996,0.000250,-0.004464,0.008870,0.001753,0.009096,-0.004690,82.633655,0.009098,
720,1770,1.442285,-2.458259,0.999994,0.000273,-0.004605,0.010017,-0.000429,0.010030,-0.004617,-88.322594,0.010040,
1880,1730,-2.248509,-3.331479,0.999996,0.000225,-0.004880,0.009871,-0.000091,0.009872,-0.004881,-89.645400,0.009872,
1140,860,0.723900,-14.567040,0.999996,0.000250,-0.003985,0.004062,-0.002345,0.004695,-0.004619,-74.884344,0.005378,
650,1160,3.744629,-8.849760,0.999995,0.000260,-0.004589,0.009345,-0.000617,0.009372,-0.004616,-87.470625,0.009372,
940,670,1.284360,-14.514770,0.999995,0.000259,-0.006381,0.011104,-0.001274,0.011196,-0.006473,-85.855626,0.011241,
1300,420,-0.159792,-17.459992,0.999998,0.000161,-0.002417,0.007189,0.000319,0.007200,-0.002427,88.101026,0.007326,
1230,1400,0.002165,-4.170244,0.999997,0.000170,-0.002211,0.005165,0.000055,0.005165,-0.002211,89.573032,0.005183,
620,1820,1.707013,-2.286479,0.999996,0.000246,-0.004864,0.010030,-0.000268,0.010035,-0.004868,-88.970942,0.010036,
790,520,1.787384,-15.540445,0.999995,0.000249,-0.005239,0.010317,-0.000338,0.010324,-0.005246,-88.754802,0.010325,
1800,600,-2.689116,-14.305244,0.999995,0.000243,-0.005201,0.010295,-0.000085,0.010295,-0.005201,-89.685393,0.010295,
1270,70,-0.013441,-19.853469,0.999998,0.000157,-0.000269,0.006120,-0.000127,0.006122,-0.000272,-88.864958,0.006918,
1660,30,-0.050382,-20.082237,0.999998,0.000000,-0.000641,0.007068,-0.001927,0.007523,-0.001096,-76.719935,0.008128,
1740,1360,-2.691499,-6.680411,0.999995,0.000269,-0.005533,0.010616,0.000476,0.010630,-0.005547,88.311657,0.010634,
1370,530,-0.394395,-16.504793,0.999997,0.000208,-0.003544,0.007821,0.001471,0.008008,-0.003732,82.742104,0.008014,
1880,770,-3.670143,-12.360174,0.999995,0.000289,-0.004780,0.009672,-0.000252,0.009676,-0.004785,-89.000900,0.009676,
570,1800,2.037142,-2.700907,0.999993,0.000287,-0.004744,0.009609,-0.000048,0.009609,-0.004744,-89.807773,0.009610,
810,750,2.388744,-13.098888,0.999993,0.000314,-0.006138,0.011302,0.000644,0.011325,-0.006162,87.888324,0.011340,
940,1330,1.433895,-6.277790,0.999994,0.000281,-0.007001,0.011747,0.000998,0.011800,-0.007054,86.960539,0.011875,
1190,1730,0.082260,-2.005947,0.999998,0.000180,-0.001958,0.007090,0.000083,0.007091,-0.001959,89.471334,0.007323,
830,1930,0.414470,-0.789995,0.999997,0.000213,-0.001585,0.008030,-0.001711,0.008326,-0.001880,-80.203519,0.008733,
1620,460,-1.377268,-16.321387,0.999995,0.000283,-0.004811,0.009902,0.000430,0.009915,-0.004824,88.325940,0.009916,
660,1630,2.189269,-4.068846,0.999997,0.000237,-0.005012,0.010132,0.000157,0.010134,-0.005014,89.404480,0.010134,
600,1690,2.299921,-3.663991,0.999997,0.000221,-0.004902,0.009908,0.000095,0.009908,-0.004903,89.634275,0.009909,
1440,1640,-0.562318,-2.911069,0.999997,0.000254,-0.003195,0.008212,-0.000585,0.008242,-0.003225,-87.073811,0.008306,
1490,240,-0.442423,-18.590304,0.999997,0.000212,-0.002379,0.007896,-0.000393,0.007911,-0.002394,-87.812292,0.008114,
1110,1690,0.274487,-2.361432,0.999997,0.000192,-0.002436,0.007522,0.000327,0.007533,-0.002447,88.122927,0.007685,
1300,750,-0.162054,-15.343835,0.999995,0.000285,-0.003182,0.004826,0.003198,0.005947,-0.004303,70.692299,0.006142,
1670,910,-3.111630,-11.289975,0.999997,0.000224,-0.004849,0.010665,-0.001241,0.010763,-0.004948,-85.455846,0.010775,
1010,1220,1.370158,-7.189613,0.999993,0.000355,-0.007894,0.013246,0.001524,0.013355,-0.008004,85.896980,0.013443,
740,230,1.135112,-18.300615,0.999998,0.000175,-0.003771,0.009759,0.001140,0.009854,-0.003866,85.219239,0.009930,
1570,1470,-1.378651,-4.934460,0.999995,0.000278,-0.005671,0.010404,-0.000871,0.010451,-0.005718,-86.906254,0.010467,
940,1990,0.101252,-0.299385,0.999998,0.000151,-0.000536,0.006778,-0.001049,0.006926,-0.000684,-81.995983,0.007633,
1260,1930,-0.021190,-0.649118,0.999998,0.000162,-0.000682,0.006340,0.000028,0.006340,-0.000682,89.773459,0.006961,
570,460,2.744535,-15.446227,0.999949,0.000873,-0.005671,0.010157,-0.000167,0.010159,-0.005673,-89.396112,0.010182,
1890,630,-3.245296,-13.723820,0.999996,0.000228,-0.005097,0.010121,-0.000108,0.010121,-0.005098,-89.594309,0.010121,
870,840,2.402612,-12.200412,0.999994,0.000312,-0.006245,0.011953,0.001182,0.012030,-0.006322,86.300897,0.012035,
920,440,0.986616,-16.750267,0.999998,0.000194,-0.004364,0.009331,-0.000650,0.009362,-0.004395,-87.290516,0.009368,
1700,440,-1.718638,-16.271244,0.999996,0.000229,-0.004939,0.010093,0.000236,0.010097,-0.004943,89.101851,0.010098,
960,580,1.005575,-15.551404,0.999997,0.000217,-0.005227,0.009900,-0.001415,0.010032,-0.005358,-84.700026,0.010039,
1510,1080,-2.619677,-9.420657,0.999996,0.000217,-0.004326,0.012597,0.000894,0.012644,-0.004373,86.984739,0.012843,
1530,610,-1.202944,-15.125937,0.999996,0.000250,-0.005680,0.010364,0.001185,0.010451,-0.005767,85.797484,0.010470,
1870,60,-0.585442,-19.617732,0.999992,0.000412,-0.003490,0.011670,-0.003864,0.012598,-0.004419,-76.494676,0.012784,
1880,1740,-2.214591,-3.231244,0.999996,0.000240,-0.004849,0.009886,-0.000069,0.009886,-0.004849,-89.731273,0.009887,
1420,1180,-1.390092,-7.382293,0.999994,0.000299,-0.007118,0.013579,-0.002501,0.013877,-0.007416,-83.205534,0.013888,
1320,1200,-0.651934,-5.526821,0.999997,0.000233,-0.004100,0.004150,-0.002138,0.004671,-0.004622,-76.301622,0.005365,
710,660,2.638695,-13.817363,0.999997,0.000258,-0.005489,0.010507,0.000354,0.010515,-0.005497,88.733361,0.010519,
1140,850,0.605602,-14.603595,0.999992,0.000378,-0.004248,0.004664,-0.002681,0.005408,-0.004992,-74.483340,0.006019,
1490,990,-2.592915,-10.583689,0.999993,0.000349,-0.004294,0.013606,-0.000547,0.013623,-0.004311,-88.251338,0.013926,
640,1850,1.455875,-1.895982,0.999994,0.000311,-0.004678,0.010244,-0.000805,0.010287,-0.004721,-86.922169,0.010298,
1050,1480,0.572752,-4.177654,0.999997,0.000203,-0.004334,0.008547,0.001892,0.008819,-0.004606,81.814628,0.008822,
560,970,4.254682,-10.539960,0.999944,0.000000,-0.003241,0.008365,-0.000480,0.008385,-0.003261,-87.635287,0.008454,
570,1790,2.080383,-2.796110,0.999992,0.000337,-0.004661,0.009594,-0.000023,0.009594,-0.004662,-89.909480,0.009595,
1800,620,-2.756477,-14.099285,0.999996,0.000239,-0.005227,0.010257,-0.000190,0.010260,-0.005229,-89.295589,0.010260,
1260,1980,-0.013067,-0.334745,0.999998,0.000186,-0.000315,0.006131,0.000088,0.006132,-0.000316,89.218575,0.006906,
1740,1340,-2.760701,-6.891881,0.999996,0.000251,-0.005521,0.010559,0.000609,0.010582,-0.005544,87.834476,0.010586,
1370,510,-0.385272,-16.662733,0.999997,0.000196,-0.003425,0.007782,0.001319,0.007935,-0.003578,83.374479,0.007948,
940,650,1.239382,-14.736588,0.999995,0.000261,-0.006139,0.010768,-0.001285,0.010865,-0.006236,-85.679039,0.010905,
1650,2020,-0.062369,-0.108117,0.999997,0.000000,-0.000437,0.007079,0.001911,0.007537,-0.000895,76.526435,0.008235,
620,1800,1.795747,-2.489494,0.999996,0.000240,-0.004846,0.010101,-0.000197,0.010103,-0.004848,-89.244824,0.010106,
1700,130,-0.588176,-19.268405,0.999997,0.000220,-0.002241,0.008699,-0.002162,0.009111,-0.002652,-79.216677,0.009372,
800,640,2.063190,-14.297781,0.999996,0.000215,-0.005835,0.010854,-0.000035,0.010854,-0.005835,-89.881404,0.010864,
940,1310,1.499137,-6.516190,0.999996,0.000225,-0.007181,0.012069,0.000813,0.012104,-0.007216,87.586502,0.012178,
830,1910,0.491615,-0.949112,0.999997,0.000220,-0.001829,0.008207,-0.001602,0.008457,-0.002078,-81.149109,0.008814,
900,930,2.666266,-11.189363,0.999996,0.000230,-0.004921,0.011729,0.001473,0.011859,-0.005050,84.983323,0.011902,
930,240,0.553748,-18.533180,0.999997,0.000222,-0.002477,0.008249,0.000598,0.008282,-0.002510,86.819788,0.008494,
1800,1830,-1.455203,-2.029419,0.999996,0.000277,-0.004554,0.010149,0.000934,0.010208,-0.004613,86.379391,0.010224,
1670,1560,-1.708684,-4.353397,0.999995,0.000237,-0.005127,0.010207,-0.000377,0.010216,-0.005136,-88.591607,0.010217,
1290,1360,-0.131673,-4.491485,0.999998,0.000171,-0.002693,0.005253,-0.002087,0.005768,-0.003208,-76.143225,0.005780,
1110,1670,0.286331,-2.514651,0.999998,0.000188,-0.002525,0.007515,0.000404,0.007531,-0.002542,87.702157,0.007662,
1090,1220,0.768765,-6.242039,0.999991,0.000336,-0.006724,0.009919,0.004250,0.010941,-0.007747,76.473468,0.011252,
1190,1710,0.086308,-2.148135,0.999998,0.000174,-0.002040,0.007096,0.000133,0.007098,-0.002042,89.168132,0.007308,
920,1990,0.110833,-0.304745,0.999998,0.000169,-0.000427,0.006863,-0.001190,0.007053,-0.000617,-80.957506,0.007812,
570,450,2.715369,-15.547410,0.999881,0.001306,-0.005959,0.010057,-0.000389,0.010066,-0.005969,-88.610520,0.010124,
1380,530,-0.429057,-16.471259,0.999997,0.000209,-0.003584,0.007936,0.001437,0.008112,-0.003760,82.994182,0.008120,
960,560,0.980332,-15.747309,0.999996,0.000236,-0.004967,0.009710,-0.001322,0.009828,-0.005085,-84.894655,0.009830,
1570,1450,-1.427571,-5.146605,0.999995,0.000262,-0.005827,0.010538,-0.000879,0.010585,-0.005874,-86.933987,0.010606,
1460,1130,-2.066431,-8.518451,0.999994,0.000271,-0.006355,0.014347,-0.000004,0.014347,-0.006355,-89.988299,0.014378,
1420,1160,-1.560355,-7.655059,0.999992,0.000335,-0.006873,0.013827,-0.002607,0.014150,-0.007196,-82.932262,0.014151,
640,830,3.597344,-11.920623,0.999995,0.000257,-0.004761,0.009560,0.000693,0.009594,-0.004794,87.236449,0.009594,
610,960,4.052182,-10.674455,0.999998,0.000170,-0.004234,0.008725,0.000156,0.008727,-0.004236,89.309303,0.008728,
1870,390,-2.416725,-16.220514,0.999995,0.000269,-0.004979,0.009915,0.000118,0.009916,-0.004980,89.544724,0.009916,
1330,1190,-0.809432,-5.730320,0.999996,0.000237,-0.003520,0.004520,-0.002710,0.005348,-0.004348,-73.008614,0.005687,
640,1830,1.559462,-2.102667,0.999995,0.000305,-0.004727,0.010161,-0.000637,0.010189,-0.004754,-87.552837,0.010196,
560,960,4.244057,-10.625424,0.999953,0.000000,-0.003513,0.008160,-0.000287,0.008167,-0.003520,-88.594225,0.008193,
1380,50,-0.029256,-19.971779,0.999998,0.000165,-0.000144,0.006106,-0.000399,0.006131,-0.000170,-86.362742,0.006984,
1490,970,-2.518008,-10.849332,0.999994,0.000316,-0.004667,0.013274,-0.000856,0.013315,-0.004708,-87.275942,0.013504,
1120,530,0.302717,-16.584224,0.999997,0.000199,-0.003074,0.007415,-0.001139,0.007537,-0.003197,-83.873336,0.007566,
1700,420,-1.664276,-16.473948,0.999995,0.000252,-0.004869,0.010071,0.000212,0.010074,-0.004872,89.186777,0.010076,
610,760,3.504666,-12.534305,0.999996,0.000235,-0.004900,0.009801,0.000431,0.009813,-0.004913,88.320778,0.009813,
1000,700,0.961436,-14.519494,0.999996,0.000244,-0.006462,0.010870,-0.002177,0.011139,-0.006731,-82.949071,0.011220,
1010,1820,0.358197,-1.492304,0.999997,0.000228,-0.001916,0.007648,-0.000368,0.007662,-0.001930,-87.798616,0.007971,
1370,490,-0.378386,-16.820795,0.999997,0.000196,-0.003303,0.007733,0.001155,0.007852,-0.003422,84.089931,0.007874,
1740,1320,-2.833044,-7.104466,0.999996,0.000242,-0.005484,0.010518,0.000723,0.010551,-0.005516,87.417950,0.010555,
750,1480,2.150480,-5.323753,0.999996,0.000219,-0.005422,0.010499,0.000112,0.010500,-0.005422,89.596006,0.010502,
670,1050,3.832277,-9.866356,0.999998,0.000169,-0.004368,0.009345,-0.000312,0.009352,-0.004375,-88.695617,0.009359,
620,1780,1.883766,-2.694070,0.999996,0.000243,-0.004834,0.010017,-0.000113,0.010018,-0.004834,-89.562220,0.010020,
1120,1870,0.122840,-1.057316,0.999998,0.000170,-0.001258,0.006783,-0.000170,0.006786,-0.001261,-88.786869,0.007219,
1830,90,-0.683501,-19.446223,0.999995,0.000265,-0.004138,0.010487,-0.002594,0.010934,-0.004584,-80.235348,0.010981,
1800,640,-2.822020,-13.893220,0.999996,0.000228,-0.005240,0.010277,-0.000254,0.010281,-0.005244,-89.060879,0.010282,
1210,1210,0.182774,-4.827446,0.999986,0.000423,-0.007841,0.003027,-0.000180,0.003030,-0.007844,-89.049899,0.007911,
1650,30,-0.043219,-20.085000,0.999998,0.000000,-0.000428,0.007019,-0.001911,0.007481,-0.000890,-76.414583,0.008173,
1260,1960,-0.013520,-0.458714,0.999998,0.000183,-0.000448,0.006205,0.000053,0.006206,-0.000448,89.545468,0.006921,
830,1890,0.571597,-1.118268,0.999996,0.000216,-0.002149,0.008467,-0.001508,0.008677,-0.002359,-82.071233,0.008973,
800,680,2.194179,-13.858285,0.999996,0.000258,-0.005991,0.011000,0.000195,0.011002,-0.005993,89.341472,0.011017,
1480,550,-0.855493,-15.934653,0.999996,0.000254,-0.004801,0.009405,0.001428,0.009547,-0.004943,84.315563,0.009549,
910,240,0.600495,-18.509075,0.999997,0.000185,-0.002484,0.008410,0.000681,0.008452,-0.002526,86.436871,0.008677,
1750,1680,-1.778430,-3.388476,0.999995,0.000297,-0.004897,0.010112,-0.000051,0.010112,-0.004898,-89.803792,0.010114,
1670,1330,-2.396153,-6.825373,0.999995,0.000261,-0.006025,0.011109,0.000552,0.011127,-0.006043,88.156201,0.011141,
1110,1650,0.296824,-2.664388,0.999998,0.000194,-0.002623,0.007428,0.000513,0.007455,-0.002650,87.086237,0.007558,
1300,1990,-0.017044,-0.273745,0.999998,0.000174,-0.000215,0.006104,0.000189,0.006109,-0.000221,88.292496,0.006931,
1300,400,-0.156546,-17.604209,0.999998,0.000163,-0.002340,0.007231,0.000251,0.007238,-0.002346,88.498662,0.007385,
880,930,2.764750,-11.157949,0.999996,0.000247,-0.004815,0.011424,0.001458,0.011554,-0.004945,84.910070,0.011594,
1680,710,-2.397585,-13.476617,0.999997,0.000258,-0.005981,0.011029,-0.000477,0.011042,-0.005995,-88.396031,0.011056,
710,1370,2.724861,-6.607211,0.999995,0.000255,-0.005461,0.010540,-0.000460,0.010553,-0.005474,-88.355065,0.010556,
810,400,1.389942,-16.815095,0.999994,0.000288,-0.004642,0.009818,-0.000189,0.009821,-0.004644,-89.252628,0.009825,
700,1110,3.629308,-9.284595,0.999997,0.000214,-0.004521,0.009749,-0.000773,0.009790,-0.004563,-86.906697,0.009798,
1530,590,-1.169917,-15.332314,0.999997,0.000220,-0.005511,0.010229,0.001189,0.010319,-0.005600,85.706178,0.010331,
960,540,0.955467,-15.938884,0.999997,0.000207,-0.004820,0.009517,-0.001238,0.009623,-0.004926,-85.099707,0.009624,
1090,1200,0.902613,-6.449609,0.999994,0.000284,-0.006145,0.009731,0.004484,0.010911,-0.007324,75.268543,0.011122,
1570,1430,-1.469367,-5.359040,0.999994,0.000274,-0.005972,0.010803,-0.000882,0.010849,-0.006018,-86.998468,0.010870,
920,420,0.951375,-16.939986,0.999998,0.000182,-0.004172,0.009187,-0.000537,0.009209,-0.004194,-87.701121,0.009221,
1880,390,-2.467025,-16.186983,0.999996,0.000269,-0.004961,0.009858,0.000113,0.009859,-0.004962,89.561740,0.009859,
560,950,4.239719,-10.703447,0.999958,0.000000,-0.003626,0.008095,-0.000112,0.008096,-0.003627,-89.450983,0.008110,
1420,1140,-1.724111,-7.950274,0.999990,0.000362,-0.006595,0.014318,-0.002934,0.014721,-0.006998,-82.163720,0.014727,
900,1870,0.472553,-1.208157,0.999995,0.000257,-0.002137,0.008005,-0.000968,0.008097,-0.002228,-84.594522,0.008365,
710,960,3.615452,-10.731893,0.999994,0.000293,-0.004445,0.009734,0.000621,0.009761,-0.004473,87.497963,0.009772,
1870,2000,-0.539161,-0.491250,0.999994,0.000272,-0.003051,0.011407,0.004278,0.012578,-0.004222,74.690970,0.012803,
1490,950,-2.407872,-11.115715,0.999992,0.000328,-0.005191,0.013537,-0.001007,0.013591,-0.005245,-86.930669,0.013709,
1040,1780,0.353072,-1.764833,0.999997,0.000211,-0.002382,0.007630,-0.000013,0.007630,-0.002382,-89.928046,0.007807,
1560,230,-0.591993,-18.585325,0.999997,0.000225,-0.002551,0.008359,-0.000725,0.008407,-0.002599,-86.216069,0.008608,
1000,510,0.740418,-16.363328,0.999996,0.000245,-0.004165,0.008900,-0.001200,0.009009,-0.004275,-84.794877,0.009013,
1590,1000,-2.991846,-10.376618,0.999997,0.000193,-0.003815,0.010698,-0.000489,0.010714,-0.003832,-88.074213,0.010858,
860,1470,1.567206,-5.059886,0.999994,0.000305,-0.005629,0.010520,0.000620,0.010544,-0.005653,87.803884,0.010553,
750,750,2.739835,-12.955271,0.999995,0.000289,-0.005647,0.010719,0.000804,0.010758,-0.005686,87.193011,0.010764,
1370,50,-0.026686,-19.972222,0.999998,0.000156,-0.000139,0.006074,-0.000359,0.006095,-0.000160,-86.705754,0.006948,
730,1480,2.259260,-5.387632,0.999996,0.000245,-0.005399,0.010457,0.000092,0.010458,-0.005399,89.666035,0.010460,
670,1030,3.847702,-10.055946,0.999997,0.000208,-0.004358,0.009347,-0.000028,0.009347,-0.004358,-89.882704,0.009354,
1370,470,-0.368536,-16.975865,0.999997,0.000195,-0.003167,0.007741,0.000958,0.007825,-0.003250,85.020246,0.007862,
1120,510,0.300844,-16.730882,0.999997,0.000182,-0.002965,0.007383,-0.000967,0.007472,-0.003054,-84.706949,0.007513,
1740,1540,-2.122754,-4.786301,0.999996,0.000237,-0.005187,0.010286,-0.000209,0.010289,-0.005190,-89.225408,0.010289,
1200,1210,0.253279,-4.876273,0.999993,0.000303,-0.007146,0.002884,-0.000079,0.002885,-0.007146,-89.550903,0.007190,
1830,70,-0.497542,-19.658007,0.999993,0.000317,-0.003865,0.010388,-0.002903,0.010956,-0.004434,-78.916503,0.011022,
830,1870,0.647366,-1.288008,0.999996,0.000237,-0.002400,0.008568,-0.001328,0.008726,-0.002558,-83.192936,0.008971,
1000,680,0.927610,-14.733109,0.999996,0.000235,-0.006184,0.010538,-0.002162,0.010813,-0.006459,-82.751825,0.010881,
1550,480,-1.086772,-16.349102,0.999998,0.000186,-0.004532,0.009570,0.000742,0.009609,-0.004571,86.995462,0.009613,
1490,780,-1.391046,-13.399951,0.999994,0.000358,-0.007599,0.012496,0.001115,0.012558,-0.007660,86.833116,0.012659,
1700,400,-1.608565,-16.676961,0.999996,0.000237,-0.004783,0.010022,0.000135,0.010024,-0.004784,89.479126,0.010027,
620,1760,1.958322,-2.891575,0.999997,0.000221,-0.004834,0.009975,-0.000037,0.009975,-0.004834,-89.858759,0.009976,
1730,1680,-1.680095,-3.324339,0.999996,0.000255,-0.004862,0.010080,-0.000018,0.010080,-0.004862,-89.930263,0.010082,
1640,2020,-0.060497,-0.109106,0.999997,0.000000,-0.000065,0.007043,0.001886,0.007513,-0.000535,76.023351,0.008384,
1480,630,-0.951181,-15.156107,0.999995,0.000247,-0.005650,0.010026,0.001803,0.010231,-0.005855,83.522697,0.010266,
1800,1080,-3.839152,-9.591081,0.999997,0.000225,-0.004391,0.009240,0.000223,0.009244,-0.004394,89.061156,0.009248,
1260,1940,-0.019011,-0.585133,0.999998,0.000173,-0.000613,0.006324,0.000052,0.006324,-0.000613,89.567888,0.006976,
810,190,0.715495,-18.804924,0.999996,0.000225,-0.003008,0.008842,0.001283,0.008980,-0.003145,83.891442,0.009113,
990,1820,0.394964,-1.511120,0.999997,0.000215,-0.001980,0.007751,-0.000426,0.007770,-0.001999,-87.501165,0.008069,
710,1350,2.795486,-6.819521,0.999996,0.000248,-0.005466,0.010505,-0.000557,0.010525,-0.005486,-88.003567,0.010528,
1420,1990,-0.055651,-0.285312,0.999998,0.000182,-0.000492,0.006382,0.000548,0.006426,-0.000536,85.467202,0.007131,
1290,1340,-0.128341,-4.592521,0.999998,0.000207,-0.002737,0.004976,-0.002335,0.005628,-0.003389,-74.406358,0.005667,
960,520,0.928988,-16.127181,0.999997,0.000217,-0.004721,0.009432,-0.001162,0.009526,-0.004816,-85.336281,0.009527,
1110,1630,0.303167,-2.812401,0.999997,0.000208,-0.002687,0.007463,0.000568,0.007494,-0.002718,86.807885,0.007588,
1570,1410,-1.516266,-5.578418,0.999995,0.000268,-0.006156,0.010969,-0.000770,0.011004,-0.006191,-87.429925,0.011033,
960,930,2.356247,-11.339167,0.999996,0.000247,-0.005522,0.013133,0.001194,0.013209,-0.005598,86.354249,0.013260,
1000,110,0.148999,-19.567490,0.999998,0.000196,-0.000731,0.006852,0.000772,0.006930,-0.000809,84.246770,0.007579,
990,1220,1.530704,-7.356097,0.999989,0.000411,-0.007815,0.013319,0.000749,0.013345,-0.007841,87.972788,0.013413,
1850,60,-0.494797,-19.689586,0.999991,0.000372,-0.004221,0.010634,-0.003039,0.011232,-0.004819,-78.873909,0.011270,
560,1160,4.123146,-8.990820,0.999991,0.000000,-0.003820,0.008365,-0.000114,0.008366,-0.003821,-89.464910,0.008377,
790,400,1.482436,-16.756236,0.999997,0.000218,-0.004653,0.009883,-0.000127,0.009884,-0.004654,-89.500285,0.009889,
1890,390,-2.514917,-16.152603,0.999997,0.000219,-0.004957,0.009782,0.000131,0.009783,-0.004958,89.490958,0.009783,
690,960,3.704365,-10.722624,0.999995,0.000254,-0.004442,0.009566,0.000535,0.009587,-0.004462,87.815414,0.009594,
1870,1870,-1.575310,-1.908582,0.999993,0.000317,-0.004884,0.010063,0.000595,0.010087,-0.004908,87.725312,0.010088,
1420,1120,-1.889228,-8.261632,0.999987,0.000420,-0.006611,0.015259,-0.003514,0.015809,-0.007162,-81.092072,0.015833,
1040,990,2.212098,-10.886066,0.999969,0.000652,-0.008243,0.020529,-0.002852,0.020809,-0.008523,-84.394233,0.020923,
1740,1300,-2.909499,-7.315405,0.999996,0.000252,-0.005429,0.010615,0.000817,0.010657,-0.005471,87.091396,0.010658,
1190,1210,0.316316,-4.941435,0.999993,0.000303,-0.006368,0.002809,0.000168,0.002812,-0.006371,88.949254,0.006386,
1370,450,-0.360463,-17.130665,0.999997,0.000216,-0.003009,0.007693,0.000810,0.007754,-0.003070,85.695590,0.007810,
1680,690,-2.327492,-13.696604,0.999994,0.000285,-0.005954,0.010958,-0.000326,0.010964,-0.005960,-88.894734,0.010978,
1490,930,-2.283048,-11.388288,0.999994,0.000304,-0.005755,0.013597,-0.000930,0.013641,-0.005799,-87.255260,0.013692,
1480,1130,-2.189730,-8.649716,0.999996,0.000241,-0.006085,0.013915,0.000651,0.013936,-0.006106,88.136995,0.013972,
1640,30,-0.041919,-20.083920,0.999998,0.000000,-0.000146,0.006986,-0.001931,0.007476,-0.000636,-75.781148,0.008289,
1700,380,-1.555610,-16.876113,0.999996,0.000216,-0.004623,0.009850,-0.000004,0.009850,-0.004623,-89.984274,0.009856,
740,1630,1.790872,-3.811280,0.999994,0.000272,-0.004945,0.010076,0.000173,0.010078,-0.004946,89.340067,0.010079,
1730,640,-2.444984,-14.094645,0.999994,0.000279,-0.005552,0.010585,-0.000201,0.010588,-0.005555,-89.286002,0.010592,
1670,1350,-2.320384,-6.601151,0.999995,0.000290,-0.006003,0.011103,0.000385,0.011112,-0.006012,88.710769,0.011124,
1550,460,-1.052956,-16.540305,0.999996,0.000247,-0.004437,0.009498,0.000671,0.009530,-0.004469,87.249560,0.009536,
1530,570,-1.136365,-15.537842,0.999996,0.000231,-0.005343,0.010073,0.001163,0.010160,-0.005430,85.709929,0.010168,
770,1100,3.335203,-9.350403,0.999996,0.000244,-0.004430,0.010174,-0.000896,0.010229,-0.004485,-86.503298,0.010255,
1440,1430,-0.732676,-4.752030,0.999995,0.000268,-0.005198,0.009307,-0.002185,0.009629,-0.005520,-81.615863,0.009664,
830,1850,0.722000,-1.464840,0.999997,0.000209,-0.002688,0.008810,-0.001211,0.008936,-0.002814,-84.053106,0.009138,
1400,310,-0.336109,-18.158075,0.999997,0.000204,-0.002368,0.007602,0.000111,0.007603,-0.002369,89.363182,0.007781,
1060,1870,0.194711,-1.083681,0.999998,0.000215,-0.001396,0.006996,-0.000340,0.007010,-0.001410,-87.682154,0.007416,
1380,510,-0.421327,-16.630400,0.999997,0.000192,-0.003510,0.007913,0.001336,0.008067,-0.003664,83.417270,0.008078,
1190,1690,0.089929,-2.293373,0.999998,0.000172,-0.002158,0.007076,0.000148,0.007079,-0.002160,89.082847,0.007256,
630,460,2.440855,-15.637490,0.999996,0.000258,-0.005041,0.010134,-0.000143,0.010135,-0.005042,-89.458908,0.010135,
1290,1280,-0.147093,-4.853834,0.999994,0.000355,-0.003112,0.003977,-0.003094,0.005138,-0.004273,-69.439476,0.005501,
620,1740,2.035241,-3.093919,0.999997,0.000207,-0.004807,0.009971,0.000022,0.009971,-0.004807,89.914113,0.009973,
1540,1990,-0.109952,-0.303681,0.999998,0.000188,-0.000426,0.006824,0.001169,0.007008,-0.000610,81.062143,0.007764,
960,500,0.898325,-16.319705,0.999997,0.000227,-0.004556,0.009355,-0.001082,0.009438,-0.004639,-85.578355,0.009439,
1000,1730,0.522916,-2.214679,0.999997,0.000193,-0.002644,0.008137,0.000018,0.008137,-0.002644,89.905030,0.008302,
1800,1060,-3.853857,-9.776785,0.999997,0.000227,-0.004347,0.009257,0.000282,0.009262,-0.004353,88.813985,0.009268,
1110,1610,0.311976,-2.964138,0.999997,0.000193,-0.002747,0.007509,0.000628,0.007547,-0.002786,86.508218,0.007633,
1140,1320,0.233702,-4.901224,0.999996,0.000251,-0.003774,0.006123,0.003507,0.007239,-0.004891,72.338178,0.007386,
1770,500,-2.236097,-15.432235,0.999995,0.000277,-0.005147,0.010278,0.000165,0.010280,-0.005149,89.386897,0.010280,
1570,1610,-1.117187,-3.537308,0.999997,0.000233,-0.004401,0.009505,-0.000545,0.009526,-0.004422,-87.758650,0.009534,
1540,110,-0.227477,-19.540056,0.999997,0.000197,-0.000980,0.007296,-0.001180,0.007461,-0.001145,-82.041876,0.008036,
560,1170,4.103009,-8.910011,0.999993,0.000000,-0.003875,0.008286,0.000014,0.008287,-0.003875,89.936080,0.008292,
720,1610,1.945615,-4.075461,0.999997,0.000216,-0.004987,0.010126,0.000211,0.010129,-0.004990,89.200220,0.010129,
1000,1350,0.970412,-5.693367,0.999996,0.000267,-0.006570,0.010906,0.002176,0.011173,-0.006837,83.006908,0.011266,
1360,50,-0.024621,-19.973554,0.999998,0.000171,-0.000169,0.006050,-0.000320,0.006067,-0.000185,-87.064575,0.006901,
1050,980,2.085848,-11.203680,0.999976,0.000558,-0.008117,0.021321,-0.004606,0.022025,-0.008821,-81.310960,0.022170,
1260,1920,-0.021392,-0.711035,0.999998,0.000154,-0.000766,0.006379,0.000025,0.006379,-0.000766,89.796330,0.006966,
1820,810,-3.517922,-12.117404,0.999995,0.000278,-0.004858,0.009720,-0.000709,0.009755,-0.004892,-87.221271,0.009755,
1300,380,-0.151634,-17.749266,0.999998,0.000166,-0.002255,0.007193,0.000168,0.007196,-0.002258,88.979118,0.007361,
600,1810,1.846739,-2.472379,0.999997,0.000213,-0.004827,0.009878,-0.000172,0.009880,-0.004829,-89.330305,0.009881,
1770,260,-1.470767,-17.867918,0.999995,0.000288,-0.004731,0.010028,-0.000545,0.010048,-0.004751,-87.888907,0.010053,
890,1270,2.015281,-7.230874,0.999994,0.000290,-0.006806,0.012106,-0.000418,0.012115,-0.006816,-88.733334,0.012146,
620,1850,1.552343,-1.981274,0.999996,0.000223,-0.004887,0.010152,-0.000471,0.010167,-0.004902,-88.209151,0.010169,
1300,530,-0.176718,-16.676649,0.999997,0.000209,-0.002819,0.006942,0.000901,0.007025,-0.002902,84.770857,0.007060,
1430,240,-0.321334,-18.651685,0.999997,0.000223,-0.002084,0.007551,-0.000213,0.007555,-0.002089,-88.734328,0.007803,
1000,570,0.795755,-15.817818,0.999997,0.000239,-0.004851,0.009292,-0.001637,0.009480,-0.005038,-83.482270,0.009486,
830,180,0.628933,-18.913211,0.999996,0.000234,-0.002355,0.008516,0.001349,0.008681,-0.002520,83.031895,0.008932,
1420,940,-1.926569,-11.822890,0.999986,0.000435,-0.006737,0.015615,0.003713,0.016215,-0.007338,80.811962,0.016240,
1860,470,-2.606659,-15.448604,0.999996,0.000235,-0.005021,0.010130,0.000091,0.010130,-0.005022,89.657274,0.010130,
1440,1410,-0.750270,-4.939427,0.999996,0.000259,-0.005408,0.009509,-0.002312,0.009859,-0.005758,-81.389950,0.009905,
920,400,0.913212,-17.125729,0.999998,0.000177,-0.003919,0.009078,-0.000389,0.009090,-0.003930,-88.286088,0.009117,
1500,1130,-2.310614,-8.739321,0.999996,0.000228,-0.005724,0.013251,0.001107,0.013315,-0.005788,86.673030,0.013353,
1840,1910,-1.172431,-1.348311,0.999997,0.000234,-0.004882,0.010433,0.001113,0.010514,-0.004963,85.863460,0.010519,
1040,1800,0.325745,-1.615435,0.999997,0.000234,-0.002216,0.007461,-0.000099,0.007462,-0.002217,-89.412678,0.007664,
810,170,0.633458,-18.978575,0.999997,0.000202,-0.002734,0.008643,0.001451,0.008825,-0.002916,82.846311,0.008992,
960,480,0.873478,-16.507856,0.999997,0.000221,-0.004296,0.009198,-0.000924,0.009261,-0.004359,-86.100118,0.009266,
1180,750,0.112637,-15.447442,0.999998,0.000162,-0.002708,0.004095,-0.002574,0.004959,-0.003572,-71.444978,0.005117,
940,930,2.465856,-11.271454,0.999995,0.000271,-0.005350,0.012584,0.001352,0.012686,-0.005452,85.713850,0.012727,
690,540,2.367873,-15.008854,0.999996,0.000211,-0.005222,0.010276,-0.000074,0.010276,-0.005222,-89.727610,0.010277,
1630,2020,-0.062635,-0.111329,0.999997,0.000000,0.000136,0.006999,0.001765,0.007427,-0.000291,76.392128,0.008413,
970,1220,1.683027,-7.491609,0.999995,0.000322,-0.007637,0.013288,0.000210,0.013290,-0.007639,89.425263,0.013339,
1480,530,-0.832553,-16.122635,0.999996,0.000256,-0.004577,0.009236,0.001315,0.009360,-0.004701,84.610748,0.009360,
1740,1260,-3.060039,-7.740847,0.999996,0.000254,-0.005302,0.010420,0.000966,0.010479,-0.005361,86.498444,0.010480,
1320,1990,-0.022821,-0.275741,0.999998,0.000174,-0.000308,0.006142,0.000232,0.006151,-0.000316,87.938691,0.006927,
1400,1450,-0.530411,-4.376340,0.999996,0.000246,-0.004433,0.008451,-0.002178,0.008809,-0.004791,-80.660554,0.008820,
1620,440,-1.331680,-16.520294,0.999995,0.000264,-0.004734,0.009835,0.000408,0.009846,-0.004746,88.395843,0.009848,
1110,550,0.337778,-16.408677,0.999996,0.000235,-0.003376,0.007498,-0.001495,0.007700,-0.003578,-82.311328,0.007706,
670,1010,3.834574,-10.245896,0.999997,0.000217,-0.004337,0.009367,0.000296,0.009373,-0.004343,88.764779,0.009382,
1670,1370,-2.252105,-6.377518,0.999995,0.000278,-0.005964,0.011028,0.000241,0.011031,-0.005968,89.187863,0.011044,
1570,1000,-2.917892,-10.384024,0.999996,0.000259,-0.003735,0.011013,-0.000564,0.011034,-0.003756,-87.811954,0.011220,
620,1720,2.103437,-3.291480,0.999997,0.000221,-0.004803,0.009962,0.000102,0.009963,-0.004803,89.605370,0.009965,
1000,1100,2.292977,-8.986974,0.999991,0.000340,-0.005639,0.014844,-0.000066,0.014845,-0.005639,-89.814257,0.014987,
1700,360,-1.495858,-17.069532,0.999996,0.000199,-0.004454,0.009836,-0.000142,0.009837,-0.004456,-89.430505,0.009852,
1520,110,-0.206548,-19.546663,0.999998,0.000189,-0.001107,0.007203,-0.001052,0.007334,-0.001238,-82.898961,0.007852,
950,1100,2.546605,-9.175789,0.999996,0.000256,-0.004697,0.012625,-0.001182,0.012705,-0.004777,-86.112848,0.012835,
1440,1620,-0.579477,-3.075931,0.999996,0.000241,-0.003369,0.008298,-0.000709,0.008341,-0.003411,-86.536842,0.008387,
750,730,2.664764,-13.170185,0.999996,0.000289,-0.005663,0.010749,0.000670,0.010777,-0.005690,87.666409,0.010782,
1780,490,-2.258281,-15.502097,0.999996,0.000231,-0.005143,0.010253,0.000171,0.010255,-0.005145,89.363901,0.010255,
1750,680,-2.691899,-13.612944,0.999996,0.000220,-0.005481,0.010568,-0.000431,0.010580,-0.005492,-88.463181,0.010582,
1880,1260,-3.753875,-8.037861,0.999997,0.000207,-0.004659,0.009291,0.000256,0.009296,-0.004664,88.950400,0.009296,
960,50,0.063030,-19.961273,0.999999,0.000179,-0.000495,0.006465,0.000845,0.006567,-0.000596,83.177441,0.007263,
1300,360,-0.145668,-17.892916,0.999997,0.000184,-0.002128,0.007151,0.000120,0.007153,-0.002129,89.259422,0.007346,
1800,1040,-3.870822,-9.962498,0.999997,0.000216,-0.004354,0.009287,0.000222,0.009290,-0.004357,89.067279,0.009296,
1370,430,-0.351416,-17.284769,0.999997,0.000220,-0.002848,0.007647,0.000646,0.007686,-0.002887,86.489589,0.007765,
1440,1710,-0.488058,-2.339324,0.999996,0.000222,-0.002835,0.007951,-0.000283,0.007959,-0.002843,-88.499817,0.008066,
1820,1980,-0.498502,-0.517812,0.999993,0.000302,-0.002989,0.010236,0.003335,0.011029,-0.003782,76.618965,0.011209,
1050,970,2.049012,-11.413833,0.999984,0.000445,-0.007723,0.019857,-0.005071,0.020760,-0.008626,-79.904926,0.020859,
1260,1900,-0.027529,-0.841577,0.999998,0.000161,-0.000891,0.006511,0.000064,0.006511,-0.000892,89.502193,0.007060,
1530,550,-1.098267,-15.740804,0.999995,0.000261,-0.005133,0.009902,0.001113,0.009984,-0.005215,85.788961,0.009988,
830,1830,0.793431,-1.640250,0.999997,0.000192,-0.002909,0.008919,-0.001033,0.009009,-0.002998,-85.047054,0.009175,
1190,1670,0.093714,-2.432379,0.999997,0.000193,-0.002234,0.007112,0.000168,0.007115,-0.002237,88.969731,0.007277,
1040,1870,0.225245,-1.098147,0.999997,0.000220,-0.001662,0.007117,-0.000355,0.007132,-0.001676,-87.685099,0.007458,
890,1250,2.105533,-7.474953,0.999994,0.000274,-0.006748,0.012285,-0.000664,0.012308,-0.006771,-88.003909,0.012329,
870,360,1.036611,-17.358229,0.999998,0.000159,-0.004074,0.009269,-0.000134,0.009271,-0.004075,-89.426804,0.009293,
1000,550,0.774713,-16.003008,0.999996,0.000229,-0.004589,0.009127,-0.001450,0.009279,-0.004740,-84.029439,0.009280,
810,180,0.675270,-18.889398,0.999996,0.000225,-0.002885,0.008710,0.001357,0.008867,-0.003042,83.411961,0.009011,
1290,1320,-0.127417,-4.685483,0.999998,0.000203,-0.002802,0.004638,-0.002631,0.005474,-0.003638,-72.365065,0.005572,
780,970,3.323198,-10.659223,0.999996,0.000255,-0.004324,0.010171,0.000702,0.010205,-0.004358,87.232491,0.010242,
710,1330,2.868236,-7.028839,0.999996,0.000244,-0.005453,0.010449,-0.000662,0.010476,-0.005480,-87.619525,0.010480,
590,1810,1.896034,-2.515966,0.999997,0.000213,-0.004837,0.009790,-0.000147,0.009791,-0.004839,-89.423833,0.009792,
1300,510,-0.175855,-16.817608,0.999997,0.000192,-0.002782,0.007031,0.000760,0.007090,-0.002841,85.598045,0.007136,
1860,430,-2.488125,-15.853329,0.999996,0.000244,-0.004970,0.010002,0.000129,0.010003,-0.004971,89.505757,0.010003,
1040,1820,0.299508,-1.464562,0.999997,0.000235,-0.002066,0.007460,-0.000195,0.007464,-0.002070,-88.828034,0.007707,
810,150,0.551059,-19.151780,0.999996,0.000243,-0.002410,0.008480,0.001615,0.008714,-0.002645,81.740337,0.008936,
990,1160,1.931756,-8.182753,0.999993,0.000291,-0.006970,0.013966,-0.000184,0.013968,-0.006972,-89.497114,0.013968,
590,920,4.064239,-11.003764,0.999996,0.000253,-0.004262,0.008835,0.000367,0.008846,-0.004272,88.394235,0.008847,
1490,910,-2.153973,-11.661852,0.999993,0.000323,-0.006322,0.013547,-0.000819,0.013581,-0.006356,-87.643222,0.013590,
1760,1850,-1.174196,-1.710171,0.999996,0.000240,-0.004495,0.009976,0.001047,0.010051,-0.004570,85.884963,0.010065,
1770,240,-1.384957,-18.069225,0.999995,0.000266,-0.004672,0.010021,-0.000706,0.010055,-0.004706,-87.256942,0.010062,
1280,750,-0.104209,-15.461425,0.999998,0.000156,-0.002613,0.004006,0.002452,0.004815,-0.003422,71.734257,0.004956,
960,460,0.846298,-16.690723,0.999997,0.000198,-0.004033,0.009043,-0.000768,0.009088,-0.004078,-86.648508,0.009104,
1280,1990,-0.012096,-0.273076,0.999998,0.000192,-0.000233,0.006086,0.000158,0.006090,-0.000237,88.572416,0.006900,
1710,640,-2.333302,-14.151383,0.999993,0.000322,-0.005630,0.010655,-0.000153,0.010657,-0.005631,-89.461033,0.010662,
1740,1240,-3.130253,-7.951159,0.999996,0.000270,-0.005256,0.010430,0.001049,0.010500,-0.005326,86.192313,0.010500,
1740,30,-0.071770,-20.076463,0.999997,0.000000,-0.000866,0.007878,-0.002874,0.008738,-0.001727,-73.338906,0.009256,
840,590,1.692066,-14.974680,0.999996,0.000236,-0.005693,0.010630,-0.000480,0.010644,-0.005707,-88.315662,0.010653,
1000,1120,2.157938,-8.684541,0.999992,0.000319,-0.006052,0.014465,-0.000083,0.014466,-0.006052,-89.769371,0.014530,
1750,1000,-3.640279,-10.346301,0.999997,0.000217,-0.004321,0.009624,-0.000338,0.009632,-0.004329,-88.614030,0.009649,
990,1540,0.786996,-3.874967,0.999997,0.000240,-0.004252,0.009022,0.001190,0.009128,-0.004358,84.919352,0.009131,
1740,510,-2.108641,-15.425415,0.999996,0.000235,-0.005177,0.010289,0.000188,0.010291,-0.005179,89.301934,0.010291,
1670,1390,-2.183994,-6.158431,0.999995,0.000280,-0.005920,0.010908,0.000140,0.010909,-0.005921,89.523959,0.010923,
1620,420,-1.285856,-16.719832,0.999996,0.000215,-0.004585,0.009726,0.000333,0.009733,-0.004593,88.669208,0.009739,
1690,1560,-1.810300,-4.416955,0.999997,0.000205,-0.005130,0.010247,-0.000300,0.010253,-0.005136,-88.881559,0.010253,
750,710,2.590115,-13.387968,0.999995,0.000312,-0.005678,0.010841,0.000561,0.010860,-0.005697,88.056053,0.010864,
1050,960,2.002055,-11.607438,0.999986,0.000410,-0.007291,0.018401,-0.005232,0.019426,-0.008315,-78.918949,0.019493,
660,1610,2.246130,-4.272747,0.999996,0.000230,-0.005043,0.010131,0.000179,0.010133,-0.005045,89.326062,0.010133,
1020,1870,0.257950,-1.112056,0.999998,0.000244,-0.001507,0.007222,-0.000465,0.007247,-0.001531,-86.959422,0.007639,
830,1810,0.861982,-1.822243,0.999997,0.000199,-0.003127,0.009094,-0.000908,0.009161,-0.003194,-85.772182,0.009300,
980,1350,1.107462,-5.822908,0.999996,0.000305,-0.006704,0.011186,0.001812,0.011367,-0.006886,84.274833,0.011452,
1660,1070,-3.249656,-9.647136,0.999997,0.000206,-0.004170,0.010211,0.000512,0.010230,-0.004189,87.964381,0.010285,
1700,340,-1.435514,-17.270904,0.999996,0.000224,-0.004387,0.009904,-0.000173,0.009906,-0.004389,-89.304985,0.009928,
740,1610,1.846510,-4.013395,0.999996,0.000216,-0.004988,0.010091,0.000196,0.010094,-0.004991,89.256527,0.010094,
1590,1050,-2.996376,-9.838239,0.999996,0.000258,-0.003745,0.010690,0.000408,0.010702,-0.003757,88.382657,0.010859,
950,50,0.067704,-19.959995,0.999999,0.000190,-0.000408,0.006495,0.000901,0.006611,-0.000523,82.687212,0.007350,
1450,110,-0.137526,-19.572003,0.999998,0.000189,-0.000773,0.006831,-0.000718,0.006898,-0.000840,-84.651196,0.007527,
1120,110,0.064500,-19.598651,0.999998,0.000159,-0.000698,0.006456,0.000296,0.006469,-0.000710,87.631101,0.007095,
1420,590,-0.611689,-15.821499,0.999995,0.000257,-0.004470,0.008746,0.001919,0.009019,-0.004743,81.903458,0.009023,
560,1180,4.084535,-8.827582,0.999994,0.000000,-0.003942,0.008378,0.000090,0.008378,-0.003943,89.581781,0.008383,
1140,1300,0.243532,-5.015264,0.999995,0.000269,-0.004025,0.006040,0.003839,0.007337,-0.005322,71.330394,0.007582,
1370,410,-0.343271,-17.433321,0.999997,0.000213,-0.002680,0.007598,0.000496,0.007622,-0.002704,87.241928,0.007728,
1260,1880,-0.029124,-0.972122,0.999998,0.000164,-0.000996,0.006498,0.000023,0.006498,-0.000996,89.823639,0.007000,
1820,1960,-0.690214,-0.721791,0.999992,0.000318,-0.003450,0.010290,0.002868,0.010865,-0.004025,78.669561,0.010986,
1800,1020,-3.876140,-10.148666,0.999997,0.000191,-0.004329,0.009321,-0.000166,0.009323,-0.004331,-89.304017,0.009331,
760,970,3.411703,-10.652453,0.999996,0.000259,-0.004405,0.010047,0.000625,0.010074,-0.004432,87.528624,0.010098,
1140,670,0.234753,-15.671243,0.999997,0.000227,-0.003372,0.006452,-0.002506,0.007054,-0.003975,-76.485940,0.007073,
1190,1650,0.096737,-2.578361,0.999997,0.000198,-0.002330,0.007130,0.000206,0.007135,-0.002335,88.756033,0.007275,
710,1310,2.940904,-7.240656,0.999996,0.000267,-0.005379,0.010498,-0.000757,0.010534,-0.005415,-87.278150,0.010535,
1370,240,-0.210138,-18.702990,0.999997,0.000208,-0.001583,0.007172,-0.000167,0.007176,-0.001586,-88.904946,0.007539,
1870,1140,-4.041103,-9.107135,0.999998,0.000193,-0.004288,0.008850,0.000365,0.008860,-0.004298,88.411725,0.008862,
670,990,3.819251,-10.433275,0.999996,0.000234,-0.004334,0.009318,0.000265,0.009324,-0.004339,88.886881,0.009331,
1600,270,-0.829927,-18.172018,0.999996,0.000214,-0.003463,0.008853,-0.000468,0.008870,-0.003481,-87.828600,0.008939,
1380,450,-0.391496,-17.107520,0.999996,0.000235,-0.003181,0.007797,0.000893,0.007869,-0.003253,85.377537,0.007908,
1290,1300,-0.131720,-4.768942,0.999997,0.000224,-0.002903,0.004335,-0.002894,0.005350,-0.003918,-70.673958,0.005539,
960,440,0.822246,-16.867623,0.999998,0.000185,-0.003876,0.008883,-0.000668,0.008918,-0.003911,-87.011244,0.008941,
1750,340,-1.668078,-17.125759,0.999995,0.000261,-0.004807,0.010036,-0.000064,0.010037,-0.004808,-89.751595,0.010040,
1420,920,-1.767117,-12.131048,0.999991,0.000340,-0.006540,0.014421,0.003108,0.014872,-0.006991,81.741845,0.014881,
760,590,2.140447,-14.707782,0.999995,0.000254,-0.005513,0.010588,-0.000098,0.010589,-0.005513,-89.650880,0.010592,
1860,1910,-1.269970,-1.447687,0.999994,0.000288,-0.004862,0.010375,0.001054,0.010448,-0.004934,86.061777,0.010453,
610,1480,2.884187,-5.760346,0.999996,0.000228,-0.005112,0.010181,-0.000040,0.010181,-0.005112,-89.848347,0.010181,
580,1810,1.944271,-2.558293,0.999996,0.000220,-0.004816,0.009719,-0.000113,0.009720,-0.004817,-89.555340,0.009720,
1670,1830,-0.916650,-1.703835,0.999997,0.000197,-0.003751,0.009214,0.000908,0.009278,-0.003814,86.013545,0.009326,
780,410,1.555436,-16.626153,0.999996,0.000236,-0.004752,0.009944,-0.000153,0.009946,-0.004754,-89.401856,0.009949,
620,1700,2.168952,-3.493083,0.999996,0.000223,-0.004851,0.009994,0.000053,0.009994,-0.004851,89.794960,0.009996,
920,380,0.878911,-17.303008,0.999997,0.000197,-0.003626,0.008920,-0.000207,0.008924,-0.003629,-89.053358,0.008975,
1670,560,-1.876018,-15.130586,0.999995,0.000284,-0.005437,0.010458,0.000302,0.010463,-0.005443,88.913682,0.010466,
940,50,0.070660,-19.957917,0.999999,0.000158,-0.000317,0.006528,0.000975,0.006665,-0.000453,82.049879,0.007448,
810,130,0.463358,-19.318894,0.999996,0.000238,-0.002134,0.008240,0.001702,0.008512,-0.002406,80.916921,0.008776,
1760,1830,-1.270919,-1.909005,0.999997,0.000231,-0.004585,0.009954,0.000825,0.010000,-0.004632,86.762261,0.010009,
1880,1060,-4.193170,-9.802692,0.999997,0.000193,-0.004099,0.008348,0.000181,0.008351,-0.004102,89.168541,0.008351,
1050,330,0.395402,-17.984883,0.999998,0.000203,-0.002730,0.007736,-0.000262,0.007742,-0.002736,-88.567064,0.007853,
1110,1590,0.319616,-3.114179,0.999997,0.000186,-0.002861,0.007522,0.000751,0.007576,-0.002915,85.885952,0.007642,
1040,980,2.174500,-11.083712,0.999983,0.000481,-0.007821,0.019478,-0.003249,0.019859,-0.008202,-83.305499,0.019959,
1700,320,-1.376195,-17.470646,0.999995,0.000251,-0.004351,0.009813,-0.000253,0.009818,-0.004356,-88.978762,0.009838,
890,1230,2.201841,-7.725951,0.999994,0.000257,-0.006624,0.012273,-0.000915,0.012317,-0.006669,-87.234300,0.012331,
560,1190,4.064556,-8.742533,0.999995,0.000000,-0.004071,0.008676,0.000011,0.008676,-0.004071,89.950663,0.008681,
1000,1870,0.288008,-1.124453,0.999998,0.000184,-0.001424,0.007328,-0.000587,0.007367,-0.001463,-86.179793,0.007801,
830,1790,0.928938,-2.004683,0.999997,0.000178,-0.003302,0.009089,-0.000705,0.009129,-0.003342,-86.752581,0.009238,
1100,1610,0.339410,-2.980059,0.999997,0.000215,-0.002839,0.007607,0.000661,0.007649,-0.002880,86.392412,0.007726,
880,1670,1.049358,-3.007024,0.999995,0.000285,-0.004199,0.009323,0.000244,0.009327,-0.004203,88.967658,0.009342,
960,1350,1.237808,-5.935750,0.999996,0.000237,-0.006764,0.011394,0.001440,0.011508,-0.006878,85.495273,0.011581,
1000,1140,2.011343,-8.393049,0.999993,0.000302,-0.006572,0.014275,-0.000077,0.014276,-0.006573,-89.787268,0.014290,
1740,2020,-0.100724,-0.124579,0.999998,0.000000,-0.000842,0.007945,0.002941,0.008838,-0.001735,73.102722,0.009366,
1420,570,-0.600954,-15.995052,0.999996,0.000238,-0.004358,0.008591,0.001816,0.008841,-0.004608,82.164131,0.008844,
1060,110,0.098388,-19.586305,0.999998,0.000177,-0.000749,0.006605,0.000489,0.006637,-0.000781,86.209276,0.007255,
1650,1000,-3.221567,-10.360981,0.999997,0.000202,-0.004003,0.010195,-0.000381,0.010205,-0.004013,-88.463388,0.010283,
1450,130,-0.178655,-19.430576,0.999998,0.000189,-0.000959,0.006897,-0.000655,0.006951,-0.001013,-85.268383,0.007510,
1580,940,-2.792331,-11.046342,0.999996,0.000247,-0.004605,0.011353,-0.001340,0.011465,-0.004717,-85.232326,0.011524,
1140,1280,0.264811,-5.138773,0.999994,0.000291,-0.004336,0.005914,0.004104,0.007355,-0.005777,70.656333,0.007744,
1270,370,-0.085771,-17.834634,0.999998,0.000162,-0.002175,0.007076,0.000153,0.007078,-0.002178,89.051715,0.007251,
1400,1190,-1.171038,-6.967866,0.999989,0.000387,-0.007191,0.011970,-0.003239,0.012503,-0.007723,-80.661092,0.012618,
1800,1000,-3.857601,-10.338126,0.999997,0.000186,-0.004308,0.009331,-0.000292,0.009337,-0.004314,-88.772843,0.009346,
1370,390,-0.332303,-17.585581,0.999997,0.000199,-0.002537,0.007636,0.000355,0.007648,-0.002549,88.003209,0.007789,
1820,1940,-0.854548,-0.936579,0.999994,0.000293,-0.003837,0.010456,0.002284,0.010812,-0.004193,81.136459,0.010903,
710,1510,2.277014,-5.139935,0.999996,0.000243,-0.005257,0.010306,0.000105,0.010307,-0.005257,89.614994,0.010307,
1730,680,-2.581398,-13.666881,0.999994,0.000266,-0.005618,0.010649,-0.000412,0.010660,-0.005628,-88.550857,0.010665,
1890,1260,-3.800397,-8.065709,0.999996,0.000243,-0.004638,0.009180,0.000199,0.009183,-0.004641,89.176118,0.009183,
1380,610,-0.446708,-15.842293,0.999995,0.000268,-0.004066,0.008028,0.002157,0.008401,-0.004439,80.184804,0.008405,
950,240,0.503887,-18.558832,0.999997,0.000216,-0.002619,0.008090,0.000461,0.008110,-0.002639,87.538817,0.008273,
960,420,0.795691,-17.044734,0.999997,0.000230,-0.003799,0.008800,-0.000602,0.008829,-0.003828,-87.271371,0.008855,
1810,900,-3.742552,-11.267371,0.999996,0.000232,-0.004566,0.009353,-0.000587,0.009378,-0.004591,-87.587797,0.009379,
600,1170,3.943684,-8.829958,0.999997,0.000191,-0.004335,0.008870,-0.000307,0.008878,-0.004343,-88.670453,0.008878,
740,590,2.248370,-14.645514,0.999994,0.000298,-0.005448,0.010551,-0.000046,0.010552,-0.005448,-89.836568,0.010554,
1580,1990,-0.135116,-0.311762,0.999998,0.000177,-0.000849,0.007019,0.001395,0.007259,-0.001089,80.238895,0.007829,
820,670,2.038055,-14.030849,0.999996,0.000242,-0.006087,0.011037,0.000003,0.011037,-0.006087,89.989776,0.011057,
1620,400,-1.237838,-16.914066,0.999997,0.000172,-0.004385,0.009598,0.000216,0.009601,-0.004388,89.115458,0.009613,
750,690,2.516651,-13.607296,0.999995,0.000318,-0.005697,0.010783,0.000450,0.010796,-0.005709,88.438251,0.010802,
1300,630,-0.171736,-16.007813,0.999997,0.000189,-0.002845,0.006207,0.001617,0.006488,-0.003125,80.171459,0.006489,
1690,1540,-1.863075,-4.624962,0.999996,0.000217,-0.005235,0.010310,-0.000297,0.010315,-0.005241,-88.907021,0.010316,
1070,1820,0.240313,-1.434962,0.999998,0.000187,-0.001672,0.007246,-0.000222,0.007252,-0.001677,-88.577765,0.007593,
1420,900,-1.600975,-12.433126,0.999991,0.000328,-0.006758,0.013988,0.002650,0.014321,-0.007091,82.835031,0.014321,
1190,1630,0.098262,-2.719223,0.999998,0.000181,-0.002381,0.007061,0.000223,0.007066,-0.002387,88.646788,0.007189,
890,1210,2.302392,-7.967654,0.999995,0.000248,-0.006419,0.012179,-0.001121,0.012246,-0.006487,-86.564498,0.012253,
1750,30,-0.084435,-20.070436,0.999997,0.000000,-0.001009,0.007897,-0.002873,0.008743,-0.001855,-73.585779,0.009213,
1760,190,-1.098814,-18.602211,0.999997,0.000203,-0.004417,0.009947,-0.001203,0.010047,-0.004517,-85.246564,0.010064,
560,1410,3.347264,-6.633716,0.999922,0.000000,-0.004024,0.010068,0.000303,0.010075,-0.004031,88.767609,0.010142,
690,1820,1.377444,-2.047480,0.999995,0.000246,-0.004649,0.010005,-0.000757,0.010044,-0.004688,-87.051163,0.010051,
590,1480,2.986084,-5.822218,0.999995,0.000275,-0.005029,0.010167,-0.000037,0.010167,-0.005029,-89.860055,0.010168,
1270,1400,-0.086157,-4.211923,0.999997,0.000187,-0.002451,0.005463,-0.001057,0.005602,-0.002590,-82.522428,0.005607,
1300,1210,-0.457024,-5.212681,0.999995,0.000268,-0.004840,0.003539,-0.001412,0.003771,-0.005071,-80.688333,0.005268,
1400,110,-0.098103,-19.587908,0.999998,0.000174,-0.000739,0.006592,-0.000483,0.006624,-0.000771,-86.250636,0.007245,
1600,250,-0.774559,-18.345147,0.999997,0.000210,-0.003248,0.008803,-0.000638,0.008837,-0.003282,-86.977709,0.008933,
860,1670,1.133566,-3.057592,0.999998,0.000145,-0.004190,0.009375,0.000176,0.009377,-0.004193,89.255453,0.009395,
1020,1610,0.598289,-3.165828,0.999997,0.000210,-0.003500,0.008394,0.000805,0.008448,-0.003554,86.144275,0.008484,
1120,370,0.253022,-17.772710,0.999997,0.000225,-0.002496,0.007494,-0.000381,0.007509,-0.002511,-87.820381,0.007645,
1530,530,-1.068243,-15.936828,0.999996,0.000229,-0.004888,0.009710,0.001032,0.009783,-0.004960,85.977586,0.009783,
1170,1340,0.137085,-4.604524,0.999997,0.000219,-0.002795,0.005064,0.002434,0.005757,-0.003488,74.108966,0.005800,
1480,510,-0.809991,-16.308660,0.999996,0.000250,-0.004338,0.009098,0.001146,0.009195,-0.004435,85.159184,0.009197,
1670,1810,-0.992776,-1.895654,0.999997,0.000203,-0.003924,0.009373,0.000750,0.009415,-0.003966,86.782580,0.009453,
1050,310,0.367681,-18.141127,0.999997,0.000232,-0.002611,0.007668,-0.000176,0.007671,-0.002614,-89.020713,0.007800,
810,110,0.380206,-19.483828,0.999997,0.000227,-0.001750,0.008084,0.001847,0.008419,-0.002086,79.703511,0.008769,
1270,390,-0.086886,-17.692077,0.999998,0.000176,-0.002266,0.007127,0.000175,0.007130,-0.002269,88.935101,0.007286,
1820,1920,-1.002404,-1.148717,0.999995,0.000258,-0.004171,0.010419,0.001890,0.010660,-0.004412,82.738088,0.010713,
1800,980,-3.842902,-10.524070,0.999997,0.000192,-0.004312,0.009245,-0.000204,0.009248,-0.004315,-89.140062,0.009255,
1370,370,-0.318606,-17.740049,0.999997,0.000186,-0.002438,0.007578,0.000265,0.007585,-0.002445,88.483412,0.007743,
1300,780,-0.185736,-15.203435,0.999997,0.000227,-0.003533,0.004520,0.003517,0.005840,-0.004853,69.431000,0.006252,
670,970,3.805095,-10.619810,0.999996,0.000262,-0.004392,0.009319,0.000324,0.009327,-0.004400,88.645636,0.009332,
1700,300,-1.311701,-17.664377,0.999995,0.000253,-0.004261,0.009736,-0.000414,0.009748,-0.004274,-88.309108,0.009773,
1160,50,0.012426,-19.976330,0.999998,0.000184,-0.000138,0.006027,0.000174,0.006032,-0.000143,88.380902,0.006884,
600,1090,4.098138,-9.539291,0.999997,0.000215,-0.004194,0.008560,-0.000096,0.008561,-0.004195,-89.568338,0.008561,
960,400,0.766935,-17.222049,0.999996,0.000239,-0.003728,0.008773,-0.000513,0.008794,-0.003749,-87.654268,0.008825,
1650,560,-1.765655,-15.198317,0.999997,0.000215,-0.005485,0.010457,0.000393,0.010466,-0.005494,88.586937,0.010471,
590,1170,3.986417,-8.846161,0.999998,0.000156,-0.004247,0.008723,-0.000230,0.008727,-0.004251,-88.984105,0.008728,
1470,240,-0.399642,-18.612912,0.999997,0.000211,-0.001997,0.007757,-0.000410,0.007774,-0.002014,-87.600108,0.008069,
1360,410,-0.316697,-17.448811,0.999997,0.000198,-0.002654,0.007488,0.000494,0.007512,-0.002678,87.220375,0.007615,
1450,150,-0.205927,-19.295546,0.999998,0.000201,-0.001147,0.007055,-0.000628,0.007103,-0.001195,-85.649536,0.007606,
830,1770,0.988717,-2.189984,0.999998,0.000171,-0.003479,0.009303,-0.000581,0.009329,-0.003505,-87.403711,0.009425,
1810,880,-3.693527,-11.456484,0.999996,0.000230,-0.004658,0.009590,-0.000762,0.009631,-0.004699,-86.945470,0.009632,
1300,610,-0.174267,-16.134855,0.999998,0.000182,-0.002864,0.006370,0.001454,0.006594,-0.003087,81.261970,0.006598,
570,190,1.725579,-18.102988,0.999915,0.001027,-0.005680,0.009654,0.000483,0.009669,-0.005695,88.197195,0.009720,
800,670,2.159451,-13.967625,0.999995,0.000274,-0.005968,0.010967,0.000150,0.010969,-0.005970,89.491970,0.010983,
1580,980,-2.918692,-10.597776,0.999997,0.000217,-0.003990,0.011015,-0.000914,0.011071,-0.004045,-86.525371,0.011204,
1140,1260,0.302079,-5.257753,0.999994,0.000303,-0.004554,0.005919,0.004264,0.007435,-0.006070,70.423579,0.007916,
710,1750,1.564077,-2.692649,0.999995,0.000269,-0.004829,0.010024,-0.000224,0.010028,-0.004832,-89.138041,0.010030,
590,1470,3.018234,-5.924619,0.999995,0.000264,-0.005002,0.010173,-0.000017,0.010173,-0.005002,-89.935692,0.010173,
920,360,0.838874,-17.480311,0.999997,0.000222,-0.003393,0.008909,-0.000014,0.008909,-0.003393,-89.932842,0.008992,
620,1680,2.235791,-3.695595,0.999996,0.000220,-0.004946,0.010065,0.000081,0.010065,-0.004946,89.690357,0.010066,
1050,1820,0.278555,-1.454226,0.999997,0.000227,-0.001997,0.007382,-0.000159,0.007385,-0.001999,-89.028013,0.007639,
1040,1020,2.270411,-10.236010,0.999971,0.000714,-0.009194,0.022068,-0.000759,0.022086,-0.009213,-88.610052,0.022187,
1240,1870,-0.010242,-1.034101,0.999998,0.000187,-0.001140,0.006547,-0.000013,0.006547,-0.001141,-89.906413,0.006995,
1580,1970,-0.196881,-0.456199,0.999998,0.000159,-0.001154,0.007174,0.001332,0.007382,-0.001362,81.129805,0.007856,
1760,170,-0.990586,-18.797465,0.999998,0.000194,-0.004252,0.009800,-0.001500,0.009959,-0.004410,-83.972872,0.009980,
1000,1160,1.862540,-8.107621,0.999993,0.000306,-0.007106,0.014111,0.000107,0.014111,-0.007107,89.712271,0.014112,
1670,1790,-1.064379,-2.080039,0.999996,0.000228,-0.004114,0.009419,0.000581,0.009444,-0.004139,87.545063,0.009468,
890,180,0.479339,-18.981271,0.999996,0.000239,-0.002301,0.008008,0.000983,0.008101,-0.002394,84.600840,0.008324,
860,1030,3.062259,-10.053341,0.999995,0.000264,-0.003752,0.010589,-0.000071,0.010589,-0.003753,-89.714456,0.010738,
1280,790,-0.131489,-15.320753,0.999995,0.000279,-0.003160,0.003331,0.002728,0.004325,-0.004154,69.975062,0.004899,
1190,1610,0.102433,-2.861205,0.999998,0.000176,-0.002419,0.007056,0.000249,0.007062,-0.002426,88.496914,0.007176,
1420,110,-0.117044,-19.580692,0.999998,0.000174,-0.000867,0.006688,-0.000540,0.006726,-0.000905,-85.932764,0.007300,
1620,380,-1.194032,-17.102774,0.999997,0.000186,-0.004155,0.009474,0.000082,0.009475,-0.004155,89.656141,0.009498,
1250,1400,-0.040345,-4.186993,0.999998,0.000149,-0.002219,0.005208,-0.000573,0.005252,-0.002263,-85.616275,0.005269,
940,350,0.756393,-17.609649,0.999997,0.000200,-0.003357,0.008742,-0.000122,0.008743,-0.003358,-89.420904,0.008821,
750,890,3.255866,-11.462921,0.999995,0.000268,-0.004886,0.010401,0.001194,0.010494,-0.004979,85.559955,0.010499,
1800,960,-3.826311,-10.707727,0.999997,0.000206,-0.004399,0.009284,-0.000428,0.009298,-0.004413,-88.209678,0.009302,
1820,1900,-1.142071,-1.358293,0.999995,0.000274,-0.004312,0.010412,0.001524,0.010568,-0.004468,84.150484,0.010610,
890,1720,0.897162,-2.518865,0.999997,0.000250,-0.003882,0.009118,0.000065,0.009118,-0.003882,89.713689,0.009152,
690,1800,1.464949,-2.251009,0.999996,0.000231,-0.004699,0.010056,-0.000582,0.010079,-0.004722,-87.745773,0.010085,
1270,410,-0.090672,-17.548763,0.999998,0.000188,-0.002356,0.007121,0.000218,0.007126,-0.002361,88.682168,0.007260,
1370,790,-0.543756,-14.392836,0.999993,0.000320,-0.006290,0.009209,0.004285,0.010315,-0.007395,75.529134,0.010634,
670,950,3.775733,-10.808011,0.999996,0.000253,-0.004478,0.009474,0.000614,0.009501,-0.004505,87.485180,0.009505,
1530,510,-1.040540,-16.130089,0.999997,0.000199,-0.004709,0.009550,0.000968,0.009616,-0.004774,86.134423,0.009616,
890,1190,2.403451,-8.213854,0.999995,0.000260,-0.006158,0.012129,-0.001276,0.012218,-0.006247,-86.026909,0.012219,
1880,1050,-4.200767,-9.888405,0.999998,0.000196,-0.004091,0.008427,0.000239,0.008432,-0.004096,88.904506,0.008433,
1150,50,0.013224,-19.975731,0.999999,0.000165,-0.000200,0.006031,0.000200,0.006038,-0.000207,88.167772,0.006856,
1700,280,-1.241318,-17.860974,0.999996,0.000228,-0.004153,0.009715,-0.000595,0.009740,-0.004179,-87.549064,0.009773,
1140,750,0.241574,-15.172419,0.999996,0.000275,-0.003983,0.006059,-0.003752,0.007306,-0.005230,-71.614077,0.007530,
960,380,0.736625,-17.397234,0.999997,0.000212,-0.003667,0.008715,-0.000453,0.008732,-0.003684,-87.906588,0.008768,
1300,800,-0.214766,-15.118196,0.999995,0.000260,-0.003917,0.004251,0.003476,0.005530,-0.005196,69.800771,0.006202,
1110,1550,0.327751,-3.412240,0.999997,0.000193,-0.003083,0.007565,0.001038,0.007665,-0.003183,84.483801,0.007702,
1790,900,-3.652399,-11.288419,0.999995,0.000240,-0.004631,0.009572,-0.000718,0.009608,-0.004667,-87.115191,0.009610,
1750,2020,-0.113128,-0.127215,0.999997,0.000000,-0.001141,0.007962,0.002911,0.008813,-0.001992,73.700202,0.009244,
580,1170,4.028678,-8.866523,0.999998,0.000156,-0.004092,0.008593,-0.000137,0.008594,-0.004094,-89.379232,0.008597,
810,90,0.293072,-19.643303,0.999997,0.000215,-0.001415,0.007759,0.001905,0.008139,-0.001795,78.722549,0.008553,
1450,240,-0.360473,-18.631680,0.999997,0.000225,-0.002014,0.007660,-0.000325,0.007671,-0.002025,-88.076705,0.007950,
590,460,2.641503,-15.509767,0.999996,0.000250,-0.005111,0.010087,-0.000103,0.010088,-0.005112,-89.610637,0.010088,
1450,170,-0.245545,-19.148124,0.999998,0.000207,-0.001349,0.007137,-0.000579,0.007177,-0.001388,-86.114626,0.007613,
1050,290,0.348808,-18.293119,0.999996,0.000244,-0.002429,0.007625,-0.000080,0.007626,-0.002429,-89.543291,0.007792,
1140,490,0.238510,-16.915071,0.999998,0.000162,-0.002883,0.007234,-0.000880,0.007310,-0.002959,-85.067524,0.007354,
710,770,3.034274,-12.655457,0.999996,0.000262,-0.005317,0.010446,0.000848,0.010492,-0.005363,86.929790,0.010493,
760,220,1.022805,-18.433847,0.999996,0.000212,-0.003617,0.009506,0.001211,0.009617,-0.003728,84.771259,0.009698,
1400,1870,-0.190314,-1.082282,0.999998,0.000153,-0.001403,0.006961,0.000346,0.006975,-0.001418,87.633782,0.007373,
1190,1590,0.102476,-3.002268,0.999998,0.000157,-0.002434,0.007001,0.000300,0.007011,-0.002443,88.178587,0.007117,
1100,370,0.300242,-17.748587,0.999997,0.000243,-0.002453,0.007567,-0.000307,0.007577,-0.002462,-88.247566,0.007730,
1830,960,-3.954049,-10.690490,0.999998,0.000189,-0.004317,0.008982,-0.000259,0.008987,-0.004322,-88.885815,0.008989,
820,110,0.364352,-19.489946,0.999998,0.000204,-0.001482,0.007975,0.001814,0.008311,-0.001818,79.505679,0.008739,
1670,1770,-1.133418,-2.275232,0.999997,0.000216,-0.004237,0.009579,0.000427,0.009592,-0.004250,88.232285,0.009613,
1000,1600,0.682924,-3.310448,0.999996,0.000226,-0.003924,0.008726,0.000942,0.008795,-0.003994,85.765850,0.008808,
830,1750,1.051189,-2.379190,0.999997,0.000193,-0.003687,0.009319,-0.000368,0.009329,-0.003697,-88.379855,0.009396,
1560,1990,-0.120154,-0.306836,0.999998,0.000184,-0.000565,0.006913,0.001274,0.007124,-0.000776,80.593092,0.007816,
1680,510,-1.797696,-15.621527,0.999998,0.000163,-0.005196,0.010318,0.000342,0.010325,-0.005204,88.736715,0.010325,
1740,170,-0.903626,-18.853002,0.999995,0.000271,-0.003750,0.009591,-0.001618,0.009785,-0.003944,-83.185148,0.009846,
1880,1040,-4.208455,-9.973884,0.999998,0.000181,-0.004077,0.008498,0.000201,0.008501,-0.004080,89.083555,0.008503,
750,680,2.483127,-13.713676,0.999997,0.000300,-0.005699,0.010719,0.000377,0.010728,-0.005707,88.686975,0.010735,
1040,1010,2.253761,-10.456937,0.999957,0.000876,-0.008958,0.022109,-0.001521,0.022184,-0.009032,-87.204191,0.022311,
1620,800,-2.389029,-12.607943,0.999994,0.000277,-0.006255,0.011692,-0.000924,0.011740,-0.006302,-87.061245,0.011750,
890,1700,0.942386,-2.699891,0.999996,0.000246,-0.004060,0.009092,0.000172,0.009094,-0.004062,89.249204,0.009111,
1030,180,0.235402,-19.089287,0.999997,0.000208,-0.001492,0.007079,0.000447,0.007102,-0.001515,87.024552,0.007481,
680,330,1.792983,-17.118538,0.999997,0.000206,-0.004819,0.010022,0.000020,0.010022,-0.004819,89.923972,0.010025,
1700,260,-1.169077,-18.053257,0.999996,0.000250,-0.004002,0.009608,-0.000791,0.009654,-0.004048,-86.685847,0.009696,
890,1170,2.502356,-8.454719,0.999995,0.000272,-0.005806,0.012008,-0.001439,0.012123,-0.005922,-85.412784,0.012124,
1670,2010,-0.121033,-0.187991,0.999998,0.000157,-0.000942,0.007221,0.001909,0.007645,-0.001367,77.465991,0.008154,
1820,1880,-1.269425,-1.571061,0.999995,0.000266,-0.004481,0.010377,0.001286,0.010487,-0.004592,85.089412,0.010514,
1210,1420,0.049795,-4.081972,0.999998,0.000147,-0.002353,0.005549,0.000584,0.005592,-0.002396,85.797067,0.005611,
1270,430,-0.093194,-17.406076,0.999997,0.000206,-0.002408,0.007073,0.000235,0.007079,-0.002414,88.581295,0.007197,
1800,940,-3.786113,-10.899265,0.999997,0.000207,-0.004490,0.009464,-0.000708,0.009500,-0.004526,-87.102760,0.009504,
1160,750,0.171283,-15.321775,0.999997,0.000204,-0.003262,0.004948,-0.003310,0.006116,-0.004430,-70.562857,0.006318,
1860,2020,-0.296500,-0.271985,0.999970,0.000000,-0.001863,0.010196,0.004671,0.011794,-0.003460,71.119167,0.012125,
1050,950,1.942456,-11.784885,0.999984,0.000479,-0.006895,0.017141,-0.005083,0.018172,-0.007926,-78.537844,0.018221,
1370,810,-0.612558,-14.201590,0.999989,0.000382,-0.006511,0.009495,0.004369,0.010610,-0.007626,75.683987,0.010943,
1300,820,-0.288684,-15.041585,0.999994,0.000263,-0.004281,0.003963,0.003115,0.005008,-0.005326,71.457435,0.005974,
960,360,0.702185,-17.571733,0.999997,0.000227,-0.003575,0.008538,-0.000370,0.008550,-0.003586,-88.253457,0.008587,
1840,1790,-1.823902,-2.580732,0.999997,0.000217,-0.004815,0.010085,0.000181,0.010087,-0.004817,89.304571,0.010091,
1200,1930,0.025362,-0.648596,0.999998,0.000202,-0.000663,0.006335,-0.000056,0.006336,-0.000664,-89.541186,0.006964,
1420,880,-1.432273,-12.711767,0.999992,0.000323,-0.007044,0.013685,0.002497,0.013981,-0.007340,83.228230,0.013987,
590,770,3.636107,-12.381556,0.999994,0.000293,-0.004903,0.009706,0.000283,0.009712,-0.004909,88.892479,0.009712,
1120,550,0.303881,-16.437368,0.999996,0.000214,-0.003190,0.007358,-0.001325,0.007522,-0.003354,-82.947621,0.007536,
1720,170,-0.842832,-18.883348,0.999997,0.000206,-0.003012,0.009399,-0.001882,0.009678,-0.003291,-81.563757,0.009842,
670,930,3.732751,-11.000906,0.999996,0.000244,-0.004550,0.009496,0.000693,0.009530,-0.004584,87.180498,0.009532,
1050,270,0.322990,-18.447403,0.999997,0.000212,-0.002286,0.007517,0.000019,0.007517,-0.002286,89.887285,0.007707,
1490,890,-2.010505,-11.939409,0.999993,0.000300,-0.006810,0.013542,-0.000629,0.013562,-0.006830,-88.230230,0.013562,
710,730,2.886928,-13.079343,0.999996,0.000247,-0.005445,0.010430,0.000692,0.010460,-0.005475,87.507281,0.010464,
570,1540,2.906012,-5.270106,0.999995,0.000297,-0.005072,0.010110,0.000011,0.010110,-0.005072,89.959469,0.010110,
1870,810,-3.754468,-12.008705,0.999994,0.000302,-0.004622,0.009240,-0.000328,0.009248,-0.004629,-88.644049,0.009248,
580,920,4.107395,-10.989012,0.999996,0.000222,-0.004133,0.008735,0.000276,0.008741,-0.004139,88.770305,0.008745,
1140,1240,0.366102,-5.370144,0.999994,0.000305,-0.004828,0.005697,0.004116,0.007115,-0.006247,70.983326,0.007763,
1450,610,-0.769570,-15.498131,0.999997,0.000209,-0.005139,0.009432,0.001988,0.009698,-0.005405,82.366655,0.009719,
1670,1750,-1.196544,-2.463884,0.999997,0.000232,-0.004328,0.009580,0.000271,0.009586,-0.004334,88.882744,0.009600,
1830,150,-1.159467,-18.811638,0.999997,0.000241,-0.004664,0.010399,-0.001255,0.010503,-0.004768,-85.270477,0.010518,
760,240,1.101136,-18.242833,0.999997,0.000191,-0.003820,0.009690,0.000988,0.009762,-0.003892,85.839391,0.009829,
1830,1920,-1.050447,-1.192590,0.999997,0.000205,-0.004597,0.010500,0.001508,0.010650,-0.004747,84.350389,0.010670,
890,1150,2.605243,-8.696658,0.999996,0.000245,-0.005376,0.011826,-0.001467,0.011950,-0.005500,-85.161109,0.011963,
1530,930,-2.502392,-11.253515,0.999994,0.000298,-0.005245,0.012410,-0.001387,0.012518,-0.005353,-85.535152,0.012561,
620,1290,3.473172,-7.650013,0.999994,0.000278,-0.004921,0.009847,-0.000508,0.009864,-0.004939,-88.032722,0.009864,
1380,1870,-0.166725,-1.073969,0.999998,0.000179,-0.001138,0.006863,0.000319,0.006875,-0.001151,87.720350,0.007365,
630,1100,3.961212,-9.427418,0.999997,0.000234,-0.004333,0.009029,-0.000316,0.009036,-0.004340,-88.647829,0.009039,
1000,1580,0.706532,-3.487982,0.999996,0.000217,-0.004035,0.008783,0.001044,0.008867,-0.004119,85.374233,0.008875,
920,560,1.186906,-15.586289,0.999995,0.000254,-0.005307,0.010138,-0.001041,0.010208,-0.005377,-86.160703,0.010212,
1110,1530,0.333943,-3.560988,0.999996,0.000230,-0.003218,0.007575,0.001235,0.007715,-0.003358,83.556542,0.007736,
1800,920,-3.740477,-11.089559,0.999997,0.000203,-0.004525,0.009433,-0.000671,0.009465,-0.004557,-87.253550,0.009467,
1190,1420,0.096558,-4.107262,0.999997,0.000188,-0.002520,0.005768,0.001011,0.005890,-0.002641,83.146467,0.005900,
1270,1250,-0.125094,-4.813506,0.999995,0.000255,-0.003475,0.002669,-0.002070,0.003301,-0.004107,-73.012269,0.004353,
680,310,1.726407,-17.319885,0.999998,0.000169,-0.004802,0.010088,0.000142,0.010089,-0.004803,89.452481,0.010093,
1230,760,0.002674,-15.567371,0.999995,0.000245,-0.002117,0.002714,-0.000091,0.002716,-0.002119,-88.921582,0.002855,
1700,240,-1.089673,-18.248077,0.999996,0.000215,-0.003868,0.009656,-0.000983,0.009727,-0.003939,-85.866224,0.009786,
1040,1710,0.437586,-2.308539,0.999996,0.000244,-0.002904,0.007848,0.000381,0.007862,-0.002918,87.972900,0.007948,
1440,1030,-2.404012,-10.033710,0.999974,0.000642,-0.007056,0.018353,-0.000109,0.018353,-0.007057,-89.753270,0.018516,
1860,30,-0.217311,-19.983225,0.999960,0.000000,-0.000059,0.011630,-0.005936,0.014116,-0.002544,-67.277138,0.015047,
900,1610,1.082674,-3.516293,0.999996,0.000253,-0.004387,0.009499,0.000560,0.009521,-0.004409,87.695953,0.009530,
750,660,2.415377,-13.928262,0.999994,0.000312,-0.005660,0.010674,0.000257,0.010678,-0.005664,89.098018,0.010684,
1730,660,-2.510069,-13.881614,0.999995,0.000266,-0.005587,0.010604,-0.000314,0.010610,-0.005593,-88.889149,0.010615,
1080,370,0.350706,-17.722422,0.999997,0.000219,-0.002546,0.007676,-0.000313,0.007685,-0.002555,-88.245134,0.007828,
1200,1350,0.063415,-4.445725,0.999997,0.000197,-0.002248,0.004457,0.001280,0.004693,-0.002484,79.552920,0.004695,
1590,490,-1.294513,-16.119401,0.999995,0.000261,-0.004950,0.009886,0.000654,0.009915,-0.004979,87.481962,0.009915,
620,1660,2.297188,-3.896738,0.999996,0.000226,-0.005014,0.010065,0.000123,0.010066,-0.005015,89.532424,0.010066,
1630,200,-0.694785,-18.743509,0.999997,0.000193,-0.002627,0.008736,-0.001228,0.008867,-0.002758,-83.903257,0.009076,
580,770,3.684736,-12.350861,0.999994,0.000282,-0.005257,0.009627,0.000102,0.009627,-0.005258,89.606462,0.009641,
1300,840,-0.401726,-14.966412,0.999991,0.000332,-0.004674,0.003638,0.001810,0.004015,-0.005052,78.231571,0.005336,
670,910,3.687952,-11.189968,0.999996,0.000265,-0.004595,0.009452,0.000643,0.009481,-0.004625,87.386438,0.009482,
650,260,1.674310,-17.733008,0.999996,0.000254,-0.004733,0.010174,0.000517,0.010192,-0.004751,88.017539,0.010200,
1050,250,0.298512,-18.594806,0.999997,0.000203,-0.002111,0.007415,0.000102,0.007417,-0.002112,89.385911,0.007642,
1120,650,0.307697,-15.704269,0.999997,0.000200,-0.003683,0.007127,-0.002467,0.007663,-0.004219,-77.732776,0.007676,
710,190,1.067826,-18.621193,0.999997,0.000195,-0.004351,0.009841,0.001208,0.009943,-0.004453,85.169478,0.009961,
1820,1510,-2.624908,-5.349166,0.999995,0.000250,-0.005128,0.010202,-0.000045,0.010202,-0.005128,-89.830403,0.010202,
1420,860,-1.276278,-12.975662,0.999991,0.000348,-0.007324,0.013115,0.002505,0.013417,-0.007626,83.113445,0.013459,
960,340,0.670770,-17.739235,0.999996,0.000235,-0.003423,0.008561,-0.000228,0.008565,-0.003428,-88.911680,0.008622,
1820,1790,-1.727796,-2.502915,0.999997,0.000230,-0.004747,0.010157,0.000390,0.010167,-0.004757,88.502856,0.010174,
1340,1930,-0.074181,-0.659532,0.999999,0.000135,-0.000798,0.006480,0.000242,0.006488,-0.000806,88.094377,0.007073,
1190,1570,0.103234,-3.143249,0.999998,0.000151,-0.002471,0.006911,0.000323,0.006923,-0.002483,88.028458,0.007014,
1670,1730,-1.256521,-2.659503,0.999997,0.000233,-0.004415,0.009741,0.000149,0.009742,-0.004417,89.395972,0.009756,
1830,1430,-2.926340,-6.201935,0.999997,0.000191,-0.005133,0.010207,0.000159,0.010209,-0.005134,89.405644,0.010209,
1830,1900,-1.188814,-1.403416,0.999995,0.000282,-0.004669,0.010431,0.001186,0.010523,-0.004762,85.536516,0.010539,
1040,1000,2.240072,-10.680156,0.999980,0.000544,-0.008688,0.021637,-0.002272,0.021806,-0.008857,-85.738981,0.021934,
1740,1220,-3.207542,-8.160046,0.999995,0.000288,-0.005138,0.010341,0.001076,0.010416,-0.005213,86.041991,0.010416,
1000,1560,0.726589,-3.664891,0.999997,0.000198,-0.004102,0.008828,0.001116,0.008923,-0.004198,85.104230,0.008928,
1700,220,-1.008479,-18.442010,0.999997,0.000211,-0.003632,0.009475,-0.001173,0.009579,-0.003737,-84.924200,0.009656,
830,1970,0.257486,-0.474969,0.999997,0.000200,-0.000976,0.007570,-0.001867,0.007960,-0.001365,-78.200632,0.008513,
1530,950,-2.603671,-11.006857,0.999994,0.000295,-0.004714,0.012191,-0.001315,0.012293,-0.004816,-85.579654,0.012388,
980,1030,2.623127,-10.047737,0.999994,0.000319,-0.004177,0.013511,-0.000014,0.013511,-0.004177,-89.953178,0.013835,
1850,2020,-0.265703,-0.245898,0.999995,0.000000,-0.003232,0.009320,0.003552,0.010256,-0.004167,75.246219,0.010315,
1270,1230,-0.175881,-4.860874,0.999994,0.000283,-0.004603,0.002793,-0.001297,0.003014,-0.004824,-80.334025,0.004874,
1370,830,-0.713780,-14.013085,0.999991,0.000340,-0.006626,0.009708,0.004292,0.010767,-0.007685,76.139976,0.011090,
1320,1870,-0.093740,-1.048008,0.999998,0.000162,-0.001171,0.006679,0.000142,0.006681,-0.001174,88.963805,0.007135,
830,1100,3.071073,-9.320192,0.999997,0.000196,-0.004334,0.010602,-0.001010,0.010670,-0.004402,-86.147863,0.010725,
1800,900,-3.698566,-11.276627,0.999996,0.000224,-0.004591,0.009463,-0.000654,0.009493,-0.004622,-87.342331,0.009494,
1020,1410,0.766895,-4.957535,0.999994,0.000291,-0.005465,0.009588,0.002231,0.009912,-0.005789,81.743214,0.009958,
880,1610,1.170738,-3.574380,0.999996,0.000294,-0.004487,0.009613,0.000483,0.009629,-0.004504,88.041625,0.009636,
760,260,1.182198,-18.046193,0.999997,0.000187,-0.003967,0.009623,0.000785,0.009668,-0.004012,86.704954,0.009714,
920,1840,0.518045,-1.435764,0.999996,0.000226,-0.002183,0.008082,-0.000773,0.008140,-0.002241,-85.717831,0.008409,
1140,1220,0.472289,-5.481970,0.999990,0.000387,-0.004553,0.005401,0.003573,0.006551,-0.005703,72.160928,0.007125,
1560,790,-1.947736,-12.917475,0.999994,0.000301,-0.006965,0.012295,-0.000327,0.012301,-0.006970,-89.028802,0.012337,
1590,1700,-1.012050,-2.746364,0.999996,0.000227,-0.004098,0.009205,-0.000125,0.009206,-0.004099,-89.461173,0.009224,
630,140,1.101262,-18.900009,0.999998,0.000192,-0.004702,0.010450,0.001355,0.010570,-0.004822,84.931115,0.010584,
1440,1010,-2.392519,-10.400272,0.999991,0.000364,-0.006892,0.018629,0.000619,0.018644,-0.006907,88.610601,0.018852,
1060,1290,0.701037,-5.872840,0.999994,0.000286,-0.006760,0.010394,0.003546,0.011098,-0.007464,78.769057,0.011317,
1260,790,-0.072490,-15.434729,0.999994,0.000292,-0.002751,0.002548,0.001668,0.003029,-0.003232,73.907968,0.003621,
1490,870,-1.879917,-12.212559,0.999993,0.000332,-0.007246,0.013514,-0.000334,0.013519,-0.007251,-89.079302,0.013531,
1300,1640,-0.160553,-2.662321,0.999997,0.000210,-0.002421,0.007219,-0.000288,0.007228,-0.002429,-88.290509,0.007356,
1310,50,-0.013449,-19.976820,0.999998,0.000142,-0.000189,0.006004,-0.000188,0.006010,-0.000195,-88.265880,0.006829,
1110,1510,0.334779,-3.713843,0.999997,0.000205,-0.003374,0.007515,0.001435,0.007701,-0.003560,82.618634,0.007708,
620,730,3.350779,-12.856412,0.999995,0.000237,-0.004985,0.009886,0.000434,0.009898,-0.004998,88.328753,0.009898,
1120,670,0.305362,-15.563706,0.999996,0.000235,-0.003781,0.007133,-0.002713,0.007770,-0.004418,-76.785148,0.007795,
670,1110,3.764896,-9.303867,0.999997,0.000219,-0.004501,0.009492,-0.000702,0.009527,-0.004536,-87.133276,0.009530,
630,260,1.769075,-17.660098,0.999998,0.000204,-0.004829,0.010147,0.000275,0.010152,-0.004834,88.949016,0.010156,
890,1130,2.693287,-8.928707,0.999996,0.000232,-0.004977,0.011621,-0.001464,0.011749,-0.005105,-84.996833,0.011782,
1040,670,0.682083,-15.077827,0.999994,0.000281,-0.005500,0.009494,-0.002601,0.009932,-0.005938,-80.432829,0.009995,
1050,230,0.271617,-18.744908,0.999997,0.000207,-0.001979,0.007343,0.000180,0.007346,-0.001983,88.893936,0.007601,
710,170,0.960095,-18.816952,0.999997,0.000213,-0.004172,0.009763,0.001471,0.009916,-0.004326,84.040870,0.009943,
1360,1930,-0.090769,-0.663712,0.999998,0.000140,-0.000733,0.006547,0.000332,0.006562,-0.000748,87.396790,0.007185,
1660,1730,-1.214126,-2.632271,0.999997,0.000218,-0.004308,0.009654,0.000137,0.009655,-0.004309,89.438059,0.009673,
960,320,0.634323,-17.915521,0.999997,0.000206,-0.003249,0.008512,-0.000081,0.008513,-0.003250,-89.605515,0.008592,
1420,100,-0.100122,-19.648537,0.999998,0.000171,-0.000780,0.006584,-0.000528,0.006622,-0.000818,-85.920485,0.007220,
1800,1510,-2.523091,-5.287754,0.999995,0.000263,-0.005172,0.010258,-0.000046,0.010258,-0.005172,-89.828705,0.010258,
1670,1710,-1.317559,-2.858300,0.999996,0.000228,-0.004525,0.009725,0.000048,0.009725,-0.004525,89.806462,0.009733,
1000,1540,0.746152,-3.841329,0.999996,0.000219,-0.004183,0.008903,0.001231,0.009018,-0.004298,84.672667,0.009021,
1530,970,-2.686204,-10.763153,0.999996,0.000236,-0.004288,0.012042,-0.001058,0.012110,-0.004356,-86.309446,0.012268,
1830,1450,-2.862286,-5.996687,0.999997,0.000219,-0.005128,0.010201,0.000125,0.010202,-0.005129,89.533576,0.010202,
800,1610,1.548270,-3.822407,0.999995,0.000286,-0.004856,0.009959,0.000296,0.009965,-0.004862,88.857596,0.009966,
1300,1870,-0.072270,-1.042840,0.999998,0.000166,-0.000996,0.006633,0.000142,0.006636,-0.000998,88.933857,0.007156,
1190,1550,0.104528,-3.280451,0.999998,0.000156,-0.002508,0.006848,0.000351,0.006861,-0.002521,87.855427,0.006941,
810,1100,3.158571,-9.332811,0.999996,0.000208,-0.004355,0.010448,-0.000983,0.010513,-0.004421,-86.215627,0.010557,
1270,830,-0.195935,-15.287196,0.999993,0.000307,-0.004985,0.002842,0.000989,0.002965,-0.005108,82.905222,0.005130,
1700,200,-0.921779,-18.628222,0.999996,0.000235,-0.003428,0.009471,-0.001413,0.009624,-0.003581,-83.821846,0.009728,
1150,820,0.348598,-14.887276,0.999996,0.000263,-0.004557,0.004878,-0.003672,0.006139,-0.005818,-71.049882,0.006911,
1850,30,-0.207579,-19.984550,0.999968,0.000000,-0.001605,0.010456,-0.004770,0.012115,-0.003263,-70.828306,0.012537,
610,140,1.200893,-18.799653,0.999996,0.000245,-0.004898,0.010452,0.001134,0.010535,-0.004981,85.798266,0.010541,
1800,140,-0.970868,-19.003880,0.999997,0.000263,-0.003625,0.010095,-0.002343,0.010484,-0.004014,-80.571256,0.010580,
760,1720,1.434089,-2.848442,0.999996,0.000230,-0.004424,0.009888,-0.000186,0.009891,-0.004426,-89.255969,0.009909,
880,1590,1.209148,-3.768225,0.999995,0.000255,-0.004724,0.009717,0.000568,0.009740,-0.004747,87.749541,0.009741,
920,1860,0.458737,-1.269322,0.999996,0.000227,-0.001940,0.007984,-0.000898,0.008064,-0.002020,-84.872186,0.008392,
1020,1390,0.787704,-5.152985,0.999995,0.000303,-0.005705,0.009868,0.002347,0.010214,-0.006051,81.614316,0.010272,
1240,790,-0.023218,-15.491263,0.999997,0.000248,-0.002771,0.002170,0.000511,0.002222,-0.002823,84.157836,0.002974,
1300,1620,-0.163523,-2.805979,0.999998,0.000196,-0.002511,0.007181,-0.000381,0.007196,-0.002526,-87.751543,0.007302,
1430,1720,-0.449434,-2.244576,0.999997,0.000241,-0.002827,0.007892,-0.000261,0.007898,-0.002834,-88.604060,0.008003,
1300,50,-0.013315,-19.976373,0.999999,0.000131,-0.000131,0.006002,-0.000169,0.006007,-0.000135,-88.423690,0.006859,
1160,1210,0.469310,-5.251217,0.999994,0.000267,-0.004692,0.003687,0.001616,0.003988,-0.004993,79.455893,0.005281,
1110,1490,0.339507,-3.864503,0.999996,0.000220,-0.003507,0.007443,0.001622,0.007679,-0.003743,81.749245,0.007679,
1490,850,-1.751261,-12.485306,0.999991,0.000368,-0.007551,0.013469,0.000009,0.013469,-0.007551,89.976348,0.013502,
820,410,1.367761,-16.746793,0.999996,0.000251,-0.004652,0.009813,-0.000256,0.009818,-0.004656,-88.985791,0.009822,
1140,840,0.502590,-14.648894,0.999989,0.000403,-0.004434,0.005196,-0.003286,0.006210,-0.005448,-72.843878,0.006774,
1430,1080,-2.204183,-9.055928,0.999984,0.000480,-0.007189,0.018048,-0.002483,0.018290,-0.007431,-84.433887,0.018397,
1040,650,0.663233,-15.269231,0.999994,0.000281,-0.005234,0.009237,-0.002451,0.009641,-0.005638,-80.642924,0.009687,
710,150,0.847988,-19.014161,0.999996,0.000212,-0.003977,0.009610,0.001750,0.009832,-0.004199,82.777831,0.009867,
890,1110,2.784428,-9.164614,0.999995,0.000276,-0.004583,0.011407,-0.001306,0.011513,-0.004689,-85.360188,0.011579,
1610,640,-1.748002,-14.480515,0.999995,0.000240,-0.006063,0.011019,0.000414,0.011030,-0.006073,88.611048,0.011048,
670,1350,3.006939,-6.919551,0.999996,0.000249,-0.005226,0.010204,-0.000530,0.010222,-0.005244,-88.035332,0.010223,
1440,1930,-0.158981,-0.690317,0.999997,0.000188,-0.000954,0.006863,0.000607,0.006910,-0.001001,85.588660,0.007468,
960,300,0.596625,-18.082852,0.999997,0.000207,-0.003120,0.008237,0.000039,0.008237,-0.003120,89.802393,0.008317,
1190,480,0.103334,-17.052908,0.999997,0.000217,-0.002482,0.006923,-0.000307,0.006933,-0.002492,-88.133012,0.007024,
1050,210,0.246818,-18.889175,0.999998,0.000201,-0.001802,0.007166,0.000265,0.007174,-0.001810,88.305685,0.007461,
1040,1990,0.056992,-0.285306,0.999998,0.000155,-0.000462,0.006386,-0.000583,0.006435,-0.000511,-85.167712,0.007154,
1420,840,-1.137347,-13.234535,0.999992,0.000345,-0.007681,0.012539,0.002562,0.012858,-0.008001,82.891039,0.012986,
800,1590,1.599557,-4.022838,0.999994,0.000307,-0.005010,0.010058,0.000356,0.010066,-0.005019,88.646195,0.010066,
930,180,0.403921,-19.014606,0.999997,0.000207,-0.001832,0.007707,0.000876,0.007787,-0.001912,84.794957,0.008116,
1000,1520,0.762169,-4.019651,0.999996,0.000228,-0.004366,0.009006,0.001351,0.009142,-0.004501,84.288026,0.009142,
1410,240,-0.278992,-18.672901,0.999997,0.000206,-0.001981,0.007405,-0.000169,0.007408,-0.001984,-88.966422,0.007669,
1190,1530,0.105119,-3.416595,0.999998,0.000159,-0.002542,0.006762,0.000415,0.006780,-0.002560,87.448452,0.006848,
1670,1690,-1.376336,-3.049934,0.999996,0.000231,-0.004598,0.009711,-0.000044,0.009711,-0.004598,-89.822912,0.009716,
1830,1470,-2.796858,-5.791714,0.999996,0.000236,-0.005101,0.010204,0.000060,0.010204,-0.005101,89.776509,0.010204,
1110,1540,0.331493,-3.487472,0.999996,0.000226,-0.003152,0.007573,0.001128,0.007690,-0.003269,84.063074,0.007719,
1090,1480,0.414901,-4.016262,0.999995,0.000242,-0.003682,0.007740,0.001720,0.007993,-0.003935,81.619487,0.007993,
1890,1770,-2.148946,-2.977874,0.999997,0.000227,-0.004850,0.009618,0.000004,0.009618,-0.004850,89.986071,0.009619,
1530,990,-2.754099,-10.520634,0.999997,0.000209,-0.003862,0.012078,-0.000769,0.012115,-0.003899,-87.245244,0.012368,
1580,1070,-2.931381,-9.616748,0.999995,0.000280,-0.003918,0.010980,0.000783,0.011021,-0.003959,87.000301,0.011166,
1840,2020,-0.226952,-0.208119,0.999997,0.000000,-0.003844,0.008861,0.002990,0.009530,-0.004512,77.396968,0.009534,
760,1700,1.493521,-3.045834,0.999996,0.000214,-0.004489,0.009832,-0.000145,0.009834,-0.004490,-89.419539,0.009846,
1270,810,-0.136279,-15.332470,0.999996,0.000252,-0.003682,0.002644,0.001978,0.003211,-0.004250,73.993127,0.004431,
920,1880,0.409937,-1.116400,0.999996,0.000232,-0.001726,0.007733,-0.000948,0.007827,-0.001820,-84.330090,0.008192,
1800,880,-3.647620,-11.470436,0.999996,0.000252,-0.004690,0.009691,-0.000840,0.009740,-0.004739,-86.666761,0.009741,
1160,1200,0.582978,-5.281119,0.999996,0.000248,-0.004921,0.003267,0.001023,0.003393,-0.005047,82.988563,0.005146,
1880,1380,-3.344622,-6.860994,0.999994,0.000290,-0.004980,0.010055,0.000119,0.010056,-0.004981,89.546847,0.010057,
1110,1470,0.343376,-4.020334,0.999996,0.000236,-0.003605,0.007450,0.001816,0.007740,-0.003895,80.905674,0.007740,
1700,180,-0.830854,-18.820482,0.999996,0.000214,-0.003126,0.009193,-0.001607,0.009399,-0.003332,-82.689443,0.009531,
1860,810,-3.707393,-12.032098,0.999995,0.000251,-0.004660,0.009312,-0.000419,0.009324,-0.004673,-88.282448,0.009324,
590,1610,2.596990,-4.499648,0.999997,0.000206,-0.005084,0.010035,0.000118,0.010036,-0.005085,89.553143,0.010037,
1580,770,-1.996911,-13.086497,0.999994,0.000276,-0.006745,0.011967,-0.000327,0.011973,-0.006750,-88.999206,0.012005,
1300,1600,-0.168077,-2.948768,0.999997,0.000207,-0.002609,0.007151,-0.000492,0.007176,-0.002634,-87.123083,0.007260,
1220,1350,0.022646,-4.413235,0.999998,0.000195,-0.002016,0.004186,0.000534,0.004232,-0.002062,85.110559,0.004232,
710,130,0.725060,-19.202511,0.999997,0.000211,-0.003697,0.009317,0.002082,0.009642,-0.004022,81.128647,0.009686,
570,920,4.148509,-10.973140,0.999978,0.000512,-0.004068,0.008639,0.000213,0.008642,-0.004072,89.040708,0.008647,
1450,590,-0.750566,-15.689890,0.999996,0.000213,-0.004915,0.009258,0.001849,0.009495,-0.005152,82.689915,0.009507,
670,370,1.971662,-16.683163,0.999998,0.000177,-0.004912,0.010093,-0.000015,0.010093,-0.004912,-89.943271,0.010095,
1430,1070,-2.249439,-9.234407,0.999972,0.000611,-0.007502,0.018732,-0.002232,0.018921,-0.007691,-85.172046,0.019031,
1590,470,-1.254214,-16.318909,0.999995,0.000254,-0.004837,0.009815,0.000600,0.009840,-0.004862,87.658107,0.009840,
1050,190,0.218136,-19.032135,0.999997,0.000194,-0.001643,0.007073,0.000343,0.007086,-0.001656,87.746856,0.007413,
620,1880,1.381001,-1.674856,0.999996,0.000238,-0.004878,0.010390,-0.000765,0.010428,-0.004916,-87.138156,0.010434,
810,70,0.208758,-19.796588,0.999997,0.000212,-0.001047,0.007541,0.001959,0.007967,-0.001473,77.737700,0.008478,
800,130,0.491663,-19.309138,0.999996,0.000234,-0.002409,0.008317,0.001718,0.008585,-0.002678,81.120033,0.008786,
1310,1200,-0.613391,-5.378033,0.999996,0.000257,-0.004398,0.003484,-0.001448,0.003742,-0.004656,-79.916395,0.004934,
1020,1990,0.064049,-0.288573,0.999997,0.000182,-0.000386,0.006475,-0.000688,0.006543,-0.000455,-84.326210,0.007307,
710,100,0.532953,-19.482987,0.999995,0.000258,-0.003197,0.008801,0.002287,0.009222,-0.003618,79.564963,0.009293,
1190,1740,0.079796,-1.935161,0.999998,0.000177,-0.001893,0.007060,0.000071,0.007061,-0.001894,89.546873,0.007309,
1280,50,-0.009575,-19.977333,0.999999,0.000142,-0.000111,0.005995,-0.000118,0.005997,-0.000114,-88.892576,0.006861,
830,1730,1.103400,-2.564629,0.999997,0.000204,-0.003882,0.009432,-0.000182,0.009434,-0.003885,-89.216086,0.009483,
1650,1540,-1.655317,-4.491028,0.999995,0.000239,-0.005225,0.010275,-0.000423,0.010286,-0.005237,-88.436379,0.010287,
1040,630,0.648026,-15.453780,0.999993,0.000292,-0.004954,0.008988,-0.002263,0.009346,-0.005312,-81.006735,0.009375,
1140,820,0.394211,-14.764555,0.999994,0.000314,-0.004795,0.005654,-0.004062,0.007047,-0.006188,-71.066530,0.007689,
1420,1490,-0.597892,-4.120769,0.999996,0.000244,-0.004363,0.008637,-0.001771,0.008873,-0.004599,-82.381151,0.008875,
890,1090,2.844844,-9.386245,0.999996,0.000251,-0.004223,0.011195,-0.001076,0.011270,-0.004298,-86.026201,0.011375,
560,1400,3.367750,-6.723232,0.999925,0.000000,-0.003948,0.010029,0.000085,0.010029,-0.003948,89.649962,0.010104,
950,1800,0.535636,-1.723736,0.999996,0.000248,-0.002720,0.008117,-0.000345,0.008128,-0.002731,-88.179992,0.008273,
1670,1670,-1.429073,-3.248500,0.999996,0.000240,-0.004639,0.009822,-0.000103,0.009823,-0.004639,-89.590275,0.009828,
1840,30,-0.184467,-20.002970,0.999992,0.000000,-0.002958,0.009583,-0.003782,0.010635,-0.004011,-74.450899,0.010742,
1370,850,-0.846197,-13.816843,0.999991,0.000348,-0.006151,0.009594,0.004498,0.010788,-0.007346,75.129092,0.011021,
1840,980,-4.010727,-10.505256,0.999998,0.000212,-0.004262,0.008842,-0.000168,0.008844,-0.004264,-89.265190,0.008846,
1170,480,0.154736,-17.038508,0.999998,0.000195,-0.002630,0.007042,-0.000490,0.007066,-0.002655,-87.108954,0.007139,
1080,750,0.541358,-14.628160,0.999995,0.000294,-0.006029,0.009292,-0.003797,0.010181,-0.006918,-76.816039,0.010397,
570,410,2.603883,-15.946405,0.999881,0.001335,-0.007593,0.010621,-0.000302,0.010626,-0.007598,-89.051502,0.010948,
1740,1200,-3.273824,-8.366484,0.999996,0.000246,-0.005015,0.010185,0.001050,0.010257,-0.005088,86.066086,0.010257,
1420,800,-0.932275,-13.728199,0.999992,0.000355,-0.007669,0.011728,0.002911,0.012156,-0.008097,81.645198,0.012377,
1000,1500,0.778549,-4.198355,0.999996,0.000235,-0.004634,0.009175,0.001512,0.009339,-0.004798,83.823397,0.009340,
720,670,2.617683,-13.739178,0.999995,0.000274,-0.005547,0.010558,0.000389,0.010567,-0.005557,88.616390,0.010572,
1000,430,0.654437,-17.067323,0.999996,0.000257,-0.003669,0.008547,-0.000775,0.008596,-0.003718,-86.384284,0.008622,
1530,1430,-1.231307,-5.188039,0.999995,0.000259,-0.005864,0.010532,-0.001205,0.010620,-0.005952,-85.819567,0.010646,
1560,1070,-2.853110,-9.605169,0.999995,0.000290,-0.003894,0.011343,0.000866,0.011392,-0.003943,86.757867,0.011570,
1220,1870,0.013249,-1.034041,0.999998,0.000159,-0.001163,0.006562,0.000012,0.006562,-0.001163,89.913965,0.007002,
860,1650,1.177406,-3.249182,0.999997,0.000192,-0.004312,0.009518,0.000258,0.009523,-0.004317,88.930351,0.009537,
1480,310,-0.544409,-18.041244,0.999997,0.000220,-0.002784,0.008172,-0.000028,0.008172,-0.002785,-89.855066,0.008309,
760,1680,1.553862,-3.241629,0.999996,0.000210,-0.004614,0.009905,-0.000065,0.009905,-0.004614,-89.741774,0.009913,
680,1410,2.749016,-6.268445,0.999996,0.000230,-0.005312,0.010372,-0.000289,0.010378,-0.005317,-88.944982,0.010379,
1880,290,-2.119717,-17.174789,0.999996,0.000242,-0.004861,0.009696,0.000020,0.009696,-0.004861,89.922447,0.009696,
1460,1190,-1.622175,-7.661883,0.999995,0.000294,-0.007731,0.013885,-0.000705,0.013908,-0.007754,-88.132953,0.013939,
930,1410,1.292735,-5.417841,0.999996,0.000261,-0.006101,0.010831,0.001202,0.010916,-0.006186,85.960129,0.010948,
1800,840,-3.519825,-11.862063,0.999995,0.000267,-0.004805,0.009692,-0.000822,0.009739,-0.004852,-86.764218,0.009739,
1100,1290,0.451179,-5.472877,0.999994,0.000280,-0.005622,0.008421,0.004161,0.009562,-0.006763,74.673933,0.009832,
1700,600,-2.152410,-14.610507,0.999996,0.000231,-0.005563,0.010585,0.000097,0.010585,-0.005564,89.655690,0.010590,
710,110,0.598408,-19.390429,0.999995,0.000241,-0.003383,0.009195,0.002285,0.009597,-0.003786,80.014705,0.009668,
1270,790,-0.099502,-15.383760,0.999996,0.000250,-0.002916,0.002897,0.002202,0.003637,-0.003656,71.427787,0.004211,
1690,640,-2.219326,-14.211430,0.999995,0.000256,-0.005748,0.010763,-0.000087,0.010763,-0.005748,-89.699203,0.010772,
920,1930,0.273378,-0.735125,0.999996,0.000225,-0.001149,0.007409,-0.001161,0.007564,-0.001304,-82.409720,0.008087,
670,330,1.842069,-17.084978,0.999997,0.000213,-0.004861,0.010022,0.000026,0.010022,-0.004861,89.901290,0.010023,
1490,830,-1.632653,-12.755501,0.999993,0.000346,-0.007718,0.013235,0.000365,0.013242,-0.007724,89.001382,0.013303,
960,280,0.559006,-18.246316,0.999996,0.000231,-0.002967,0.008246,0.000197,0.008250,-0.002970,88.991761,0.008357,
580,1610,2.646097,-4.530934,0.999996,0.000228,-0.005378,0.010024,0.000184,0.010027,-0.005380,89.315919,0.010036,
1110,1450,0.344869,-4.166937,0.999997,0.000213,-0.003668,0.007432,0.002006,0.007783,-0.004019,80.062693,0.007785,
1430,960,-2.133534,-11.378986,0.999995,0.000397,-0.006874,0.017130,0.002641,0.017417,-0.007161,83.793717,0.017508,
1050,170,0.191446,-19.172419,0.999997,0.000184,-0.001421,0.006942,0.000370,0.006958,-0.001437,87.469741,0.007347,
1270,50,-0.008174,-19.977269,0.999999,0.000113,-0.000139,0.005995,-0.000083,0.005997,-0.000140,-89.228196,0.006845,
1300,1580,-0.169083,-3.092073,0.999997,0.000209,-0.002681,0.007100,-0.000578,0.007134,-0.002715,-86.629597,0.007202,
1140,800,0.312126,-14.869410,0.999994,0.000307,-0.004610,0.005858,-0.004216,0.007344,-0.006097,-70.573834,0.007860,
1120,750,0.328984,-14.995311,0.999996,0.000260,-0.004685,0.007138,-0.003975,0.008350,-0.005898,-73.040212,0.008584,
1330,1740,-0.191814,-1.968018,0.999998,0.000139,-0.002197,0.007229,-0.000207,0.007233,-0.002201,-88.741284,0.007416,
1050,1540,0.538891,-3.667111,0.999996,0.000245,-0.003726,0.008284,0.001278,0.008418,-0.003860,83.990935,0.008428,
1470,980,-2.462574,-10.782800,0.999995,0.000280,-0.005027,0.014343,-0.000246,0.014346,-0.005030,-89.271136,0.014558,
1190,1510,0.104338,-3.550429,0.999998,0.000195,-0.002573,0.006631,0.000499,0.006658,-0.002600,86.905924,0.006711,
1620,470,-1.400107,-16.222269,0.999995,0.000279,-0.004853,0.009923,0.000460,0.009937,-0.004868,88.219737,0.009938,
1840,960,-3.997769,-10.683539,0.999997,0.000215,-0.004312,0.008862,-0.000204,0.008865,-0.004315,-89.112136,0.008866,
760,1970,0.353172,-0.509921,0.999996,0.000244,-0.001374,0.008003,-0.002332,0.008551,-0.001921,-76.779363,0.008973,
1000,1480,0.799855,-4.389220,0.999996,0.000228,-0.004900,0.009382,0.001685,0.009579,-0.005096,83.361389,0.009585,
1830,2020,-0.182195,-0.172403,0.999997,0.000000,-0.003341,0.008718,0.003077,0.009458,-0.004080,76.482673,0.009488,
1620,820,-2.476263,-12.371483,0.999994,0.000286,-0.006131,0.011676,-0.001104,0.011745,-0.006199,-86.465328,0.011751,
590,960,4.135653,-10.655560,0.999995,0.000271,-0.004094,0.008414,0.000044,0.008414,-0.004094,89.799411,0.008415,
1150,480,0.208859,-17.007713,0.999997,0.000208,-0.002829,0.007198,-0.000803,0.007262,-0.002893,-85.449571,0.007312,
1450,570,-0.731691,-15.874068,0.999996,0.000223,-0.004657,0.009059,0.001644,0.009253,-0.004851,83.260289,0.009257,
800,1980,0.246305,-0.408489,0.999997,0.000215,-0.001279,0.007639,-0.001996,0.008065,-0.001706,-77.944080,0.008501,
1610,900,-2.775388,-11.463041,0.999997,0.000254,-0.005210,0.011283,-0.001408,0.011402,-0.005329,-85.155922,0.011410,
1670,1650,-1.483179,-3.444784,0.999996,0.000242,-0.004680,0.009891,-0.000158,0.009893,-0.004682,-89.379072,0.009897,
760,1660,1.610350,-3.443305,0.999996,0.000222,-0.004776,0.010008,0.000094,0.010009,-0.004777,89.637293,0.010012,
560,1390,3.386692,-6.838620,0.999908,0.000000,-0.004427,0.010507,-0.000501,0.010523,-0.004443,-88.080206,0.010566,
1280,1870,-0.051895,-1.039175,0.999999,0.000128,-0.001030,0.006597,0.000090,0.006598,-0.001031,89.327353,0.007098,
1490,1340,-1.176490,-5.977581,0.999996,0.000260,-0.006869,0.011410,-0.001662,0.011560,-0.007019,-84.845635,0.011648,
710,90,0.472295,-19.568615,0.999995,0.000235,-0.002902,0.008527,0.002387,0.009005,-0.003381,78.665201,0.009098,
1420,780,-0.863044,-13.961282,0.999994,0.000299,-0.007320,0.011318,0.003062,0.011808,-0.007810,80.904963,0.012011,
1420,1060,-2.199726,-9.350146,0.999967,0.000642,-0.008861,0.021758,-0.002904,0.022031,-0.009134,-84.629905,0.022138,
1080,1290,0.570011,-5.673626,0.999994,0.000288,-0.006288,0.009532,0.003939,0.010458,-0.007214,76.762595,0.010706,
660,1720,1.906446,-3.156281,0.999996,0.000229,-0.004907,0.010064,-0.000022,0.010064,-0.004907,-89.916566,0.010065,
930,1390,1.334854,-5.637217,0.999995,0.000276,-0.006356,0.011095,0.001143,0.011169,-0.006430,86.267828,0.011212,
830,1690,1.207008,-2.943120,0.999996,0.000218,-0.004172,0.009522,-0.000058,0.009522,-0.004172,-89.755579,0.009546,
890,1290,1.930629,-6.988038,0.999994,0.000271,-0.006822,0.012020,-0.000193,0.012022,-0.006824,-89.414081,0.012059,
1610,620,-1.693916,-14.701060,0.999994,0.000298,-0.005915,0.010793,0.000514,0.010809,-0.005930,88.240743,0.010826,
1530,1410,-1.272841,-5.405244,0.999994,0.000276,-0.006102,0.010787,-0.001216,0.010874,-0.006189,-85.901331,0.010909,
1700,620,-2.212448,-14.397622,0.999996,0.000249,-0.005629,0.010683,-0.000012,0.010683,-0.005629,-89.957154,0.010688,
590,1090,4.139526,-9.546449,0.999997,0.000223,-0.004133,0.008404,-0.000050,0.008404,-0.004133,-89.771302,0.008404,
1110,1430,0.344602,-4.320507,0.999997,0.000223,-0.003723,0.007436,0.002213,0.007859,-0.004146,79.182588,0.007863,
1800,820,-3.455694,-12.055646,0.999995,0.000251,-0.004905,0.009836,-0.000832,0.009883,-0.004952,-86.779451,0.009883,
1370,1590,-0.367309,-3.143421,0.999996,0.000232,-0.003113,0.007730,-0.000889,0.007802,-0.003185,-85.342190,0.007846,
580,460,2.691515,-15.478703,0.999996,0.000242,-0.005469,0.010111,-0.000143,0.010112,-0.005470,-89.474404,0.010123,
570,1610,2.695338,-4.564357,0.999833,0.001534,-0.005569,0.010026,0.000252,0.010031,-0.005573,89.075666,0.010051,
910,560,1.239759,-15.548200,0.999995,0.000264,-0.005317,0.010185,-0.000977,0.010246,-0.005379,-86.409340,0.010250,
1840,940,-3.966246,-10.863324,0.999997,0.000221,-0.004378,0.009085,-0.000493,0.009103,-0.004396,-87.903982,0.009105,
710,1920,0.755556,-1.003171,0.999997,0.000216,-0.003784,0.009350,-0.001985,0.009643,-0.004077,-81.589587,0.009682,
1390,840,-0.917700,-13.612723,0.999994,0.000270,-0.007210,0.011081,0.003522,0.011736,-0.007865,79.469647,0.011960,
1740,1180,-3.339654,-8.571207,0.999996,0.000245,-0.004919,0.010214,0.001096,0.010293,-0.004998,85.878756,0.010294,
1270,770,-0.087011,-15.443927,0.999997,0.000208,-0.002540,0.003247,0.002141,0.003953,-0.003246,71.753719,0.004216,
1830,30,-0.138253,-20.030545,0.999996,0.000000,-0.003059,0.008993,-0.003397,0.009884,-0.003951,-75.295812,0.009950,
1300,1560,-0.175860,-3.232058,0.999997,0.000183,-0.002742,0.007070,-0.000672,0.007116,-0.002788,-86.102151,0.007171,
580,960,4.177426,-10.647921,0.999996,0.000219,-0.003852,0.008309,-0.000060,0.008309,-0.003852,-89.718247,0.008317,
1450,550,-0.717343,-16.052282,0.999996,0.000235,-0.004415,0.008968,0.001483,0.009130,-0.004578,83.751025,0.009130,
980,1670,0.668583,-2.755441,0.999997,0.000220,-0.003545,0.008571,0.000488,0.008591,-0.003565,87.695612,0.008632,
1890,1140,-4.125345,-9.136607,0.999997,0.000201,-0.004209,0.008641,0.000317,0.008649,-0.004217,88.587188,0.008649,
1000,1460,0.821760,-4.580353,0.999996,0.000232,-0.005116,0.009517,0.001793,0.009733,-0.005333,83.114594,0.009748,
1870,330,-2.218492,-16.815113,0.999997,0.000196,-0.004845,0.009897,0.000110,0.009898,-0.004846,89.571061,0.009899,
1620,840,-2.568733,-12.137177,0.999993,0.000299,-0.005947,0.011553,-0.001242,0.011641,-0.006034,-85.961667,0.011643,
1050,150,0.164346,-19.310735,0.999998,0.000156,-0.001233,0.006907,0.000439,0.006931,-0.001257,86.924780,0.007385,
1670,890,-3.042169,-11.505857,0.999996,0.000246,-0.005028,0.010687,-0.001255,0.010787,-0.005127,-85.461138,0.010791,
1370,1570,-0.376348,-3.301608,0.999997,0.000218,-0.003261,0.007770,-0.001096,0.007878,-0.003369,-84.379666,0.007905,
1130,480,0.265472,-16.970520,0.999997,0.000194,-0.002853,0.007340,-0.000815,0.007405,-0.002918,-85.455797,0.007460,
1260,1870,-0.030796,-1.036486,0.999998,0.000165,-0.001065,0.006551,0.000035,0.006551,-0.001065,89.738818,0.007031,
660,1410,2.853979,-6.327194,0.999995,0.000266,-0.005190,0.010303,-0.000245,0.010307,-0.005194,-89.094734,0.010307,
1610,880,-2.689544,-11.693419,0.999994,0.000321,-0.005499,0.011511,-0.001448,0.011634,-0.005622,-85.168027,0.011636,
1880,1510,-2.929036,-5.537334,0.999996,0.000249,-0.005057,0.010190,-0.000001,0.010190,-0.005057,-89.994999,0.010191,
720,650,2.547688,-13.950150,0.999994,0.000287,-0.005501,0.010514,0.000289,0.010519,-0.005506,88.965046,0.010523,
1090,1160,1.289723,-6.789988,0.999994,0.000284,-0.003789,0.008964,0.005624,0.011090,-0.005915,69.294015,0.011098,
830,1670,1.259962,-3.137851,0.999996,0.000206,-0.004377,0.009664,0.000129,0.009665,-0.004378,89.474910,0.009679,
1820,2020,-0.146441,-0.147232,0.999991,0.000000,-0.002199,0.008675,0.003485,0.009696,-0.003220,73.670167,0.009877,
1800,800,-3.385213,-12.258170,0.999996,0.000255,-0.004992,0.010026,-0.000817,0.010070,-0.005036,-86.894453,0.010070,
1350,1740,-0.234406,-1.985462,0.999997,0.000190,-0.002178,0.007331,-0.000160,0.007334,-0.002180,-89.039202,0.007532,
950,1820,0.490675,-1.559451,0.999996,0.000215,-0.002539,0.008074,-0.000468,0.008095,-0.002559,-87.478344,0.008275,
1100,750,0.425851,-14.814409,0.999991,0.000370,-0.005376,0.008241,-0.003950,0.009304,-0.006439,-74.938465,0.009530,
660,1700,1.971603,-3.359352,0.999997,0.000206,-0.004949,0.010082,-0.000001,0.010082,-0.004949,-89.994611,0.010082,
560,1380,3.446069,-6.937513,0.999909,0.000000,-0.005455,0.011126,-0.001231,0.011217,-0.005546,-85.776562,0.011217,
1740,1160,-3.403917,-8.775320,0.999996,0.000241,-0.004792,0.010092,0.001037,0.010164,-0.004864,86.031769,0.010167,
1390,240,-0.241340,-18.689382,0.999998,0.000179,-0.001654,0.007268,-0.000202,0.007272,-0.001658,-88.703990,0.007623,
910,180,0.442302,-18.998794,0.999996,0.000219,-0.001838,0.007848,0.000961,0.007943,-0.001933,84.386517,0.008284,
1300,1540,-0.175156,-3.376029,0.999997,0.000187,-0.002791,0.007043,-0.000820,0.007111,-0.002859,-85.266869,0.007156,
590,190,1.619891,-18.187123,0.999996,0.000259,-0.004988,0.009943,0.000547,0.009963,-0.005008,87.903482,0.009963,
930,1370,1.384651,-5.862476,0.999995,0.000307,-0.006579,0.011274,0.001036,0.011334,-0.006639,86.688394,0.011390,
900,1930,0.296066,-0.742588,0.999997,0.000184,-0.001390,0.007519,-0.001233,0.007687,-0.001557,-82.263219,0.008127,
1110,1410,0.346141,-4.464893,0.999996,0.000240,-0.003826,0.007449,0.002448,0.007958,-0.004334,78.262884,0.007968,
800,1960,0.329837,-0.563857,0.999997,0.000197,-0.001667,0.007928,-0.001904,0.008292,-0.002031,-79.175529,0.008644,
570,960,4.214508,-10.636188,0.999953,0.000799,-0.003726,0.008202,-0.000155,0.008204,-0.003728,-89.254120,0.008216,
1660,770,-2.509563,-12.854311,0.999993,0.000335,-0.006022,0.011222,-0.000833,0.011262,-0.006062,-87.241588,0.011273,
1480,450,-0.745287,-16.842157,0.999997,0.000203,-0.003933,0.008806,0.000847,0.008862,-0.003989,86.214435,0.008877,
1490,1050,-2.631698,-9.783927,0.999993,0.000304,-0.004098,0.013621,0.000384,0.013629,-0.004107,88.760371,0.013983,
960,1670,0.742172,-2.808102,0.999997,0.000196,-0.003705,0.008719,0.000439,0.008735,-0.003720,87.977312,0.008767,
1000,450,0.678707,-16.893789,0.999996,0.000240,-0.003853,0.008642,-0.000909,0.008708,-0.003919,-85.861602,0.008723,
1030,1160,1.645715,-7.825872,0.999992,0.000325,-0.006940,0.014200,0.001684,0.014333,-0.007073,85.474239,0.014334,
1870,340,-2.252289,-16.715438,0.999997,0.000203,-0.004873,0.009880,0.000128,0.009881,-0.004874,89.502650,0.009881,
880,1460,1.477598,-5.093842,0.999995,0.000258,-0.005717,0.010505,0.000753,0.010540,-0.005752,87.346851,0.010555,
1190,1490,0.104684,-3.681625,0.999998,0.000203,-0.002585,0.006482,0.000576,0.006519,-0.002622,86.380551,0.006560,
1260,50,-0.006083,-19.976547,0.999998,0.000146,-0.000186,0.005995,-0.000041,0.005996,-0.000186,-89.619571,0.006818,
1670,1630,-1.532800,-3.643938,0.999996,0.000249,-0.004768,0.009946,-0.000235,0.009950,-0.004772,-89.085522,0.009953,
1510,1260,-1.608896,-7.070107,0.999994,0.000304,-0.007499,0.012709,-0.000418,0.012717,-0.007508,-88.816711,0.012786,
710,70,0.352454,-19.734836,0.999993,0.000311,-0.002161,0.008635,0.002891,0.009360,-0.002886,75.912575,0.009587,
1590,450,-1.209998,-16.519368,0.999996,0.000246,-0.004633,0.009702,0.000509,0.009720,-0.004651,87.970146,0.009723,
1050,370,0.435073,-17.669987,0.999996,0.000245,-0.002988,0.008015,-0.000468,0.008035,-0.003008,-87.569105,0.008119,
780,1570,1.750364,-4.292576,0.999996,0.000220,-0.005079,0.010178,0.000328,0.010185,-0.005086,88.770760,0.010185,
1610,600,-1.641479,-14.915175,0.999994,0.000295,-0.005763,0.010607,0.000570,0.010627,-0.005783,88.007658,0.010641,
1410,840,-1.063811,-13.357654,0.999995,0.000257,-0.007576,0.012111,0.002881,0.012524,-0.007989,81.842231,0.012681,
1840,920,-3.921269,-11.046598,0.999996,0.000237,-0.004427,0.009131,-0.000520,0.009151,-0.004447,-87.806911,0.009152,
1070,1480,0.488456,-4.088614,0.999996,0.000213,-0.003978,0.008117,0.001796,0.008378,-0.004239,81.730141,0.008378,
1700,640,-2.276303,-14.179471,0.999994,0.000287,-0.005687,0.010708,-0.000114,0.010709,-0.005687,-89.602783,0.010716,
1140,1580,0.236511,-3.133153,0.999997,0.000217,-0.002871,0.007275,0.000796,0.007337,-0.002933,85.543707,0.007386,
580,1090,4.180851,-9.553316,0.999997,0.000218,-0.004007,0.008326,0.000049,0.008326,-0.004007,89.772604,0.008328,
1310,620,-0.201707,-16.041045,0.999997,0.000198,-0.002923,0.006466,0.001610,0.006735,-0.003191,80.535183,0.006738,
960,700,1.222944,-14.282008,0.999995,0.000261,-0.006704,0.011340,-0.001461,0.011458,-0.006821,-85.400819,0.011527,
760,1640,1.664764,-3.646332,0.999995,0.000254,-0.004880,0.010072,0.000198,0.010075,-0.004883,89.240422,0.010076,
1500,110,-0.185641,-19.553961,0.999998,0.000164,-0.001155,0.007087,-0.000898,0.007184,-0.001252,-83.851370,0.007675,
1380,750,-0.525760,-14.654891,0.999996,0.000276,-0.005927,0.009099,0.003859,0.010032,-0.006860,76.407438,0.010255,
1420,760,-0.801164,-14.184937,0.999995,0.000272,-0.006960,0.010922,0.003082,0.011438,-0.007476,80.490470,0.011617,
1800,780,-3.314655,-12.459846,0.999996,0.000247,-0.005068,0.010031,-0.000745,0.010067,-0.005104,-87.182047,0.010068,
1860,410,-2.427801,-16.053446,0.999996,0.000234,-0.004980,0.009979,0.000124,0.009980,-0.004981,89.526121,0.009980,
730,1820,1.195221,-1.929175,0.999994,0.000256,-0.004074,0.009829,-0.000958,0.009895,-0.004139,-86.075861,0.009939,
1090,1150,1.393359,-6.877731,0.999984,0.000471,-0.003490,0.009540,0.006471,0.012207,-0.006158,67.596570,0.012208,
1650,900,-2.976289,-11.417077,0.999996,0.000240,-0.004997,0.010843,-0.001292,0.010948,-0.005101,-85.366780,0.010956,
1880,1500,-2.960275,-5.639829,0.999995,0.000255,-0.005052,0.010212,0.000010,0.010212,-0.005052,89.961189,0.010212,
560,1370,3.529096,-7.055736,0.999459,0.000000,-0.006384,0.010646,-0.001102,0.010717,-0.006455,-86.311544,0.010792,
1370,1550,-0.383405,-3.459297,0.999996,0.000220,-0.003411,0.007781,-0.001289,0.007928,-0.003557,-83.513301,0.007942,
790,1820,0.966121,-1.805645,0.999996,0.000225,-0.003874,0.009379,-0.000854,0.009434,-0.003929,-86.329140,0.009478,
1010,1740,0.482256,-2.118563,0.999997,0.000200,-0.002557,0.007978,0.000015,0.007978,-0.002557,89.918503,0.008148,
1260,1230,-0.135089,-4.807368,0.999996,0.000218,-0.004785,0.002636,-0.000855,0.002733,-0.004882,-83.514925,0.004894,
1450,530,-0.704100,-16.230503,0.999996,0.000229,-0.004263,0.008851,0.001357,0.008989,-0.004402,84.153143,0.008990,
1300,1520,-0.176664,-3.517246,0.999998,0.000173,-0.002835,0.006913,-0.000920,0.006999,-0.002921,-84.657434,0.007031,
580,190,1.669282,-18.140863,0.999996,0.000252,-0.005430,0.009807,0.000532,0.009825,-0.005448,88.003400,0.009845,
810,340,1.225966,-17.402159,0.999998,0.000182,-0.004420,0.009627,0.000030,0.009628,-0.004420,89.876256,0.009638,
930,1350,1.442383,-6.090407,0.999995,0.000292,-0.006783,0.011533,0.000934,0.011580,-0.006830,87.089802,0.011642,
740,970,3.499981,-10.645707,0.999995,0.000254,-0.004380,0.009909,0.000572,0.009931,-0.004403,87.711891,0.009953,
1840,350,-2.137553,-16.727880,0.999997,0.000253,-0.004881,0.010018,0.000088,0.010019,-0.004882,89.661250,0.010020,
1740,1140,-3.458025,-8.976018,0.999996,0.000244,-0.004644,0.009843,0.000854,0.009893,-0.004694,86.639109,0.009897,
1110,1390,0.341394,-4.612013,0.999996,0.000251,-0.003977,0.007451,0.002709,0.008060,-0.004586,77.317677,0.008086,
1030,1030,2.354274,-10.032284,0.999982,0.000524,-0.007993,0.019566,0.000067,0.019566,-0.007993,89.861426,0.019675,
1630,1620,-1.369556,-3.621404,0.999995,0.000271,-0.004732,0.009874,-0.000342,0.009882,-0.004740,-88.661092,0.009885,
900,1910,0.355408,-0.895066,0.999996,0.000219,-0.001628,0.007676,-0.001146,0.007816,-0.001767,-83.079326,0.008197,
940,590,1.129970,-15.361544,0.999995,0.000277,-0.005501,0.010173,-0.001262,0.010274,-0.005602,-85.424429,0.010288,
800,1940,0.426065,-0.729595,0.999996,0.000249,-0.002052,0.008239,-0.001877,0.008570,-0.002383,-79.976410,0.008847,
1350,240,-0.178566,-18.716738,0.999997,0.000186,-0.001661,0.007080,-0.000087,0.007081,-0.001662,-89.429428,0.007406,
590,840,3.861801,-11.722621,0.999998,0.000173,-0.004527,0.009257,0.000357,0.009266,-0.004537,88.515866,0.009267,
700,1980,0.412418,-0.483417,0.999995,0.000258,-0.002297,0.008931,-0.003069,0.009715,-0.003081,-75.669753,0.009930,
1080,870,1.083838,-13.389678,0.999981,0.000478,-0.006213,0.010389,-0.004208,0.011395,-0.007219,-76.558161,0.011529,
1190,1910,0.032724,-0.775581,0.999998,0.000159,-0.000770,0.006444,-0.000081,0.006445,-0.000771,-89.353966,0.007039,
1050,130,0.134760,-19.449109,0.999997,0.000195,-0.001044,0.006746,0.000479,0.006775,-0.001074,86.496100,0.007283,
1480,110,-0.162780,-19.563724,0.999997,0.000213,-0.000898,0.006958,-0.000827,0.007044,-0.000984,-84.051865,0.007630,
1640,750,-2.307044,-13.134512,0.999994,0.000308,-0.006277,0.011426,-0.000612,0.011447,-0.006298,-88.023693,0.011466,
1670,1590,-1.633753,-4.046147,0.999997,0.000205,-0.004994,0.010106,-0.000326,0.010113,-0.005001,-88.763397,0.010114,
1840,900,-3.877426,-11.230961,0.999996,0.000225,-0.004435,0.009041,-0.000435,0.009055,-0.004449,-88.151790,0.009056,
890,550,1.325434,-15.576710,0.999996,0.000252,-0.005292,0.010190,-0.000839,0.010236,-0.005337,-86.908030,0.010239,
1490,810,-1.525330,-13.014419,0.999992,0.000358,-0.007750,0.012966,0.000712,0.012991,-0.007775,88.034676,0.013074,
730,1800,1.276671,-2.130263,0.999997,0.000224,-0.004238,0.009907,-0.000809,0.009953,-0.004284,-86.736944,0.009985,
1820,2000,-0.325459,-0.322628,0.999988,0.000409,-0.002613,0.009324,0.003333,0.010191,-0.003480,75.411070,0.010360,
1370,1530,-0.391088,-3.616248,0.999996,0.000234,-0.003516,0.007772,-0.001450,0.007955,-0.003700,-82.797994,0.007962,
1310,600,-0.204685,-16.171324,0.999997,0.000221,-0.002911,0.006634,0.001446,0.006849,-0.003126,81.569915,0.006857,
1490,1260,-1.456596,-6.950161,0.999995,0.000277,-0.007717,0.012726,-0.000948,0.012769,-0.007760,-87.351463,0.012868,
1300,1500,-0.178081,-3.655971,0.999998,0.000163,-0.002863,0.006801,-0.001051,0.006914,-0.002976,-83.866767,0.006937,
1450,510,-0.686674,-16.404714,0.999995,0.000234,-0.004172,0.008764,0.001257,0.008885,-0.004293,84.501186,0.008887,
1240,1230,-0.043016,-4.736572,0.999996,0.000242,-0.005455,0.002490,-0.000226,0.002496,-0.005461,-88.369576,0.005468,
1800,760,-3.242134,-12.660896,0.999997,0.000218,-0.005087,0.010066,-0.000694,0.010098,-0.005119,-87.384943,0.010098,
1530,1390,-1.315919,-5.622849,0.999995,0.000279,-0.006331,0.011084,-0.001190,0.011165,-0.006412,-86.109567,0.011206,
1040,610,0.635830,-15.631320,0.999995,0.000246,-0.004685,0.008918,-0.002055,0.009221,-0.004989,-81.594257,0.009232,
1270,750,-0.079277,-15.513651,0.999997,0.000182,-0.002346,0.003628,0.001987,0.004228,-0.002946,73.186142,0.004336,
1160,1370,0.169643,-4.487516,0.999998,0.000176,-0.002932,0.005769,0.002238,0.006311,-0.003474,76.391327,0.006322,
1630,1600,-1.415106,-3.819406,0.999997,0.000219,-0.004828,0.009900,-0.000424,0.009912,-0.004840,-88.350794,0.009913,
1860,350,-2.236222,-16.654748,0.999997,0.000213,-0.004903,0.009918,0.000146,0.009920,-0.004905,89.434440,0.009920,
810,320,1.168728,-17.596649,0.999997,0.000236,-0.004212,0.009562,0.000186,0.009565,-0.004214,89.227206,0.009587,
1820,770,-3.378745,-12.516173,0.999996,0.000250,-0.004962,0.009940,-0.000646,0.009968,-0.004990,-87.523405,0.009968,
1870,1510,-2.878060,-5.505342,0.999997,0.000191,-0.005069,0.010185,-0.000019,0.010185,-0.005069,-89.927761,0.010185,
560,1360,3.618441,-7.181747,0.999289,0.000000,-0.007239,0.009814,-0.000342,0.009820,-0.007246,-88.851816,0.010184,
1030,1020,2.347957,-10.223616,0.999980,0.000594,-0.007932,0.019702,-0.000476,0.019710,-0.007940,-89.014342,0.019834,
1700,660,-2.341620,-13.966309,0.999994,0.000292,-0.005727,0.010723,-0.000236,0.010726,-0.005730,-89.178548,0.010734,
650,460,2.340495,-15.702585,0.999996,0.000241,-0.005062,0.010128,-0.000148,0.010130,-0.005063,-89.442405,0.010130,
930,1330,1.501268,-6.326715,0.999995,0.000299,-0.006983,0.011788,0.000814,0.011824,-0.007018,87.521960,0.011892,
1610,1900,-0.484377,-1.014433,0.999997,0.000227,-0.002140,0.008181,0.001395,0.008367,-0.002325,82.435000,0.008637,
800,1920,0.510907,-0.891443,0.999996,0.000246,-0.002516,0.008352,-0.001696,0.008610,-0.002775,-81.330834,0.008790,
1110,1370,0.342370,-4.759979,0.999996,0.000239,-0.004178,0.007412,0.003010,0.008147,-0.004913,76.278410,0.008205,
700,1960,0.531406,-0.648806,0.999996,0.000233,-0.003056,0.008855,-0.002476,0.009349,-0.003551,-78.713114,0.009439,
1530,940,-2.549735,-11.130819,0.999994,0.000290,-0.004984,0.012300,-0.001375,0.012409,-0.005093,-85.480476,0.012475,
1480,1190,-1.772830,-7.815692,0.999994,0.000309,-0.007455,0.013610,-0.000005,0.013610,-0.007455,-89.987634,0.013631,
1740,1120,-3.501847,-9.172978,0.999995,0.000256,-0.004555,0.009880,0.000831,0.009928,-0.004602,86.715036,0.009936,
1840,880,-3.832782,-11.410155,0.999996,0.000246,-0.004523,0.009235,-0.000527,0.009255,-0.004543,-87.810386,0.009256,
1190,240,0.062485,-18.748962,0.999998,0.000184,-0.001421,0.006862,0.000037,0.006862,-0.001421,89.746840,0.007244,
1440,750,-0.917097,-14.128433,0.999996,0.000285,-0.007054,0.011266,0.002647,0.011641,-0.007429,81.939702,0.011788,
1400,1610,-0.455467,-3.064696,0.999996,0.000224,-0.003347,0.008003,-0.000898,0.008074,-0.003418,-85.505605,0.008105,
1670,1570,-1.684526,-4.251368,0.999995,0.000242,-0.005087,0.010166,-0.000371,0.010175,-0.005096,-88.608644,0.010175,
810,1820,0.889991,-1.764064,0.999995,0.000239,-0.003457,0.009192,-0.000918,0.009259,-0.003523,-85.870567,0.009346,
1540,1010,-2.824423,-10.275713,0.999997,0.000208,-0.003627,0.011494,-0.000385,0.011504,-0.003637,-88.542378,0.011760,
990,1740,0.532587,-2.148611,0.999998,0.000163,-0.002686,0.008133,-0.000019,0.008134,-0.002686,-89.900534,0.008288,
890,510,1.250080,-15.979038,0.999996,0.000249,-0.005048,0.009930,-0.000768,0.009969,-0.005088,-87.070616,0.009970,
1730,1740,-1.491607,-2.721427,0.999996,0.000242,-0.004540,0.009928,0.000276,0.009933,-0.004545,88.907148,0.009945,
1270,680,-0.082237,-15.818186,0.999997,0.000221,-0.002404,0.005025,0.001300,0.005246,-0.002625,80.357960,0.005246,
1490,770,-1.347441,-13.525137,0.999993,0.000351,-0.007511,0.012347,0.001216,0.012421,-0.007585,86.509279,0.012522,
1640,730,-2.229766,-13.363757,0.999997,0.000287,-0.006250,0.011368,-0.000437,0.011379,-0.006260,-88.578645,0.011398,
1190,1930,0.031166,-0.649996,0.999998,0.000175,-0.000609,0.006350,-0.000088,0.006351,-0.000610,-89.272891,0.007008,
1050,90,0.081538,-19.715308,0.999998,0.000181,-0.000691,0.006464,0.000469,0.006494,-0.000721,86.264406,0.007119,
1750,1560,-2.119197,-4.612441,0.999997,0.000205,-0.005132,0.010270,-0.000196,0.010273,-0.005134,-89.272068,0.010273,
1800,740,-3.172231,-12.864288,0.999997,0.000197,-0.005138,0.010156,-0.000640,0.010183,-0.005165,-87.607012,0.010183,
820,590,1.806769,-14.904589,0.999995,0.000238,-0.005658,0.010642,-0.000359,0.010650,-0.005666,-88.740572,0.010657,
1370,1510,-0.397099,-3.775451,0.999996,0.000234,-0.003603,0.007743,-0.001602,0.007965,-0.003825,-82.113098,0.007967,
1450,490,-0.667959,-16.583742,0.999996,0.000210,-0.004075,0.008732,0.001180,0.008840,-0.004183,84.781526,0.008844,
1300,1480,-0.175556,-3.792252,0.999998,0.000180,-0.002894,0.006690,-0.001212,0.006840,-0.003045,-82.903933,0.006854,
1220,1250,0.040536,-4.704590,0.999997,0.000204,-0.003478,0.002054,0.000613,0.002121,-0.003545,83.751388,0.003568,
600,550,2.858390,-14.625240,0.999996,0.000210,-0.005048,0.010230,-0.000014,0.010230,-0.005048,-89.947924,0.010230,
560,1350,3.627535,-7.254556,0.999394,0.000000,-0.007838,0.009303,0.000516,0.009319,-0.007853,88.278717,0.010022,
1180,110,0.027914,-19.607913,0.999997,0.000193,-0.000511,0.006339,0.000150,0.006342,-0.000514,88.742047,0.007045,
1030,1140,1.811154,-8.112486,0.999991,0.000379,-0.006623,0.014735,0.001786,0.014883,-0.006772,85.251837,0.014903,
1650,1260,-2.551562,-7.565194,0.999995,0.000298,-0.006030,0.011364,0.000986,0.011420,-0.006086,86.765826,0.011428,
1040,730,0.760186,-14.481625,0.999995,0.000264,-0.006475,0.010430,-0.003001,0.010946,-0.006992,-80.227421,0.011086,
810,220,0.833163,-18.533808,0.999998,0.000207,-0.003351,0.009066,0.001034,0.009152,-0.003436,85.271706,0.009246,
800,1900,0.601014,-1.064262,0.999996,0.000261,-0.002806,0.008669,-0.001572,0.008881,-0.003017,-82.336582,0.009031,
1860,1510,-2.828124,-5.474339,0.999996,0.000215,-0.005058,0.010183,-0.000035,0.010183,-0.005058,-89.866854,0.010183,
1700,1100,-3.366503,-9.353919,0.999996,0.000238,-0.004463,0.010181,0.000907,0.010237,-0.004519,86.469260,0.010261,
1840,770,-3.477123,-12.469407,0.999995,0.000252,-0.004937,0.009878,-0.000546,0.009898,-0.004957,-87.892453,0.009898,
1630,1900,-0.524283,-1.030474,0.999997,0.000207,-0.001975,0.008351,0.001567,0.008583,-0.002208,81.558592,0.008914,
1110,1570,0.323216,-3.260005,0.999997,0.000181,-0.002961,0.007521,0.000886,0.007595,-0.003035,85.201529,0.007646,
930,1310,1.570081,-6.568539,0.999995,0.000303,-0.007151,0.012075,0.000633,0.012096,-0.007172,88.117585,0.012166,
1550,620,-1.338202,-14.939403,0.999994,0.000286,-0.005891,0.010595,0.001042,0.010661,-0.005957,86.397958,0.010685,
700,1940,0.669720,-0.839036,0.999996,0.000246,-0.003515,0.009413,-0.002344,0.009825,-0.003926,-80.032679,0.009890,
1670,1550,-1.734009,-4.456689,0.999996,0.000222,-0.005164,0.010246,-0.000369,0.010255,-0.005173,-88.628477,0.010255,
1580,1190,-2.445744,-8.230872,0.999995,0.000291,-0.006065,0.011995,0.001297,0.012087,-0.006158,85.913030,0.012088,
1380,1610,-0.388745,-3.012322,0.999996,0.000267,-0.003161,0.007790,-0.000858,0.007857,-0.003228,-85.548409,0.007898,
1420,1830,-0.278480,-1.385858,0.999997,0.000195,-0.001963,0.007332,0.000190,0.007335,-0.001967,88.830555,0.007594,
1110,1740,0.239511,-1.989893,0.999997,0.000202,-0.002160,0.007338,0.000166,0.007341,-0.002163,88.997459,0.007544,
880,1900,0.427429,-0.991713,0.999996,0.000225,-0.002187,0.007946,-0.001165,0.008078,-0.002319,-83.525408,0.008319,
1050,70,0.059588,-19.842622,0.999998,0.000175,-0.000497,0.006379,0.000523,0.006418,-0.000537,85.671609,0.007122,
1710,1740,-1.403047,-2.669047,0.999996,0.000261,-0.004334,0.009806,0.000298,0.009812,-0.004340,88.791486,0.009834,
1740,1100,-3.547757,-9.372289,0.999995,0.000265,-0.004458,0.009902,0.000757,0.009942,-0.004498,86.990869,0.009957,
1550,940,-2.651053,-11.089247,0.999996,0.000248,-0.004774,0.011878,-0.001417,0.011998,-0.004893,-85.170454,0.012066,
1520,1010,-2.750163,-10.287695,0.999996,0.000237,-0.003707,0.012061,-0.000368,0.012070,-0.003715,-88.665046,0.012363,
1250,680,-0.038206,-15.848135,0.999998,0.000142,-0.002127,0.004737,0.000657,0.004799,-0.002189,84.578578,0.004805,
1840,860,-3.770494,-11.603618,0.999996,0.000257,-0.004633,0.009526,-0.000662,0.009557,-0.004664,-87.329017,0.009558,
1450,470,-0.648208,-16.760050,0.999996,0.000223,-0.003920,0.008643,0.001068,0.008733,-0.004010,85.174640,0.008743,
1750,1540,-2.174661,-4.819255,0.999995,0.000263,-0.005205,0.010268,-0.000188,0.010270,-0.005207,-89.303487,0.010271,
1620,770,-2.260450,-12.960144,0.999993,0.000333,-0.006391,0.011625,-0.000650,0.011648,-0.006414,-87.937787,0.011668,
1190,1950,0.022472,-0.521081,0.999998,0.000171,-0.000483,0.006282,-0.000109,0.006283,-0.000485,-89.073726,0.006992,
1490,750,-1.280554,-13.768651,0.999992,0.000354,-0.007281,0.011982,0.001404,0.012083,-0.007382,85.853917,0.012182,
680,710,2.974070,-13.214904,0.999996,0.000218,-0.005264,0.010285,0.000573,0.010306,-0.005285,87.890708,0.010307,
570,440,2.690719,-15.647016,0.999836,0.001513,-0.006089,0.009885,-0.000446,0.009898,-0.006102,-88.400425,0.009987,
560,1340,3.639372,-7.329725,0.999553,0.000000,-0.007944,0.009646,0.000969,0.009699,-0.007997,86.856280,0.010358,
1300,1460,-0.175629,-3.927113,0.999998,0.000197,-0.002901,0.006518,-0.001323,0.006700,-0.003084,-82.153630,0.006707,
1040,710,0.724678,-14.690231,0.999995,0.000270,-0.006115,0.010059,-0.002872,0.010554,-0.006610,-80.222883,0.010666,
800,1880,0.687452,-1.236969,0.999996,0.000226,-0.003088,0.008771,-0.001376,0.008928,-0.003245,-83.469520,0.009038,
1370,1490,-0.400866,-3.929807,0.999997,0.000213,-0.003640,0.007710,-0.001713,0.007963,-0.003893,-81.601509,0.007963,
1060,370,0.403620,-17.690640,0.999996,0.000225,-0.002879,0.007900,-0.000440,0.007918,-0.002897,-87.668858,0.008012,
1800,720,-3.098016,-13.068273,0.999996,0.000231,-0.005187,0.010184,-0.000565,0.010205,-0.005208,-87.896869,0.010205,
1590,900,-2.673061,-11.491257,0.999995,0.000266,-0.005335,0.011596,-0.001444,0.011718,-0.005457,-85.161392,0.011728,
960,720,1.275075,-14.052410,0.999994,0.000304,-0.006936,0.011574,-0.001373,0.011675,-0.007037,-85.780370,0.011757,
1030,1120,1.971774,-8.413930,0.999993,0.000302,-0.006456,0.015185,0.001947,0.015359,-0.006630,84.898586,0.015407,
760,1620,1.721472,-3.848442,0.999996,0.000247,-0.004949,0.010088,0.000230,0.010091,-0.004952,89.122929,0.010092,
1520,1510,-1.043680,-4.332495,0.999997,0.000219,-0.004931,0.009761,-0.001121,0.009846,-0.005016,-85.660318,0.009846,
1520,1930,-0.246724,-0.724762,0.999997,0.000223,-0.001272,0.007247,0.000978,0.007358,-0.001382,83.532129,0.007821,
1220,1230,0.058389,-4.743938,0.999996,0.000232,-0.005374,0.002489,0.000308,0.002501,-0.005387,87.762009,0.005391,
1080,50,0.029480,-19.972430,0.999998,0.000175,-0.000148,0.006150,0.000411,0.006177,-0.000175,86.281782,0.007034,
1110,530,0.332341,-16.561433,0.999996,0.000238,-0.003249,0.007562,-0.001294,0.007714,-0.003402,-83.268737,0.007732,
980,110,0.165765,-19.561547,0.999998,0.000228,-0.000927,0.006950,0.000832,0.007037,-0.001014,84.033910,0.007608,
810,200,0.756414,-18.714064,0.999996,0.000231,-0.003119,0.008953,0.001219,0.009075,-0.003241,84.293123,0.009198,
590,550,2.908734,-14.594140,0.999997,0.000206,-0.005025,0.010230,-0.000002,0.010230,-0.005025,-89.992953,0.010230,
1420,740,-0.759400,-14.397201,0.999994,0.000297,-0.006617,0.010558,0.003092,0.011098,-0.007156,80.098403,0.011252,
930,1290,1.647540,-6.816688,0.999993,0.000311,-0.007233,0.012303,0.000405,0.012311,-0.007241,88.811674,0.012375,
1140,1600,0.231710,-2.987202,0.999998,0.000183,-0.002814,0.007329,0.000722,0.007380,-0.002865,85.946630,0.007441,
700,1920,0.793599,-1.025542,0.999997,0.000212,-0.003835,0.009493,-0.002038,0.009797,-0.004140,-81.497901,0.009836,
880,1880,0.488648,-1.149030,0.999996,0.000250,-0.002447,0.008022,-0.001008,0.008119,-0.002543,-84.551475,0.008305,
1740,1080,-3.579020,-9.570881,0.999995,0.000252,-0.004357,0.009696,0.000439,0.009709,-0.004371,88.210992,0.009726,
800,970,3.237182,-10.666951,0.999996,0.000258,-0.004261,0.010292,0.000784,0.010334,-0.004303,86.924862,0.010382,
1550,600,-1.298128,-15.149238,0.999995,0.000291,-0.005688,0.010392,0.001049,0.010461,-0.005756,86.283164,0.010478,
970,1860,0.358606,-1.222876,0.999997,0.000210,-0.002029,0.007629,-0.000579,0.007664,-0.002063,-86.579905,0.007932,
1670,1530,-1.784683,-4.659832,0.999995,0.000240,-0.005279,0.010329,-0.000360,0.010338,-0.005287,-88.679426,0.010339,
1450,450,-0.629046,-16.933949,0.999996,0.000225,-0.003716,0.008498,0.000900,0.008564,-0.003782,85.806959,0.008583,
1040,1980,0.073470,-0.350962,0.999998,0.000162,-0.000544,0.006457,-0.000576,0.006504,-0.000591,-85.325225,0.007193,
1840,840,-3.709783,-11.793464,0.999996,0.000241,-0.004687,0.009459,-0.000609,0.009485,-0.004713,-87.540720,0.009485,
1600,770,-2.131091,-13.019497,0.999997,0.000195,-0.006596,0.011801,-0.000501,0.011814,-0.006609,-88.442316,0.011842,
1190,1970,0.019930,-0.397419,0.999998,0.000166,-0.000372,0.006187,-0.000100,0.006188,-0.000374,-89.130227,0.006940,
570,430,2.670666,-15.751565,0.999852,0.001587,-0.006253,0.010050,-0.000271,0.010054,-0.006257,-89.048720,0.010154,
1300,1680,-0.149922,-2.376241,0.999998,0.000177,-0.002231,0.007182,-0.000157,0.007185,-0.002234,-89.046571,0.007354,
600,1030,4.146086,-10.057605,0.999996,0.000238,-0.004151,0.008701,-0.000034,0.008701,-0.004151,-89.850111,0.008704,
1340,1670,-0.253083,-2.496630,0.999997,0.000210,-0.002579,0.007447,-0.000479,0.007470,-0.002602,-87.269644,0.007584,
1690,720,-2.494232,-13.339977,0.999995,0.000267,-0.005918,0.010990,-0.000582,0.011010,-0.005938,-88.031644,0.011022,
560,1330,3.674676,-7.444190,0.999741,0.000000,-0.007281,0.010206,0.000654,0.010231,-0.007306,87.859946,0.010539,
940,570,1.096209,-15.565511,0.999996,0.000245,-0.005311,0.010031,-0.001231,0.010129,-0.005409,-85.442169,0.010137,
1230,680,0.002931,-15.866322,0.999996,0.000242,-0.002087,0.004673,-0.000067,0.004673,-0.002087,-89.434575,0.004682,
960,740,1.339395,-13.814189,0.999993,0.000307,-0.007154,0.011885,-0.001227,0.011963,-0.007233,-86.327997,0.012050,
1800,700,-3.028228,-13.274898,0.999997,0.000225,-0.005204,0.010205,-0.000494,0.010221,-0.005220,-88.165529,0.010222,
800,1860,0.770662,-1.418491,0.999996,0.000226,-0.003315,0.009002,-0.001226,0.009123,-0.003436,-84.368819,0.009215,
1380,430,-0.380402,-17.263837,0.999996,0.000228,-0.003001,0.007772,0.000734,0.007822,-0.003051,86.118903,0.007885,
1410,940,-1.856897,-11.997114,0.999987,0.000416,-0.006447,0.015824,0.005378,0.017055,-0.007677,77.111240,0.017083,
1370,1470,-0.404552,-4.083215,0.999996,0.000236,-0.003708,0.007763,-0.001837,0.008050,-0.003995,-81.122240,0.008050,
580,550,2.959545,-14.564046,0.999996,0.000226,-0.004969,0.010205,-0.000008,0.010205,-0.004969,-89.969190,0.010206,
980,930,2.242011,-11.426749,0.999995,0.000244,-0.005828,0.013827,0.000762,0.013856,-0.005858,87.783802,0.013911,
1520,1910,-0.292509,-0.868791,0.999997,0.000212,-0.001520,0.007378,0.000900,0.007468,-0.001610,84.284846,0.007861,
1110,510,0.329756,-16.711443,0.999997,0.000209,-0.003108,0.007526,-0.001094,0.007637,-0.003220,-84.186629,0.007668,
1680,1490,-1.942285,-5.113906,0.999995,0.000245,-0.005451,0.010475,-0.000248,0.010478,-0.005454,-89.109533,0.010481,
960,110,0.189121,-19.553250,0.999998,0.000202,-0.001185,0.007085,0.000919,0.007186,-0.001286,83.737682,0.007664,
700,1900,0.918698,-1.222188,0.999997,0.000229,-0.004130,0.009821,-0.001734,0.010033,-0.004343,-83.020616,0.010063,
600,1290,3.570723,-7.703037,0.999995,0.000241,-0.004868,0.009797,-0.000380,0.009807,-0.004877,-88.515690,0.009807,
1000,470,0.700607,-16.718257,0.999996,0.000259,-0.003986,0.008763,-0.001020,0.008844,-0.004067,-85.452592,0.008854,
930,1270,1.733759,-7.065041,0.999993,0.000317,-0.007284,0.012457,0.000171,0.012458,-0.007286,89.504893,0.012518,
880,1860,0.552924,-1.314203,0.999995,0.000252,-0.002691,0.008326,-0.000933,0.008404,-0.002769,-85.194208,0.008566,
760,1600,1.772758,-4.052673,0.999996,0.000235,-0.005008,0.010118,0.000251,0.010122,-0.005012,89.050231,0.010122,
1350,180,-0.127069,-19.132665,0.999997,0.000201,-0.001197,0.006737,-0.000216,0.006743,-0.001203,-88.438971,0.007192,
1530,620,-1.222384,-15.023223,0.999995,0.000274,-0.005791,0.010457,0.001187,0.010543,-0.005877,85.843680,0.010566,
870,1740,0.925843,-2.381060,0.999996,0.000245,-0.003821,0.009135,-0.000117,0.009136,-0.003822,-89.481083,0.009177,
1420,720,-0.721753,-14.608080,0.999994,0.000283,-0.006260,0.010142,0.002978,0.010666,-0.006784,80.019698,0.010797,
1700,1080,-3.408555,-9.557778,0.999995,0.000268,-0.004337,0.010004,0.000543,0.010025,-0.004357,87.832714,0.010053,
1070,50,0.030531,-19.971744,0.999998,0.000183,-0.000208,0.006182,0.000437,0.006211,-0.000238,86.104810,0.007039,
1820,1390,-3.008353,-6.582967,0.999997,0.000194,-0.005119,0.010204,0.000307,0.010210,-0.005125,88.853666,0.010210,
1670,1510,-1.836277,-4.872305,0.999995,0.000267,-0.005387,0.010424,-0.000336,0.010431,-0.005395,-88.782933,0.010433,
980,970,2.478498,-10.872624,0.999993,0.000291,-0.004781,0.013605,0.000714,0.013633,-0.004809,87.780133,0.013829,
850,1220,2.502457,-7.949871,0.999993,0.000282,-0.006056,0.011707,-0.001203,0.011788,-0.006137,-86.143898,0.011791,
1490,1820,-0.433033,-1.529481,0.999997,0.000206,-0.002335,0.007877,0.000398,0.007892,-0.002350,87.773168,0.008104,
1740,1280,-2.984007,-7.531784,0.999996,0.000273,-0.005363,0.010565,0.000913,0.010617,-0.005415,86.731721,0.010618,
1800,680,-2.956802,-13.478880,0.999997,0.000224,-0.005197,0.010248,-0.000409,0.010259,-0.005208,-88.484959,0.010260,
1300,1440,-0.173735,-4.057440,0.999997,0.000207,-0.002888,0.006346,-0.001498,0.006583,-0.003125,-81.010424,0.006586,
1040,1960,0.095605,-0.480856,0.999998,0.000170,-0.000739,0.006558,-0.000531,0.006597,-0.000778,-85.863404,0.007210,
1450,430,-0.606163,-17.105313,0.999996,0.000213,-0.003464,0.008393,0.000702,0.008434,-0.003505,86.623198,0.008474,
1840,820,-3.646574,-11.982704,0.999995,0.000249,-0.004725,0.009409,-0.000585,0.009433,-0.004749,-87.632557,0.009433,
1320,1670,-0.201357,-2.465529,0.999997,0.000188,-0.002509,0.007293,-0.000433,0.007312,-0.002529,-87.473493,0.007427,
1490,1580,-0.814700,-3.568734,0.999996,0.000232,-0.004044,0.008999,-0.000909,0.009062,-0.004107,-86.030998,0.009075,
1890,880,-4.048218,-11.321817,0.999998,0.000161,-0.004302,0.008559,-0.000115,0.008560,-0.004303,-89.489020,0.008560,
870,800,2.213985,-12.681319,0.999996,0.000287,-0.006543,0.012006,0.000793,0.012040,-0.006577,87.557259,0.012057,
570,420,2.638918,-15.847250,0.999874,0.001410,-0.006958,0.010447,-0.000352,0.010455,-0.006965,-88.842529,0.010645,
1230,480,0.003979,-17.077212,0.999997,0.000192,-0.002527,0.006854,-0.000023,0.006854,-0.002527,-89.860811,0.006932,
1120,1830,0.154499,-1.333175,0.999997,0.000201,-0.001575,0.006956,-0.000070,0.006956,-0.001576,-89.532546,0.007295,
1200,460,0.077001,-17.199258,0.999998,0.000182,-0.002429,0.006956,-0.000292,0.006965,-0.002438,-88.219979,0.007069,
1380,690,-0.470071,-15.178468,0.999996,0.000230,-0.004926,0.008435,0.003112,0.009125,-0.005615,77.513115,0.009205,
560,1320,3.710130,-7.566103,0.999708,0.000000,-0.006787,0.010002,0.000534,0.010019,-0.006804,88.180057,0.010231,
800,1840,0.850243,-1.597765,0.999997,0.000213,-0.003556,0.009087,-0.001023,0.009169,-0.003638,-85.403353,0.009234,
1410,930,-1.781095,-12.151494,0.999988,0.000383,-0.006219,0.014734,0.004955,0.015847,-0.007332,77.342480,0.015861,
1110,490,0.324737,-16.860395,0.999997,0.000208,-0.002995,0.007508,-0.000919,0.007587,-0.003075,-85.037951,0.007633,
1460,110,-0.146950,-19.568631,0.999997,0.000203,-0.000741,0.006873,-0.000777,0.006952,-0.000820,-84.235642,0.007598,
1510,900,-2.211170,-11.706214,0.999994,0.000318,-0.006262,0.013122,-0.001109,0.013185,-0.006325,-86.736808,0.013189,
700,1880,1.030444,-1.419890,0.999996,0.000239,-0.004321,0.009839,-0.001410,0.009978,-0.004460,-84.367864,0.009997,
600,650,3.176378,-13.605365,0.999995,0.000283,-0.005016,0.010097,0.000170,0.010099,-0.005018,89.354765,0.010099,
930,1250,1.824700,-7.316828,0.999993,0.000290,-0.007265,0.012673,-0.000128,0.012674,-0.007266,-89.631088,0.012719,
1660,1490,-1.834789,-5.047992,0.999996,0.000220,-0.005478,0.010480,-0.000337,0.010487,-0.005485,-88.789711,0.010490,
970,240,0.450340,-18.585980,0.999997,0.000222,-0.002474,0.007931,0.000366,0.007943,-0.002487,87.990198,0.008126,
1010,180,0.264918,-19.076640,0.999997,0.000214,-0.001393,0.007192,0.000542,0.007226,-0.001427,86.398316,0.007654,
940,1930,0.251601,-0.725925,0.999997,0.000207,-0.001228,0.007267,-0.001001,0.007383,-0.001344,-83.370664,0.007865,
880,1840,0.613818,-1.482645,0.999996,0.000227,-0.002926,0.008388,-0.000783,0.008442,-0.002980,-86.059535,0.008563,
620,1640,2.358591,-4.099538,0.999995,0.000251,-0.005019,0.010040,0.000129,0.010041,-0.005020,89.510631,0.010041,
1840,1390,-3.109387,-6.639587,0.999997,0.000206,-0.005095,0.010121,0.000289,0.010126,-0.005101,88.914014,0.010127,
1830,160,-1.221992,-18.705334,0.999997,0.000229,-0.004697,0.010429,-0.001109,0.010510,-0.004778,-85.830345,0.010524,
1460,310,-0.492947,-18.071028,0.999997,0.000194,-0.002528,0.007977,-0.000042,0.007978,-0.002528,-89.770134,0.008154,
1820,30,-0.107092,-20.058699,0.999987,0.000000,-0.002259,0.008716,-0.003544,0.009761,-0.003304,-73.571502,0.009930,
1370,1450,-0.405948,-4.237235,0.999996,0.000234,-0.003816,0.007813,-0.002005,0.008149,-0.004152,-80.486724,0.008150,
1710,60,-0.224192,-19.847604,0.999997,0.000194,-0.000774,0.007734,-0.002456,0.008392,-0.001432,-75.000111,0.008979,
1620,860,-2.653325,-11.907612,0.999993,0.000325,-0.005734,0.011460,-0.001356,0.011566,-0.005840,-85.516888,0.011566,
560,1430,3.285636,-6.426317,0.999923,0.000000,-0.004337,0.010151,-0.000059,0.010151,-0.004337,-89.768406,0.010187,
1690,700,-2.423010,-13.558427,0.999995,0.000269,-0.005906,0.010922,-0.000445,0.010934,-0.005918,-88.486029,0.010946,
1040,1940,0.126506,-0.615794,0.999998,0.000173,-0.000937,0.006712,-0.000551,0.006752,-0.000976,-85.897205,0.007298,
850,800,2.343760,-12.625776,0.999995,0.000285,-0.006361,0.011747,0.000903,0.011792,-0.006406,87.152796,0.011806,
720,710,2.759204,-13.312686,0.999996,0.000240,-0.005546,0.010593,0.000593,0.010614,-0.005567,87.898924,0.010619,
1670,1490,-1.888779,-5.081835,0.999996,0.000227,-0.005459,0.010479,-0.000288,0.010484,-0.005464,-88.963903,0.010487,
850,1740,1.001154,-2.425007,0.999997,0.000215,-0.003738,0.009197,-0.000182,0.009199,-0.003740,-89.194530,0.009253,
1000,1440,0.842304,-4.775090,0.999996,0.000222,-0.005274,0.009677,0.001849,0.009902,-0.005500,83.052389,0.009922,
1490,730,-1.214841,-14.008504,0.999994,0.000298,-0.007028,0.011611,0.001546,0.011738,-0.007156,85.291475,0.011832,
1040,470,0.549236,-16.835571,0.999996,0.000225,-0.003479,0.008263,-0.000938,0.008338,-0.003553,-85.459551,0.008368,
1440,110,-0.131471,-19.574372,0.999998,0.000167,-0.000801,0.006788,-0.000656,0.006845,-0.000858,-85.093852,0.007458,
1140,1620,0.227751,-2.841131,0.999998,0.000173,-0.002719,0.007303,0.000622,0.007342,-0.002758,86.462467,0.007417,
1400,770,-0.693131,-14.263493,0.999993,0.000314,-0.006824,0.010382,0.003635,0.011119,-0.007560,78.547320,0.011356,
1200,440,0.077862,-17.339866,0.999998,0.000184,-0.002406,0.007059,-0.000266,0.007066,-0.002413,-88.388941,0.007184,
1700,1060,-3.422678,-9.754134,0.999995,0.000261,-0.004228,0.009895,0.000334,0.009903,-0.004236,88.647423,0.009937,
1160,1250,0.243570,-5.095477,0.999993,0.000295,-0.004074,0.004360,0.003582,0.005676,-0.005390,69.827797,0.006395,
1060,50,0.032395,-19.971065,0.999998,0.000183,-0.000286,0.006209,0.000466,0.006242,-0.000320,85.915765,0.007030,
1710,1200,-3.122852,-8.328025,0.999997,0.000233,-0.005161,0.010500,0.001153,0.010584,-0.005245,85.811914,0.010585,
1490,1800,-0.471571,-1.688661,0.999997,0.000230,-0.002530,0.007950,0.000287,0.007958,-0.002538,88.430313,0.008130,
960,760,1.408562,-13.573670,0.999992,0.000322,-0.007335,0.012231,-0.001034,0.012285,-0.007389,-86.984102,0.012369,
1480,1990,-0.077164,-0.292760,0.999998,0.000183,-0.000424,0.006580,0.000838,0.006679,-0.000523,83.273202,0.007429,
1810,1560,-2.429214,-4.806794,0.999997,0.000257,-0.005115,0.010171,-0.000139,0.010172,-0.005117,-89.478797,0.010172,
1800,660,-2.889093,-13.686783,0.999996,0.000243,-0.005212,0.010326,-0.000319,0.010333,-0.005219,-88.824212,0.010333,
960,970,2.570683,-10.813125,0.999994,0.000258,-0.004496,0.012836,0.000980,0.012891,-0.004552,86.774285,0.013075,
710,1900,0.876663,-1.196910,0.999997,0.000234,-0.004030,0.009683,-0.001703,0.009891,-0.004239,-83.026410,0.009925,
1420,700,-0.693721,-14.809255,0.999994,0.000272,-0.005887,0.009812,0.002864,0.010318,-0.006394,79.977824,0.010416,
1290,1200,-0.515172,-5.127630,0.999994,0.000295,-0.005928,0.002909,-0.000348,0.002923,-0.005942,-87.746691,0.005942,
1000,910,1.973012,-11.839995,0.999993,0.000342,-0.006758,0.014238,0.000089,0.014238,-0.006759,89.757595,0.014244,
1100,1880,0.139824,-0.998996,0.999997,0.000200,-0.001103,0.006784,-0.000265,0.006793,-0.001112,-88.074494,0.007287,
630,1540,2.602753,-5.083384,0.999996,0.000241,-0.005075,0.010139,0.000079,0.010139,-0.005076,89.702672,0.010139,
1820,990,-3.934859,-10.423971,0.999997,0.000204,-0.004293,0.009107,-0.000239,0.009111,-0.004297,-88.979511,0.009116,
970,1160,2.066069,-8.304552,0.999993,0.000323,-0.006641,0.013539,-0.000781,0.013569,-0.006671,-87.786869,0.013570,
660,1680,2.039402,-3.561086,0.999997,0.000216,-0.004925,0.010085,0.000073,0.010085,-0.004926,89.720605,0.010086,
1450,650,-0.808721,-15.116089,0.999995,0.000267,-0.005560,0.009823,0.002192,0.010129,-0.005866,82.047523,0.010172,
830,1650,1.309390,-3.336109,0.999996,0.000213,-0.004578,0.009784,0.000262,0.009789,-0.004582,88.956380,0.009796,
620,1600,2.477452,-4.503709,0.999996,0.000228,-0.005034,0.010127,0.000131,0.010128,-0.005035,89.505524,0.010128,
760,1580,1.825658,-4.254063,0.999996,0.000222,-0.005064,0.010158,0.000273,0.010163,-0.005069,88.972046,0.010163,
1300,1400,-0.165944,-4.305191,0.999998,0.000221,-0.002794,0.006021,-0.001834,0.006387,-0.003161,-78.701826,0.006387,
800,1820,0.927179,-1.782622,0.999996,0.000221,-0.003737,0.009284,-0.000860,0.009340,-0.003794,-86.236494,0.009395,
1550,1640,-0.970806,-3.193379,0.999997,0.000194,-0.004197,0.009253,-0.000500,0.009272,-0.004216,-87.873618,0.009284,
1180,670,0.118067,-15.829278,0.999998,0.000189,-0.002624,0.005402,-0.001648,0.005727,-0.002949,-78.836530,0.005728,
1100,1830,0.183724,-1.345687,0.999998,0.000173,-0.001480,0.007045,-0.000156,0.007048,-0.001483,-88.952929,0.007431,
1500,1930,-0.218524,-0.714248,0.999998,0.000184,-0.001334,0.007117,0.000831,0.007198,-0.001414,84.439744,0.007627,
700,1860,1.139118,-1.618606,0.999996,0.000219,-0.004488,0.009993,-0.001147,0.010084,-0.004578,-85.497713,0.010098,
710,840,3.289372,-11.930244,0.999996,0.000234,-0.005038,0.010153,0.001008,0.010220,-0.005104,86.220182,0.010220,
1480,570,-0.880291,-15.744026,0.999995,0.000269,-0.004959,0.009518,0.001513,0.009674,-0.005115,84.098305,0.009679,
1620,1300,-2.197219,-7.023860,0.999994,0.000298,-0.006414,0.011564,0.000515,0.011579,-0.006429,88.361316,0.011602,
1370,1430,-0.407398,-4.392235,0.999996,0.000246,-0.003995,0.007860,-0.002260,0.008276,-0.004411,-79.563949,0.008282,
990,180,0.292248,-19.061939,0.999997,0.000185,-0.001489,0.007334,0.000625,0.007378,-0.001533,85.968911,0.007786,
730,500,2.046227,-15.551364,0.999997,0.000197,-0.005169,0.010251,-0.000243,0.010255,-0.005173,-89.098594,0.010255,
1640,1690,-1.236623,-2.963228,0.999996,0.000234,-0.004313,0.009590,0.000040,0.009590,-0.004313,89.835111,0.009607,
850,780,2.258537,-12.861140,0.999993,0.000302,-0.006449,0.011737,0.000725,0.011766,-0.006478,87.720594,0.011786,
1000,1420,0.862305,-4.967477,0.999995,0.000251,-0.005498,0.009779,0.001942,0.010022,-0.005741,82.869720,0.010057,
1380,730,-0.499463,-14.834722,0.999996,0.000236,-0.005537,0.008822,0.003628,0.009686,-0.006401,76.596803,0.009852,
560,1310,3.724887,-7.650823,0.999768,0.000000,-0.006253,0.009180,0.000818,0.009223,-0.006296,86.974363,0.009426,
1260,110,-0.016845,-19.608353,0.999998,0.000160,-0.000600,0.006289,-0.000050,0.006289,-0.000600,-89.588043,0.006942,
1670,1470,-1.941735,-5.291281,0.999997,0.000185,-0.005540,0.010542,-0.000236,0.010545,-0.005544,-89.160078,0.010550,
1040,1920,0.153509,-0.748698,0.999998,0.000165,-0.001142,0.006794,-0.000473,0.006822,-0.001170,-86.599631,0.007296,
1700,1040,-3.441626,-9.956612,0.999995,0.000242,-0.004218,0.009934,0.000281,0.009939,-0.004224,88.862116,0.009977,
1200,420,0.073741,-17.481673,0.999998,0.000210,-0.002392,0.007097,-0.000245,0.007103,-0.002399,-88.522102,0.007227,
1040,690,0.701570,-14.887727,0.999994,0.000279,-0.005792,0.009786,-0.002742,0.010254,-0.006261,-80.302135,0.010337,
570,1090,4.218254,-9.563655,0.999937,0.000906,-0.003933,0.008233,0.000132,0.008234,-0.003934,89.380313,0.008237,
790,1860,0.806211,-1.436450,0.999996,0.000222,-0.003476,0.009116,-0.001235,0.009236,-0.003596,-84.448950,0.009311,
1190,850,0.356852,-15.202694,0.999991,0.000367,-0.007125,0.003086,0.000013,0.003086,-0.007125,89.927064,0.007147,
1530,1370,-1.362719,-5.847087,0.999994,0.000287,-0.006559,0.011262,-0.001090,0.011328,-0.006625,-86.513663,0.011382,
660,1030,3.888579,-10.057073,0.999997,0.000218,-0.004352,0.009291,-0.000026,0.009291,-0.004352,-89.890114,0.009297,
1760,720,-2.887529,-13.165716,0.999997,0.000239,-0.005365,0.010396,-0.000631,0.010421,-0.005391,-87.709936,0.010424,
1000,890,1.820831,-12.124513,0.999990,0.000412,-0.007268,0.014061,-0.000197,0.014063,-0.007270,-89.470684,0.014065,
1270,730,-0.077390,-15.590492,0.999997,0.000208,-0.002314,0.004028,0.001807,0.004507,-0.002792,75.164538,0.004550,
1840,800,-3.582703,-12.170828,0.999995,0.000268,-0.004836,0.009636,-0.000584,0.009659,-0.004860,-87.691446,0.009659,
1800,860,-3.582708,-11.667608,0.999995,0.000269,-0.004775,0.009775,-0.000883,0.009829,-0.004828,-86.539202,0.009829,
1280,1200,-0.449286,-5.026140,0.999948,0.000859,-0.006729,0.002599,-0.000031,0.002599,-0.006729,-89.811760,0.006787,
610,1540,2.703361,-5.146335,0.999995,0.000259,-0.005063,0.010118,0.000071,0.010118,-0.005063,89.730636,0.010118,
1250,1260,-0.051802,-4.701891,0.999997,0.000209,-0.003005,0.002252,-0.001096,0.002471,-0.003224,-78.683957,0.003373,
1420,680,-0.675176,-15.005007,0.999994,0.000278,-0.005608,0.009522,0.002724,0.009997,-0.006084,80.096992,0.010075,
1260,1830,-0.037999,-1.305858,0.999998,0.000196,-0.001350,0.006789,-0.000015,0.006790,-0.001350,-89.897366,0.007188,
1100,1860,0.156678,-1.135042,0.999998,0.000181,-0.001278,0.006914,-0.000249,0.006922,-0.001286,-88.260853,0.007363,
720,690,2.686845,-13.524587,0.999997,0.000238,-0.005545,0.010606,0.000467,0.010620,-0.005559,88.346089,0.010624,
760,1560,1.878557,-4.457889,0.999996,0.000217,-0.005137,0.010236,0.000274,0.010241,-0.005142,88.979318,0.010241,
1370,1410,-0.408747,-4.550576,0.999995,0.000255,-0.004208,0.007893,-0.002539,0.008404,-0.004719,-78.618066,0.008425,
1780,1450,-2.602698,-5.846536,0.999995,0.000287,-0.005282,0.010331,0.000100,0.010332,-0.005282,89.633561,0.010333,
1100,310,0.258208,-18.197425,0.999997,0.000201,-0.002098,0.007391,-0.000089,0.007392,-0.002099,-89.462128,0.007619,
1820,690,-3.094917,-13.322555,0.999997,0.000205,-0.005111,0.010128,-0.000414,0.010140,-0.005122,-88.443994,0.010140,
1620,1280,-2.281080,-7.258628,0.999993,0.000293,-0.006385,0.011675,0.000730,0.011704,-0.006414,87.689565,0.011722,
1440,1130,-1.936495,-8.343982,0.999992,0.000335,-0.006470,0.014816,-0.001228,0.014887,-0.006541,-86.707901,0.014923,
1450,410,-0.589585,-17.267862,0.999996,0.000222,-0.003248,0.008298,0.000533,0.008322,-0.003273,87.363974,0.008385,
620,1580,2.534608,-4.707091,0.999995,0.000249,-0.005067,0.010150,0.000119,0.010151,-0.005068,89.552910,0.010151,
1210,480,0.054016,-17.067235,0.999998,0.000155,-0.002481,0.006873,-0.000304,0.006883,-0.002491,-88.140493,0.006970,
1480,1930,-0.191659,-0.702077,0.999997,0.000207,-0.001045,0.007067,0.000782,0.007141,-0.001119,84.542071,0.007682,
730,480,1.991587,-15.757410,0.999997,0.000209,-0.005132,0.010213,-0.000248,0.010217,-0.005136,-89.074504,0.010217,
960,1200,1.879579,-7.821863,0.999993,0.000337,-0.007231,0.013326,-0.000391,0.013333,-0.007238,-88.909603,0.013349,
1520,1990,-0.100594,-0.300397,0.999998,0.000186,-0.000564,0.006747,0.001050,0.006894,-0.000712,81.985750,0.007583,
620,790,3.562499,-12.263628,0.999996,0.000261,-0.004836,0.009749,0.000559,0.009770,-0.004857,87.809683,0.009771,
560,1290,3.757290,-7.821872,0.999869,0.000000,-0.005704,0.009283,-0.000028,0.009283,-0.005704,-89.893168,0.009364,
1640,1670,-1.292233,-3.158375,0.999996,0.000270,-0.004465,0.009681,-0.000118,0.009682,-0.004466,-89.521230,0.009692,
1040,1900,0.184419,-0.889281,0.999997,0.000227,-0.001382,0.006955,-0.000498,0.006984,-0.001411,-86.593199,0.007386,
810,280,1.044768,-17.976187,0.999996,0.000250,-0.003837,0.009371,0.000551,0.009394,-0.003860,87.613217,0.009443,
1470,1580,-0.734059,-3.507975,0.999995,0.000251,-0.004031,0.008823,-0.001012,0.008902,-0.004110,-85.525651,0.008911,
1280,110,-0.027483,-19.606753,0.999998,0.000179,-0.000509,0.006299,-0.000145,0.006302,-0.000512,-88.777912,0.007000,
1030,680,0.746825,-14.919755,0.999993,0.000297,-0.005762,0.009877,-0.002533,0.010277,-0.006162,-81.023898,0.010344,
830,1630,1.358844,-3.531159,0.999996,0.000225,-0.004709,0.009848,0.000332,0.009856,-0.004716,88.692799,0.009859,
1670,1450,-2.000777,-5.504935,0.999996,0.000222,-0.005649,0.010703,-0.000179,0.010705,-0.005650,-89.371523,0.010711,
1380,710,-0.480662,-15.008407,0.999995,0.000247,-0.005198,0.008588,0.003361,0.009364,-0.005974,77.002147,0.009482,
1190,840,0.277117,-15.229584,0.999991,0.000352,-0.005916,0.003000,-0.000455,0.003023,-0.005940,-87.089039,0.005940,
670,1100,3.785421,-9.399448,0.999996,0.000250,-0.004464,0.009422,-0.000558,0.009445,-0.004486,-87.703187,0.009449,
1140,1640,0.219361,-2.691973,0.999998,0.000186,-0.002652,0.007358,0.000569,0.007390,-0.002684,86.756857,0.007482,
1700,1020,-3.446098,-10.155272,0.999996,0.000239,-0.004210,0.009908,-0.000166,0.009910,-0.004212,-89.328215,0.009947,
1530,1350,-1.422277,-6.079516,0.999994,0.000288,-0.006783,0.011538,-0.000943,0.011587,-0.006831,-87.060553,0.011649,
1200,400,0.074528,-17.624119,0.999997,0.000206,-0.002334,0.007115,-0.000220,0.007120,-0.002339,-88.667308,0.007259,
1200,1870,0.033972,-1.038344,0.999998,0.000154,-0.001084,0.006599,-0.000043,0.006599,-0.001084,-89.681385,0.007078,
1530,900,-2.331685,-11.634683,0.999995,0.000287,-0.005977,0.012676,-0.001351,0.012774,-0.006074,-85.879267,0.012779,
640,1030,3.975348,-10.056584,0.999997,0.000227,-0.004306,0.009124,-0.000039,0.009124,-0.004306,-89.835508,0.009129,
1040,50,0.038166,-19.969011,0.999998,0.000165,-0.000334,0.006247,0.000519,0.006288,-0.000375,85.514305,0.007054,
1370,1240,-0.634155,-6.006682,0.999994,0.000332,-0.006590,0.009510,-0.004343,0.010607,-0.007687,-75.826442,0.010958,
1750,630,-2.521212,-14.142389,0.999994,0.000268,-0.005428,0.010498,-0.000163,0.010500,-0.005430,-89.413593,0.010502,
760,1540,1.932263,-4.667094,0.999995,0.000257,-0.005230,0.010361,0.000269,0.010366,-0.005235,89.011590,0.010366,
1440,1110,-2.088720,-8.632247,0.999993,0.000287,-0.006243,0.015573,-0.001423,0.015665,-0.006336,-86.283836,0.015760,
1530,1420,-1.251053,-5.296352,0.999995,0.000260,-0.005991,0.010655,-0.001213,0.010743,-0.006079,-85.854073,0.010774,
1790,1050,-3.819060,-9.867006,0.999997,0.000224,-0.004344,0.009356,0.000307,0.009363,-0.004351,88.716497,0.009371,
1450,370,-0.544974,-17.600035,0.999996,0.000225,-0.002981,0.008249,0.000324,0.008258,-0.002990,88.350925,0.008362,
1420,660,-0.656117,-15.189517,0.999995,0.000289,-0.005384,0.009300,0.002560,0.009733,-0.005817,80.389757,0.009795,
1270,710,-0.078708,-15.677554,0.999997,0.000212,-0.002337,0.004510,0.001596,0.004864,-0.002691,77.500126,0.004873,
1380,1170,-1.213450,-6.854458,0.999989,0.000409,-0.005061,0.009722,-0.004818,0.011153,-0.006492,-73.450227,0.011203,
1290,480,-0.145332,-17.039976,0.999998,0.000172,-0.002585,0.007028,0.000423,0.007046,-0.002603,87.484013,0.007126,
1370,350,-0.304518,-17.889201,0.999998,0.000192,-0.002325,0.007432,0.000243,0.007438,-0.002331,88.576191,0.007609,
1620,1260,-2.366299,-7.493510,0.999994,0.000299,-0.006293,0.011672,0.000899,0.011717,-0.006338,87.142316,0.011730,
840,1830,0.764247,-1.626489,0.999996,0.000225,-0.002890,0.008817,-0.000976,0.008898,-0.002971,-85.267140,0.009060,
1100,1840,0.179020,-1.277803,0.999998,0.000171,-0.001408,0.006978,-0.000172,0.006981,-0.001412,-88.828035,0.007382,
1190,1380,0.090448,-4.324659,0.999995,0.000290,-0.002454,0.005178,0.001360,0.005413,-0.002689,80.191133,0.005413,
760,2010,0.148714,-0.200415,0.999997,0.000214,-0.000452,0.007472,-0.002336,0.008109,-0.001090,-74.739343,0.008802,
1020,310,0.449345,-18.095245,0.999997,0.000227,-0.002580,0.007869,-0.000056,0.007870,-0.002580,-89.691508,0.008024,
1500,1990,-0.089132,-0.297032,0.999998,0.000222,-0.000646,0.006656,0.000919,0.006770,-0.000760,82.934581,0.007417,
1730,1880,-0.895913,-1.336830,0.999997,0.000198,-0.003386,0.009507,0.001696,0.009726,-0.003605,82.628825,0.009834,
620,1560,2.594039,-4.912693,0.999995,0.000262,-0.005074,0.010126,0.000100,0.010127,-0.005075,89.624733,0.010127,
960,1180,2.003271,-8.088302,0.999994,0.000306,-0.006923,0.013325,-0.000701,0.013349,-0.006947,-88.018669,0.013353,
560,1280,3.809675,-7.918123,0.999944,0.000000,-0.005516,0.009508,-0.000219,0.009511,-0.005519,-89.166534,0.009552,
600,790,3.657857,-12.213112,0.999996,0.000245,-0.004722,0.009558,0.000405,0.009570,-0.004733,88.378620,0.009570,
1800,690,-2.992800,-13.377139,0.999998,0.000208,-0.005196,0.010218,-0.000455,0.010232,-0.005210,-88.311687,0.010232,
690,400,1.965331,-16.442831,0.999997,0.000192,-0.004948,0.010123,-0.000142,0.010125,-0.004950,-89.461018,0.010126,
1040,1880,0.211715,-1.027762,0.999998,0.000190,-0.001576,0.007009,-0.000382,0.007026,-0.001593,-87.460755,0.007368,
1670,1430,-2.057938,-5.721005,0.999996,0.000237,-0.005751,0.010804,-0.000094,0.010805,-0.005752,-89.676340,0.010812,
1040,490,0.561654,-16.670536,0.999996,0.000241,-0.003664,0.008339,-0.001096,0.008439,-0.003764,-84.825846,0.008455,
810,300,1.106882,-17.786690,0.999997,0.000219,-0.004023,0.009437,0.000365,0.009447,-0.004033,88.446928,0.009481,
940,970,2.656277,-10.774075,0.999995,0.000272,-0.004310,0.012226,0.001047,0.012292,-0.004376,86.392295,0.012461,
1200,380,0.070064,-17.766998,0.999997,0.000196,-0.002216,0.007088,-0.000191,0.007092,-0.002220,-88.823757,0.007256,
1380,110,-0.084504,-19.591052,0.999998,0.000177,-0.000572,0.006530,-0.000443,0.006558,-0.000599,-86.447106,0.007251,
1420,430,-0.510355,-17.169488,0.999995,0.000269,-0.003277,0.008095,0.000749,0.008144,-0.003326,86.246156,0.008189,
1130,1740,0.198508,-1.968477,0.999997,0.000183,-0.002185,0.007232,0.000234,0.007237,-0.002190,88.578112,0.007423,
1210,1880,0.022267,-0.970655,0.999998,0.000150,-0.001037,0.006533,0.000013,0.006533,-0.001037,89.903113,0.007022,
600,630,3.109128,-13.807807,0.999995,0.000277,-0.005007,0.010140,0.000103,0.010141,-0.005008,89.610943,0.010141,
1590,430,-1.172077,-16.710178,0.999996,0.000235,-0.004431,0.009558,0.000429,0.009571,-0.004444,88.243285,0.009579,
1420,640,-0.638216,-15.380448,0.999994,0.000288,-0.005094,0.009045,0.002326,0.009418,-0.005467,80.893047,0.009459,
930,1520,1.091712,-4.281953,0.999995,0.000272,-0.004957,0.009789,0.001061,0.009865,-0.005033,85.906116,0.009865,
590,1030,4.186642,-10.058772,0.999997,0.000205,-0.004030,0.008591,-0.000028,0.008591,-0.004030,-89.871282,0.008596,
1700,1000,-3.429593,-10.354931,0.999996,0.000256,-0.004218,0.009922,-0.000366,0.009931,-0.004228,-88.518033,0.009968,
1510,880,-2.082519,-11.971330,0.999994,0.000327,-0.006715,0.013210,-0.000880,0.013249,-0.006754,-87.475783,0.013250,
1620,1240,-2.453854,-7.728156,0.999995,0.000268,-0.006177,0.011691,0.001070,0.011755,-0.006240,86.585255,0.011762,
1100,1820,0.193289,-1.415184,0.999998,0.000181,-0.001555,0.007131,-0.000158,0.007134,-0.001558,-88.958683,0.007502,
1800,120,-0.824695,-19.207151,0.999996,0.000243,-0.003297,0.010212,-0.002769,0.010758,-0.003843,-78.855120,0.010903,
760,1520,1.985882,-4.876241,0.999995,0.000279,-0.005293,0.010357,0.000238,0.010361,-0.005296,89.127298,0.010362,
1370,1170,-1.166750,-6.645628,0.999993,0.000331,-0.004054,0.008406,-0.004969,0.010145,-0.005793,-70.712328,0.010179,
1380,310,-0.294485,-18.180082,0.999997,0.000226,-0.002049,0.007483,0.000046,0.007483,-0.002049,89.721176,0.007734,
820,1830,0.821277,-1.655572,0.999998,0.000154,-0.003090,0.009002,-0.001033,0.009090,-0.003178,-85.153918,0.009226,
1670,1900,-0.622109,-1.075473,0.999996,0.000249,-0.002891,0.008735,0.001606,0.008953,-0.003109,82.278721,0.009091,
620,1540,2.652838,-5.114931,0.999995,0.000246,-0.005058,0.010129,0.000076,0.010130,-0.005058,89.712926,0.010130,
700,710,2.867178,-13.261800,0.999995,0.000250,-0.005381,0.010411,0.000597,0.010433,-0.005403,87.837734,0.010435,
1350,1380,-0.331866,-4.671278,0.999995,0.000256,-0.003973,0.007351,-0.002819,0.008014,-0.004636,-76.765593,0.008046,
1370,1390,-0.413894,-4.708834,0.999995,0.000279,-0.004448,0.007917,-0.002841,0.008538,-0.005069,-77.659596,0.008588,
1450,350,-0.521149,-17.761848,0.999997,0.000215,-0.002853,0.007999,0.000261,0.008006,-0.002859,88.623093,0.008114,
560,1270,3.863577,-8.021509,0.999969,0.000000,-0.005352,0.009291,-0.000225,0.009294,-0.005356,-89.118332,0.009330,
670,400,2.064880,-16.378376,0.999995,0.000249,-0.004983,0.010120,-0.000117,0.010121,-0.004984,-89.557875,0.010122,
770,840,2.975360,-12.017517,0.999996,0.000229,-0.005369,0.010773,0.001210,0.010863,-0.005460,85.736618,0.010863,
1040,1860,0.241619,-1.170926,0.999998,0.000211,-0.001730,0.007205,-0.000353,0.007219,-0.001744,-87.738779,0.007533,
600,770,3.587647,-12.409595,0.999994,0.000278,-0.004835,0.009771,0.000394,0.009782,-0.004846,88.455512,0.009782,
1670,1410,-2.118791,-5.938742,0.999995,0.000258,-0.005845,0.010815,0.000024,0.010815,-0.005845,89.915757,0.010827,
1040,530,0.587484,-16.332321,0.999997,0.000212,-0.004082,0.008556,-0.001484,0.008728,-0.004254,-83.389834,0.008729,
1160,1230,0.326361,-5.172159,0.999996,0.000212,-0.004317,0.004165,0.003058,0.005153,-0.005305,72.103902,0.006039,
1010,1160,1.788551,-8.026077,0.999993,0.000294,-0.007154,0.014170,0.000454,0.014179,-0.007164,88.781672,0.014179,
1230,1880,0.000990,-0.968413,0.999998,0.000155,-0.001097,0.006495,0.000006,0.006495,-0.001097,89.957071,0.006953,
1210,1740,0.042209,-1.929072,0.999998,0.000186,-0.001930,0.007019,0.000118,0.007021,-0.001931,89.242125,0.007254,
920,970,2.738607,-10.747382,0.999994,0.000291,-0.004193,0.011708,0.001084,0.011781,-0.004266,86.118734,0.011929,
1030,50,0.042551,-19.967416,0.999999,0.000154,-0.000270,0.006282,0.000572,0.006332,-0.000319,85.051671,0.007134,
800,110,0.402992,-19.474983,0.999996,0.000254,-0.002009,0.008220,0.001893,0.008560,-0.002348,79.842355,0.008846,
1200,360,0.067670,-17.909226,0.999997,0.000209,-0.002113,0.007058,-0.000176,0.007062,-0.002117,-88.898408,0.007248,
1190,1360,0.088169,-4.425533,0.999997,0.000229,-0.002432,0.004832,0.001564,0.005154,-0.002754,78.353291,0.005158,
1610,320,-1.002241,-17.695359,0.999997,0.000215,-0.003750,0.009276,-0.000160,0.009278,-0.003752,-89.296804,0.009334,
1150,150,0.065273,-19.346520,0.999998,0.000151,-0.000846,0.006542,0.000180,0.006546,-0.000850,88.602769,0.007119,
1270,480,-0.096591,-17.054632,0.999998,0.000158,-0.002475,0.006914,0.000315,0.006924,-0.002485,88.078567,0.007016,
760,2000,0.195936,-0.274027,0.999998,0.000158,-0.000706,0.007589,-0.002353,0.008210,-0.001327,-75.214857,0.008815,
1420,620,-0.626577,-15.558246,0.999995,0.000262,-0.004786,0.008911,0.002141,0.009237,-0.005113,81.321430,0.009255,
1750,670,-2.655521,-13.719493,0.999995,0.000247,-0.005492,0.010538,-0.000398,0.010548,-0.005501,-88.580301,0.010551,
930,1540,1.063112,-4.088369,0.999995,0.000260,-0.004734,0.009613,0.000931,0.009673,-0.004794,86.302757,0.009673,
580,1030,4.226720,-10.058931,0.999997,0.000196,-0.003774,0.008446,-0.000011,0.008446,-0.003774,-89.948954,0.008462,
1420,510,-0.561798,-16.512566,0.999995,0.000251,-0.003812,0.008380,0.001282,0.008513,-0.003945,84.063452,0.008521,
1700,980,-3.411867,-10.553613,0.999995,0.000279,-0.004289,0.009975,-0.000463,0.009990,-0.004304,-88.141877,0.010021,
1620,1220,-2.546495,-7.966990,0.999995,0.000253,-0.005980,0.011592,0.001211,0.011675,-0.006063,86.076864,0.011678,
760,1500,2.038160,-5.082668,0.999996,0.000281,-0.005391,0.010362,0.000187,0.010364,-0.005393,89.320070,0.010367,
1800,80,-0.518478,-19.608203,0.999996,0.000254,-0.001874,0.009921,-0.003885,0.011086,-0.003039,-73.310374,0.011456,
1100,1800,0.214239,-1.563141,0.999998,0.000178,-0.001705,0.007163,-0.000083,0.007164,-0.001706,-89.460662,0.007484,
1730,1860,-0.998272,-1.529308,0.999996,0.000205,-0.003602,0.009676,0.001455,0.009834,-0.003759,83.818673,0.009924,
920,930,2.569219,-11.222784,0.999993,0.000320,-0.005114,0.012137,0.001456,0.012259,-0.005236,85.208057,0.012302,
1480,390,-0.665016,-17.368613,0.999997,0.000207,-0.003553,0.008582,0.000530,0.008605,-0.003576,87.505994,0.008646,
1160,1830,0.095356,-1.314012,0.999998,0.000163,-0.001307,0.006848,-0.000098,0.006849,-0.001308,-89.311807,0.007272,
620,1520,2.712972,-5.319644,0.999996,0.000226,-0.005049,0.010198,0.000055,0.010198,-0.005049,89.793894,0.010198,
1860,2000,-0.492879,-0.458037,0.999994,0.000263,-0.003651,0.010698,0.003585,0.011544,-0.004497,76.723404,0.011637,
1350,1360,-0.335296,-4.815717,0.999995,0.000301,-0.004200,0.007338,-0.003127,0.008131,-0.004992,-75.771667,0.008201,
560,1260,3.874569,-8.107869,0.999975,0.000000,-0.005430,0.009035,0.000122,0.009036,-0.005431,89.515800,0.009097,
1450,330,-0.496689,-17.922392,0.999997,0.000221,-0.002720,0.008062,0.000127,0.008064,-0.002722,89.324156,0.008204,
1370,1350,-0.428750,-5.035168,0.999995,0.000275,-0.004900,0.008191,-0.003310,0.008980,-0.005690,-76.586925,0.009087,
1790,1260,-3.315820,-7.832967,0.999996,0.000251,-0.005063,0.010070,0.000837,0.010116,-0.005110,86.842304,0.010116,
1670,1610,-1.582003,-3.843432,0.999997,0.000207,-0.004862,0.010022,-0.000283,0.010027,-0.004868,-88.910077,0.010028,
1040,510,0.574941,-16.503670,0.999995,0.000276,-0.003882,0.008432,-0.001280,0.008563,-0.004013,-84.127347,0.008569,
750,840,3.082966,-11.985956,0.999996,0.000245,-0.005242,0.010587,0.001164,0.010672,-0.005327,85.816432,0.010672,
770,400,1.576920,-16.696547,0.999997,0.000220,-0.004750,0.009963,-0.000114,0.009964,-0.004751,-89.556126,0.009967,
1540,1710,-0.802619,-2.538494,0.999996,0.000245,-0.003234,0.008958,0.000037,0.008958,-0.003234,89.826508,0.009073,
1840,780,-3.512557,-12.371154,0.999996,0.000246,-0.004921,0.009865,-0.000563,0.009887,-0.004942,-87.824307,0.009887,
1040,1840,0.271905,-1.315966,0.999998,0.000206,-0.001880,0.007266,-0.000267,0.007273,-0.001888,-88.331847,0.007548,
1610,540,-1.502106,-15.545019,0.999995,0.000267,-0.005363,0.010316,0.000607,0.010339,-0.005387,87.784851,0.010342,
750,120,0.555791,-19.347620,0.999996,0.000217,-0.001937,0.008895,0.002465,0.009429,-0.002472,77.763913,0.009778,
1610,340,-1.053848,-17.505172,0.999997,0.000185,-0.003819,0.009451,-0.000126,0.009453,-0.003820,-89.457863,0.009510,
1030,1040,2.350689,-9.841539,0.999987,0.000414,-0.007905,0.019771,0.000625,0.019785,-0.007919,88.705985,0.019915,
1170,680,0.143896,-15.737207,0.999998,0.000185,-0.002724,0.005502,-0.001971,0.005950,-0.003172,-77.198962,0.005954,
1200,340,0.066362,-18.050687,0.999998,0.000192,-0.002023,0.007053,-0.000137,0.007055,-0.002025,-89.134942,0.007265,
900,970,2.820801,-10.725339,0.999994,0.000274,-0.004132,0.011314,0.001050,0.011385,-0.004203,86.128566,0.011514,
1250,1880,-0.020147,-0.970838,0.999999,0.000138,-0.001037,0.006493,-0.000007,0.006493,-0.001037,-89.944905,0.006976,
1420,820,-1.031064,-13.485302,0.999993,0.000333,-0.007830,0.012172,0.002731,0.012538,-0.008196,82.362241,0.012734,
950,1540,0.969206,-4.020341,0.999997,0.000202,-0.004721,0.009480,0.001067,0.009560,-0.004801,85.728898,0.009560,
1150,130,0.054493,-19.476602,0.999998,0.000157,-0.000707,0.006441,0.000186,0.006446,-0.000712,88.510493,0.007068,
1700,960,-3.380321,-10.754591,0.999996,0.000251,-0.004408,0.010078,-0.000822,0.010125,-0.004455,-86.762950,0.010149,
1100,1780,0.229623,-1.704618,0.999998,0.000175,-0.001858,0.007301,-0.000042,0.007301,-0.001858,-89.739858,0.007588,
1420,650,-0.648331,-15.286244,0.999994,0.000302,-0.005254,0.009185,0.002447,0.009589,-0.005657,80.638473,0.009640,
570,1030,4.267039,-10.056869,0.999942,0.000914,-0.003648,0.008307,0.000017,0.008307,-0.003648,89.917155,0.008327,
1790,1490,-2.530616,-5.462707,0.999996,0.000235,-0.005221,0.010280,-0.000009,0.010280,-0.005221,-89.966785,0.010281,
900,1530,1.227707,-4.294328,0.999996,0.000251,-0.005113,0.009979,0.000877,0.010030,-0.005163,86.686886,0.010031,
1620,1200,-2.631585,-8.195899,0.999996,0.000247,-0.005760,0.011469,0.001286,0.011564,-0.005855,85.755772,0.011565,
830,1610,1.407224,-3.730605,0.999995,0.000256,-0.004781,0.009887,0.000373,0.009896,-0.004791,88.544578,0.009898,
650,1100,3.875056,-9.412947,0.999997,0.000195,-0.004406,0.009234,-0.000431,0.009248,-0.004420,-88.192226,0.009251,
760,1480,2.097297,-5.292869,0.999995,0.000283,-0.005458,0.010503,0.000140,0.010504,-0.005460,89.498160,0.010507,
1770,820,-3.306699,-12.108800,0.999995,0.000274,-0.005040,0.010165,-0.000983,0.010228,-0.005103,-86.318066,0.010228,
1850,2000,-0.448534,-0.421857,0.999995,0.000233,-0.004119,0.010150,0.003055,0.010776,-0.004746,78.409282,0.010802,
870,700,1.825311,-13.867614,0.999995,0.000267,-0.006503,0.011435,-0.000203,0.011437,-0.006505,-89.351921,0.011473,
1480,370,-0.636864,-17.541269,0.999997,0.000230,-0.003332,0.008466,0.000394,0.008480,-0.003345,88.088313,0.008542,
1270,690,-0.080656,-15.772232,0.999997,0.000191,-0.002372,0.004863,0.001380,0.005118,-0.002626,79.561484,0.005118,
1340,1830,-0.149903,-1.330820,0.999998,0.000192,-0.001585,0.006973,0.000051,0.006973,-0.001585,89.661049,0.007310,
1210,1360,0.043853,-4.385261,0.999998,0.000176,-0.002126,0.004495,0.000851,0.004603,-0.002234,82.791931,0.004604,
1380,630,-0.450002,-15.679690,0.999995,0.000263,-0.004264,0.008057,0.002404,0.008510,-0.004716,79.340528,0.008526,
690,1860,1.181676,-1.646494,0.999997,0.000199,-0.004446,0.010056,-0.001212,0.010157,-0.004546,-85.256174,0.010176,
1450,310,-0.467222,-18.085474,0.999997,0.000214,-0.002541,0.007900,0.000020,0.007900,-0.002541,89.889216,0.008065,
560,1250,3.898775,-8.193612,0.999982,0.000000,-0.005310,0.008893,0.000259,0.008898,-0.005315,88.954534,0.008954,
980,1930,0.196141,-0.703998,0.999997,0.000208,-0.001097,0.006999,-0.000786,0.007075,-0.001173,-84.507855,0.007584,
1370,1330,-0.438428,-5.195653,0.999995,0.000290,-0.005210,0.008359,-0.003628,0.009268,-0.006119,-75.932927,0.009426,
1230,50,0.000341,-19.976975,0.999998,0.000147,-0.000260,0.005997,0.000008,0.005997,-0.000260,89.925088,0.006780,
620,1500,2.773200,-5.524341,0.999996,0.000237,-0.005071,0.010208,0.000032,0.010209,-0.005071,89.880457,0.010209,
960,1160,2.134427,-8.354122,0.999994,0.000322,-0.006491,0.013351,-0.000979,0.013399,-0.006540,-87.182517,0.013401,
1670,870,-2.972799,-11.718468,0.999995,0.000269,-0.005222,0.010815,-0.001262,0.010914,-0.005321,-85.529132,0.010915,
1530,1330,-1.481726,-6.314705,0.999994,0.000285,-0.006957,0.011761,-0.000830,0.011798,-0.006994,-87.466574,0.011865,
1400,1990,-0.046417,-0.282619,0.999998,0.000195,-0.000367,0.006316,0.000482,0.006350,-0.000401,85.891776,0.007112,
1750,640,-2.553662,-14.035228,0.999994,0.000282,-0.005461,0.010489,-0.000221,0.010492,-0.005464,-89.206741,0.010495,
1050,110,0.107688,-19.582947,0.999998,0.000210,-0.000865,0.006647,0.000512,0.006681,-0.000899,86.118020,0.007252,
1150,680,0.200286,-15.659096,0.999994,0.000311,-0.003160,0.006103,-0.002416,0.006695,-0.003753,-76.227279,0.006711,
950,100,0.175813,-19.620312,0.999998,0.000185,-0.001030,0.006988,0.000975,0.007104,-0.001147,83.164275,0.007628,
1840,760,-3.440307,-12.567051,0.999996,0.000240,-0.004934,0.009857,-0.000542,0.009877,-0.004954,-87.905931,0.009877,
750,400,1.672359,-16.635296,0.999997,0.000218,-0.004883,0.010059,-0.000122,0.010060,-0.004884,-89.533722,0.010062,
1480,1710,-0.599714,-2.407638,0.999996,0.000209,-0.003152,0.008301,-0.000239,0.008306,-0.003157,-88.806579,0.008385,
1410,790,-0.818624,-13.945039,0.999992,0.000334,-0.007402,0.011143,0.003353,0.011731,-0.007990,80.060386,0.011984,
1200,320,0.061750,-18.191994,0.999998,0.000166,-0.001958,0.007072,-0.000097,0.007073,-0.001959,-89.385667,0.007303,
690,840,3.387402,-11.901410,0.999996,0.000251,-0.004983,0.009942,0.000922,0.009998,-0.005040,86.479709,0.009998,
880,1550,1.290535,-4.163918,0.999996,0.000221,-0.005037,0.009955,0.000705,0.009988,-0.005070,87.313765,0.009988,
570,1550,2.876506,-5.167854,0.999992,0.000360,-0.005105,0.010041,0.000035,0.010041,-0.005105,89.868339,0.010042,
900,1190,2.339742,-8.186935,0.999996,0.000229,-0.006263,0.012297,-0.001241,0.012380,-0.006345,-86.193086,0.012381,
1620,370,-1.169462,-17.197344,0.999997,0.000187,-0.004050,0.009416,0.000005,0.009416,-0.004050,89.979635,0.009446,
1460,650,-0.865537,-15.059760,0.999995,0.000236,-0.005662,0.009979,0.002089,0.010253,-0.005936,82.523318,0.010296,
1510,940,-2.452817,-11.183804,0.999990,0.000368,-0.005179,0.012858,-0.001264,0.012946,-0.005267,-86.010401,0.013021,
1000,370,0.582624,-17.576068,0.999998,0.000212,-0.003061,0.008317,-0.000313,0.008326,-0.003070,-88.423606,0.008421,
1100,1760,0.249303,-1.856119,0.999998,0.000183,-0.002008,0.007331,0.000029,0.007331,-0.002008,89.819082,0.007577,
1620,1180,-2.723005,-8.424910,0.999995,0.000262,-0.005473,0.011428,0.001417,0.011546,-0.005591,85.241189,0.011548,
1700,940,-3.331276,-10.959182,0.999997,0.000239,-0.004521,0.010087,-0.000919,0.010145,-0.004579,-86.414497,0.010161,
1320,1830,-0.119137,-1.319888,0.999998,0.000169,-0.001474,0.006896,0.000071,0.006896,-0.001475,89.514486,0.007263,
1370,1310,-0.456855,-5.367009,0.999994,0.000302,-0.005549,0.008528,-0.003884,0.009529,-0.006550,-75.554503,0.009749,
620,1480,2.832147,-5.730296,0.999996,0.000231,-0.005110,0.010196,-0.000030,0.010196,-0.005110,-89.889554,0.010196,
1780,1010,-3.779235,-10.245726,0.999997,0.000188,-0.004329,0.009451,-0.000275,0.009456,-0.004335,-88.857379,0.009467,
1890,1030,-4.254290,-10.059116,0.999997,0.000208,-0.004042,0.008380,0.000067,0.008380,-0.004043,89.690547,0.008382,
830,1590,1.449554,-3.929921,0.999996,0.000253,-0.004846,0.009910,0.000414,0.009922,-0.004858,88.393636,0.009922,
1200,1890,0.032086,-0.907569,0.999998,0.000164,-0.000935,0.006524,-0.000043,0.006524,-0.000936,-89.672123,0.007056,
1760,160,-0.935625,-18.894516,0.999997,0.000215,-0.004154,0.009784,-0.001644,0.009976,-0.004346,-83.365316,0.010003,
640,250,1.676534,-17.801873,0.999996,0.000264,-0.004764,0.010171,0.000440,0.010184,-0.004777,88.315028,0.010191,
1310,580,-0.205781,-16.306715,0.999998,0.000191,-0.002932,0.006786,0.001323,0.006963,-0.003109,82.384465,0.006976,
730,200,1.033328,-18.576638,0.999997,0.000191,-0.003750,0.009751,0.001350,0.009885,-0.003883,84.346378,0.009960,
1420,80,-0.077931,-19.777207,0.999998,0.000169,-0.000575,0.006459,-0.000552,0.006502,-0.000618,-85.541230,0.007178,
1060,1920,0.131070,-0.740496,0.999998,0.000160,-0.000995,0.006719,-0.000414,0.006742,-0.001017,-86.934298,0.007269,
960,1930,0.224083,-0.716084,0.999998,0.000174,-0.001370,0.007126,-0.000852,0.007210,-0.001454,-84.327148,0.007626,
1180,210,0.066875,-18.950680,0.999998,0.000184,-0.001165,0.006716,0.000082,0.006716,-0.001166,89.406004,0.007178,
960,1140,2.262079,-8.620784,0.999994,0.000311,-0.006006,0.013260,-0.001150,0.013328,-0.006074,-86.594815,0.013346,
1840,2000,-0.404883,-0.384973,0.999996,0.000229,-0.004225,0.009769,0.002831,0.010320,-0.004776,78.984496,0.010329,
1490,710,-1.161532,-14.237408,0.999996,0.000282,-0.006788,0.011366,0.001675,0.011519,-0.006942,84.771356,0.011600,
560,1240,3.925867,-8.285865,0.999993,0.000000,-0.004930,0.009075,0.000018,0.009075,-0.004930,89.926872,0.009086,
1200,300,0.060064,-18.333098,0.999998,0.000172,-0.001828,0.006972,-0.000077,0.006973,-0.001828,-89.498268,0.007231,
840,930,2.957944,-11.112985,0.999995,0.000258,-0.004681,0.010931,0.001291,0.011037,-0.004787,85.303827,0.011069,
800,1800,1.000081,-1.969712,0.999997,0.000191,-0.003889,0.009335,-0.000676,0.009369,-0.003923,-87.082739,0.009410,
1530,1310,-1.548945,-6.553044,0.999994,0.000266,-0.007118,0.012035,-0.000673,0.012059,-0.007142,-87.990787,0.012127,
1790,1470,-2.591629,-5.669799,0.999996,0.000256,-0.005219,0.010318,0.000052,0.010319,-0.005219,89.809515,0.010319,
670,840,3.486274,-11.873989,0.999995,0.000270,-0.004858,0.009763,0.000837,0.009811,-0.004906,86.733711,0.009811,
1130,1480,0.273025,-3.877139,0.999996,0.000252,-0.003160,0.007127,0.001418,0.007319,-0.003351,82.294991,0.007327,
1520,1710,-0.736863,-2.499859,0.999997,0.000207,-0.003344,0.008788,-0.000101,0.008789,-0.003345,-89.525282,0.008872,
1450,290,-0.439590,-18.239258,0.999996,0.000232,-0.002403,0.007870,-0.000115,0.007871,-0.002405,-89.360524,0.008067,
1770,1260,-3.214964,-7.794014,0.999996,0.000259,-0.005158,0.010202,0.000900,0.010254,-0.005211,86.658761,0.010254,
760,1460,2.154473,-5.507229,0.999995,0.000256,-0.005534,0.010604,0.000080,0.010604,-0.005535,89.714252,0.010608,
700,1840,1.235989,-1.819622,0.999996,0.000232,-0.004582,0.009937,-0.000956,0.010000,-0.004644,-86.248720,0.010009,
1730,1200,-3.224974,-8.354562,0.999996,0.000225,-0.005072,0.010289,0.001072,0.010364,-0.005146,86.026406,0.010364,
1150,110,0.044195,-19.604212,0.999998,0.000176,-0.000540,0.006361,0.000212,0.006368,-0.000547,88.238429,0.007058,
1880,1520,-2.898262,-5.434326,0.999996,0.000225,-0.005049,0.010172,-0.000023,0.010172,-0.005049,-89.912719,0.010172,
1630,30,-0.041715,-20.085205,0.999998,0.000000,0.000024,0.006926,-0.001903,0.007416,-0.000466,-75.562588,0.008308,
640,710,3.179641,-13.110585,0.999996,0.000239,-0.005080,0.010125,0.000448,0.010138,-0.005093,88.315388,0.010138,
930,1230,1.927789,-7.573462,0.999995,0.000260,-0.007138,0.012813,-0.000425,0.012822,-0.007147,-88.779868,0.012850,
1050,780,0.809593,-14.030172,0.999992,0.000324,-0.007195,0.011090,-0.003271,0.011657,-0.007762,-80.157620,0.011869,
1830,140,-1.089174,-18.913363,0.999997,0.000234,-0.004621,0.010428,-0.001424,0.010562,-0.004755,-84.642123,0.010579,
1260,1860,-0.034604,-1.103890,0.999999,0.000167,-0.001141,0.006646,0.000041,0.006646,-0.001141,89.699658,0.007108,
1840,740,-3.372305,-12.766334,0.999997,0.000200,-0.004963,0.009874,-0.000487,0.009890,-0.004979,-88.120135,0.009890,
680,1670,1.971108,-3.596538,0.999997,0.000206,-0.004900,0.010099,0.000063,0.010099,-0.004901,89.759164,0.010101,
880,1820,0.673903,-1.651477,0.999997,0.000191,-0.003122,0.008585,-0.000658,0.008622,-0.003159,-86.793035,0.008724,
1380,410,-0.368982,-17.418486,0.999996,0.000215,-0.002806,0.007716,0.000568,0.007747,-0.002837,86.917405,0.007839,
1840,970,-4.003325,-10.595046,0.999998,0.000200,-0.004282,0.008824,-0.000130,0.008826,-0.004283,-89.432566,0.008827,
1300,1890,-0.064644,-0.911621,0.999998,0.000165,-0.000861,0.006575,0.000170,0.006579,-0.000865,88.693000,0.007150,
1880,1030,-4.215009,-10.057964,0.999998,0.000188,-0.004071,0.008503,0.000063,0.008504,-0.004071,89.713362,0.008506,
830,1570,1.494093,-4.127766,0.999995,0.000255,-0.005000,0.010046,0.000450,0.010060,-0.005013,88.288390,0.010060,
1760,140,-0.812397,-19.095158,0.999997,0.000227,-0.003924,0.009506,-0.001908,0.009772,-0.004190,-82.067071,0.009805,
1620,350,-1.118226,-17.386548,0.999997,0.000174,-0.003870,0.009459,-0.000132,0.009461,-0.003871,-89.431524,0.009512,
1820,450,-2.347001,-15.782089,0.999996,0.000217,-0.005061,0.010124,0.000152,0.010126,-0.005063,89.427091,0.010126,
1370,1290,-0.489795,-5.547630,0.999994,0.000308,-0.005888,0.008837,-0.004120,0.009911,-0.006962,-75.385799,0.010178,
1100,1740,0.260154,-1.998491,0.999997,0.000201,-0.002152,0.007394,0.000110,0.007395,-0.002154,89.341050,0.007607,
620,270,1.862087,-17.516557,0.999997,0.000212,-0.004866,0.010043,0.000150,0.010045,-0.004868,89.423832,0.010046,
1240,50,-0.001794,-19.977148,0.999998,0.000146,-0.000264,0.005999,-0.000004,0.005999,-0.000264,-89.966609,0.006779,
1410,1990,-0.050281,-0.283122,0.999998,0.000189,-0.000456,0.006348,0.000512,0.006386,-0.000495,85.716865,0.007106,
1050,1590,0.514017,-3.258650,0.999997,0.000212,-0.003387,0.008140,0.000937,0.008216,-0.003462,85.382466,0.008249,
1420,1930,-0.138130,-0.681816,0.999998,0.000189,-0.001027,0.006750,0.000502,0.006783,-0.001059,86.321821,0.007298,
960,1120,2.390451,-8.888994,0.999993,0.000317,-0.005431,0.013097,-0.001200,0.013175,-0.005509,-86.309779,0.013233,
1830,2000,-0.360589,-0.348596,0.999996,0.000251,-0.003639,0.009515,0.002962,0.010151,-0.004275,77.878307,0.010193,
730,960,3.525790,-10.742469,0.999995,0.000261,-0.004428,0.009882,0.000706,0.009917,-0.004463,87.181237,0.009933,
1530,1290,-1.625762,-6.800556,0.999994,0.000247,-0.007229,0.012307,-0.000441,0.012317,-0.007239,-88.708467,0.012380,
1200,280,0.056114,-18.473689,0.999998,0.000184,-0.001713,0.006994,-0.000026,0.006994,-0.001713,-89.826493,0.007291,
1490,690,-1.116327,-14.467399,0.999996,0.000263,-0.006530,0.011051,0.001723,0.011218,-0.006698,84.453965,0.011288,
1310,560,-0.207570,-16.444836,0.999998,0.000174,-0.002938,0.006904,0.001202,0.007048,-0.003083,83.135190,0.007067,
1440,90,-0.102120,-19.707710,0.999998,0.000204,-0.000599,0.006596,-0.000622,0.006649,-0.000652,-85.096707,0.007331,
1420,490,-0.552252,-16.680560,0.999996,0.000230,-0.003589,0.008330,0.001104,0.008432,-0.003690,84.752987,0.008454,
1560,330,-0.835970,-17.717869,0.999997,0.000218,-0.003562,0.008943,-0.000026,0.008943,-0.003562,-89.878914,0.009005,
1770,860,-3.437041,-11.706665,0.999996,0.000239,-0.004913,0.009965,-0.000964,0.010028,-0.004975,-86.307672,0.010028,
700,1820,1.330090,-2.016579,0.999996,0.000236,-0.004684,0.009973,-0.000741,0.010011,-0.004721,-87.112548,0.010016,
1870,1260,-3.708084,-8.012549,0.999997,0.000231,-0.004706,0.009391,0.000335,0.009398,-0.004714,88.640723,0.009398,
1000,1670,0.602594,-2.709840,0.999996,0.000229,-0.003186,0.008393,0.000393,0.008406,-0.003199,88.058820,0.008486,
1810,2020,-0.137261,-0.135554,0.999996,0.000000,-0.000896,0.008603,0.003825,0.009952,-0.002244,70.576491,0.010439,
1150,90,0.033681,-19.730845,0.999998,0.000168,-0.000440,0.006227,0.000204,0.006234,-0.000446,88.252316,0.006955,
1870,1520,-2.848445,-5.403282,0.999997,0.000196,-0.005058,0.010178,-0.000039,0.010178,-0.005058,-89.853925,0.010178,
1020,1170,1.635267,-7.794583,0.999990,0.000368,-0.007302,0.014048,0.001049,0.014100,-0.007353,87.194065,0.014104,
1250,1300,-0.036897,-4.601381,0.999998,0.000167,-0.002116,0.003040,-0.001009,0.003230,-0.002306,-79.309714,0.003327,
1840,720,-3.301035,-12.965050,0.999997,0.000197,-0.005006,0.009957,-0.000409,0.009968,-0.005018,-88.436914,0.009968,
620,710,3.281061,-13.057104,0.999995,0.000247,-0.005029,0.010035,0.000366,0.010043,-0.005038,88.609358,0.010043,
1170,1480,0.156278,-3.775998,0.999997,0.000217,-0.002780,0.006586,0.001081,0.006710,-0.002903,83.502167,0.006730,
1040,910,1.705969,-12.250846,0.999991,0.000367,-0.006688,0.014316,-0.002490,0.014608,-0.006979,-83.330554,0.014612,
1880,940,-4.137328,-10.817679,0.999996,0.000240,-0.004193,0.008620,-0.000259,0.008626,-0.004198,-88.844100,0.008627,
1280,170,-0.049337,-19.217446,0.999998,0.000155,-0.000902,0.006582,-0.000078,0.006583,-0.000903,-89.402184,0.007137,
660,1660,2.099749,-3.764080,0.999997,0.000227,-0.004926,0.010095,0.000113,0.010096,-0.004927,89.567314,0.010097,
1280,1890,-0.046959,-0.909844,0.999999,0.000154,-0.000896,0.006532,0.000117,0.006534,-0.000898,89.101072,0.007084,
830,1550,1.542568,-4.332527,0.999995,0.000266,-0.005161,0.010170,0.000486,0.010185,-0.005176,88.184863,0.010186,
1040,570,0.614260,-15.982513,0.999995,0.000244,-0.004387,0.008666,-0.001786,0.008906,-0.004627,-82.347337,0.008908,
560,1230,3.954402,-8.379104,0.999994,0.000000,-0.004713,0.009171,-0.000046,0.009172,-0.004713,-89.809299,0.009173,
1200,50,0.006616,-19.977039,0.999999,0.000127,-0.000191,0.006014,0.000065,0.006014,-0.000192,89.398354,0.006837,
1100,1720,0.279414,-2.151857,0.999997,0.000215,-0.002262,0.007449,0.000167,0.007452,-0.002265,89.012747,0.007641,
1760,120,-0.691154,-19.277572,0.999996,0.000242,-0.003600,0.009459,-0.002269,0.009842,-0.003983,-80.418962,0.009901,
1300,1380,-0.162939,-4.421125,0.999997,0.000237,-0.002823,0.005780,-0.002040,0.006239,-0.003282,-77.310400,0.006242,
620,250,1.770969,-17.722150,0.999997,0.000218,-0.004841,0.010057,0.000215,0.010060,-0.004845,89.172317,0.010063,
1050,1630,0.484251,-2.934849,0.999997,0.000217,-0.003248,0.008073,0.000760,0.008123,-0.003299,86.176252,0.008171,
1410,1450,-0.575918,-4.425295,0.999996,0.000241,-0.004528,0.008633,-0.002100,0.008960,-0.004855,-81.150773,0.008971,
1370,1270,-0.529033,-5.723424,0.999994,0.000294,-0.006240,0.009109,-0.004269,0.010216,-0.007348,-75.457007,0.010538,
960,1100,2.499777,-9.146539,0.999995,0.000286,-0.004832,0.012933,-0.001134,0.013005,-0.004904,-86.363765,0.013136,
640,670,3.039799,-13.516810,0.999998,0.000173,-0.005104,0.010166,0.000323,0.010173,-0.005111,88.790090,0.010173,
1890,2000,-0.603341,-0.550220,0.999957,0.000784,-0.002203,0.013317,0.005722,0.015199,-0.004085,71.797345,0.015732,
1620,1160,-2.807284,-8.654578,0.999996,0.000241,-0.005224,0.011202,0.001373,0.011316,-0.005338,85.253017,0.011322,
1400,1930,-0.116045,-0.673601,0.999998,0.000147,-0.000873,0.006665,0.000451,0.006692,-0.000900,86.590000,0.007264,
1530,1270,-1.711300,-7.048455,0.999995,0.000245,-0.007301,0.012507,-0.000198,0.012509,-0.007303,-89.428402,0.012567,
1210,680,0.045255,-15.844274,0.999998,0.000151,-0.002168,0.004785,-0.000770,0.004869,-0.002253,-83.758736,0.004874,
820,1290,2.386173,-7.206194,0.999994,0.000351,-0.006143,0.011411,-0.000712,0.011440,-0.006172,-87.679587,0.011452,
1340,1550,-0.291098,-3.388092,0.999997,0.000201,-0.002939,0.007395,-0.000930,0.007478,-0.003022,-84.898655,0.007523,
800,1780,1.070226,-2.160670,0.999997,0.000184,-0.004047,0.009447,-0.000515,0.009466,-0.004067,-87.818309,0.009497,
1490,670,-1.073160,-14.686524,0.999995,0.000251,-0.006239,0.010748,0.001728,0.010922,-0.006413,84.251546,0.010977,
1770,840,-3.374649,-11.907032,0.999994,0.000284,-0.004954,0.009947,-0.000932,0.010005,-0.005012,-86.436042,0.010005,
650,840,3.581717,-11.840791,0.999996,0.000248,-0.004750,0.009614,0.000769,0.009655,-0.004791,86.942908,0.009655,
1840,700,-3.231978,-13.166404,0.999997,0.000218,-0.005039,0.010054,-0.000364,0.010062,-0.005047,-88.620899,0.010062,
1200,500,0.080532,-16.921705,0.999997,0.000186,-0.002521,0.006824,-0.000349,0.006837,-0.002534,-87.866672,0.006913,
1020,630,0.751768,-15.343484,0.999996,0.000237,-0.005300,0.009405,-0.002195,0.009726,-0.005620,-81.688776,0.009765,
1150,70,0.022182,-19.854801,0.999998,0.000158,-0.000313,0.006131,0.000238,0.006139,-0.000322,87.886037,0.006911,
1710,560,-2.091253,-15.001958,0.999996,0.000260,-0.005411,0.010400,0.000148,0.010401,-0.005412,89.465244,0.010404,
1590,410,-1.132793,-16.899573,0.999996,0.000235,-0.004293,0.009425,0.000325,0.009433,-0.004301,88.642495,0.009445,
1800,2020,-0.135871,-0.135405,0.999996,0.000000,-0.000065,0.008492,0.003928,0.010021,-0.001595,68.722295,0.010770,
1040,230,0.290953,-18.734304,0.999997,0.000223,-0.001992,0.007415,0.000211,0.007419,-0.001997,88.716025,0.007678,
1240,1830,-0.010960,-1.302763,0.999999,0.000118,-0.001424,0.006763,-0.000027,0.006763,-0.001424,-89.810121,0.007130,
1810,840,-3.567770,-11.845714,0.999994,0.000274,-0.004782,0.009612,-0.000778,0.009653,-0.004824,-86.915200,0.009653,
1700,920,-3.284792,-11.161246,0.999997,0.000237,-0.004682,0.010229,-0.000981,0.010293,-0.004747,-86.252133,0.010304,
1880,900,-4.048453,-11.167229,0.999998,0.000163,-0.004272,0.008637,-0.000236,0.008641,-0.004276,-88.951630,0.008641,
1260,170,-0.030226,-19.219778,0.999998,0.000171,-0.000969,0.006560,-0.000004,0.006560,-0.000969,-89.967102,0.007081,
1040,550,0.602600,-16.156718,0.999997,0.000187,-0.004269,0.008616,-0.001637,0.008820,-0.004474,-82.873008,0.008821,
1210,50,0.004090,-19.977020,0.999998,0.000139,-0.000204,0.006007,0.000039,0.006007,-0.000204,89.644074,0.006821,
1250,1280,-0.042466,-4.655295,0.999998,0.000160,-0.002403,0.002633,-0.001119,0.002871,-0.002640,-78.025076,0.003190,
1060,1360,0.593035,-5.185843,0.999995,0.000249,-0.005554,0.009238,0.003040,0.009838,-0.006155,78.826623,0.009941,
1100,1700,0.291424,-2.299282,0.999997,0.000192,-0.002347,0.007469,0.000279,0.007476,-0.002355,88.370609,0.007645,
1040,1170,1.494675,-7.553662,0.999993,0.000287,-0.006989,0.013805,0.002332,0.014063,-0.007248,83.678227,0.014065,
1410,1430,-0.585191,-4.598492,0.999996,0.000244,-0.004662,0.008694,-0.002245,0.009061,-0.005029,-80.710672,0.009079,
1050,900,1.551147,-12.532379,0.999991,0.000382,-0.006670,0.013537,-0.003176,0.014024,-0.007157,-81.274034,0.014025,
1520,90,-0.159992,-19.687960,0.999998,0.000164,-0.000836,0.006900,-0.000992,0.007025,-0.000961,-82.804588,0.007618,
700,1800,1.419924,-2.219744,0.999996,0.000253,-0.004731,0.010017,-0.000570,0.010039,-0.004753,-87.789512,0.010044,
1370,1250,-0.597214,-5.911559,0.999992,0.000347,-0.006555,0.009445,-0.004358,0.010555,-0.007665,-75.710782,0.010909,
1100,1930,0.093796,-0.664865,0.999997,0.000222,-0.000701,0.006518,-0.000370,0.006537,-0.000719,-87.072951,0.007169,
710,400,1.866791,-16.508026,0.999996,0.000246,-0.004887,0.010124,-0.000137,0.010125,-0.004888,-89.475764,0.010127,
1760,100,-0.553274,-19.473518,0.999995,0.000259,-0.003235,0.008968,-0.002384,0.009417,-0.003684,-79.330736,0.009491,
620,670,3.142423,-13.461370,0.999997,0.000215,-0.005095,0.010091,0.000300,0.010097,-0.005101,88.869388,0.010097,
1630,1640,-1.320519,-3.423085,0.999996,0.000245,-0.004619,0.009791,-0.000284,0.009796,-0.004624,-88.872156,0.009801,
1530,1250,-1.801946,-7.300606,0.999995,0.000268,-0.007291,0.012709,0.000084,0.012710,-0.007292,89.758133,0.012755,
1150,1480,0.214304,-3.827830,0.999998,0.000170,-0.002937,0.006820,0.001282,0.006986,-0.003103,82.636843,0.007000,
960,1080,2.592808,-9.405968,0.999995,0.000301,-0.004359,0.012804,-0.000919,0.012853,-0.004408,-86.944151,0.013063,
1880,2000,-0.571409,-0.523140,0.999972,0.000628,-0.002489,0.012294,0.005006,0.013830,-0.004025,72.944253,0.014227,
800,1290,2.506474,-7.256852,0.999995,0.000270,-0.006034,0.011227,-0.000805,0.011265,-0.006072,-87.335124,0.011276,
830,1530,1.590381,-4.538025,0.999995,0.000254,-0.005273,0.010290,0.000503,0.010306,-0.005289,88.150438,0.010307,
1000,1890,0.251448,-0.979262,0.999998,0.000144,-0.001232,0.007202,-0.000696,0.007259,-0.001289,-85.316670,0.007745,
1540,1490,-1.180213,-4.611246,0.999996,0.000261,-0.005335,0.010130,-0.001095,0.010207,-0.005412,-85.971201,0.010213,
1460,810,-1.290824,-13.234046,0.999992,0.000331,-0.007801,0.012747,0.001524,0.012860,-0.007913,85.781427,0.012973,
560,1220,3.981986,-8.470733,0.999995,0.000000,-0.004555,0.009137,-0.000099,0.009137,-0.004555,-89.587512,0.009137,
1490,650,-1.039879,-14.899081,0.999995,0.000264,-0.005976,0.010430,0.001746,0.010614,-0.006160,83.991383,0.010659,
800,1760,1.134304,-2.350573,0.999997,0.000199,-0.004176,0.009508,-0.000374,0.009518,-0.004186,-88.437666,0.009541,
1140,1980,0.029314,-0.335438,0.999998,0.000147,-0.000405,0.006209,-0.000245,0.006218,-0.000414,-87.884795,0.006953,
1630,900,-2.876524,-11.440069,0.999996,0.000238,-0.005080,0.011031,-0.001343,0.011142,-0.005191,-85.268685,0.011151,
1200,260,0.051453,-18.614386,0.999997,0.000198,-0.001594,0.006933,-0.000052,0.006934,-0.001594,-89.650656,0.007263,
760,1990,0.242542,-0.349637,0.999997,0.000206,-0.000961,0.007761,-0.002392,0.008373,-0.001574,-75.629749,0.008900,
1690,560,-1.982904,-15.066628,0.999996,0.000217,-0.005402,0.010431,0.000218,0.010434,-0.005405,89.209868,0.010437,
1190,680,0.090394,-15.808973,0.999997,0.000193,-0.002465,0.005075,-0.001414,0.005331,-0.002721,-79.721201,0.005331,
620,1460,2.896086,-5.935031,0.999996,0.000239,-0.005101,0.010146,-0.000077,0.010146,-0.005101,-89.710497,0.010146,
1470,900,-1.946935,-11.928800,0.999993,0.000311,-0.006889,0.014013,-0.000178,0.014015,-0.006891,-89.512106,0.014016,
1800,30,-0.092343,-20.068223,0.999997,0.000000,-0.000122,0.008478,-0.004094,0.010115,-0.001759,-68.204397,0.010808,
930,220,0.503900,-18.695425,0.999998,0.000181,-0.002242,0.008013,0.000662,0.008055,-0.002284,86.321484,0.008303,
1410,1410,-0.595004,-4.770584,0.999995,0.000264,-0.004912,0.008891,-0.002444,0.009311,-0.005332,-80.250424,0.009344,
1520,50,-0.070261,-19.957767,0.999998,0.000158,-0.000372,0.006537,-0.000962,0.006669,-0.000503,-82.215317,0.007427,
1030,900,1.688405,-12.263247,0.999995,0.000282,-0.006849,0.014393,-0.001687,0.014527,-0.006983,-85.486923,0.014530,
1450,270,-0.407125,-18.401470,0.999997,0.000217,-0.002244,0.007778,-0.000183,0.007781,-0.002247,-88.955504,0.008009,
960,90,0.144253,-19.692325,0.999998,0.000177,-0.000953,0.006839,0.000902,0.006942,-0.001056,83.481098,0.007481,
1170,1380,0.143465,-4.395252,0.999998,0.000177,-0.002746,0.005571,0.001924,0.005995,-0.003170,77.587181,0.005998,
1590,1160,-2.651718,-8.608860,0.999996,0.000266,-0.005410,0.011686,0.001455,0.011808,-0.005533,85.171311,0.011816,
1760,80,-0.439350,-19.634889,0.999993,0.000291,-0.002474,0.008793,-0.002856,0.009476,-0.003157,-76.556253,0.009650,
1060,1340,0.613864,-5.370639,0.999995,0.000242,-0.005882,0.009536,0.003225,0.010183,-0.006530,78.648284,0.010318,
1460,170,-0.256775,-19.144357,0.999998,0.000170,-0.001321,0.007200,-0.000641,0.007247,-0.001369,-85.724374,0.007701,
1840,680,-3.161960,-13.368517,0.999997,0.000224,-0.005059,0.010101,-0.000328,0.010108,-0.005066,-88.761693,0.010108,
1000,630,0.857831,-15.240119,0.999996,0.000218,-0.005435,0.009736,-0.001936,0.009979,-0.005678,-82.839919,0.010011,
700,1780,1.500694,-2.419898,0.999994,0.000276,-0.004800,0.010051,-0.000399,0.010062,-0.004811,-88.462593,0.010065,
590,1710,2.280689,-3.503173,0.999997,0.000210,-0.004914,0.009824,0.000054,0.009824,-0.004914,89.790223,0.009824,
940,1670,0.816347,-2.854245,0.999997,0.000215,-0.003618,0.008774,0.000335,0.008783,-0.003627,88.450919,0.008828,
1530,1470,-1.160997,-4.777473,0.999997,0.000243,-0.005470,0.010185,-0.001182,0.010274,-0.005559,-85.704993,0.010285,
1100,1900,0.118280,-0.862819,0.999998,0.000163,-0.000948,0.006728,-0.000327,0.006742,-0.000962,-87.562240,0.007293,
1000,1930,0.178701,-0.697418,0.999998,0.000165,-0.000871,0.006924,-0.000741,0.006994,-0.000941,-84.618337,0.007591,
1040,590,0.625079,-15.807430,0.999995,0.000265,-0.004490,0.008783,-0.001882,0.009045,-0.004752,-82.081800,0.009049,
960,1060,2.663865,-9.667989,0.999994,0.000336,-0.004013,0.012995,-0.000615,0.013017,-0.004035,-87.930775,0.013327,
1180,1890,0.051015,-0.908793,0.999998,0.000151,-0.000891,0.006530,-0.000114,0.006532,-0.000893,-89.122361,0.007083,
1790,1450,-2.655270,-5.876896,0.999996,0.000265,-0.005240,0.010293,0.000112,0.010293,-0.005240,89.588403,0.010294,
1880,890,-4.027429,-11.256732,0.999999,0.000128,-0.004281,0.008641,-0.000188,0.008644,-0.004284,-89.168720,0.008644,
1370,1230,-0.681068,-6.099017,0.999991,0.000378,-0.006642,0.009610,-0.004322,0.010688,-0.007720,-75.996515,0.011034,
620,310,2.016923,-17.115311,0.999998,0.000222,-0.004881,0.010033,-0.000019,0.010033,-0.004881,-89.928320,0.010035,
1040,1290,0.836249,-6.056487,0.999995,0.000283,-0.007111,0.011105,0.002996,0.011585,-0.007591,80.895386,0.011770,
1540,1470,-1.214669,-4.816695,0.999997,0.000221,-0.005469,0.010230,-0.001084,0.010304,-0.005543,-86.069002,0.010314,
1620,1140,-2.885728,-8.877150,0.999997,0.000228,-0.004924,0.011042,0.001385,0.011161,-0.005043,85.078592,0.011178,
1520,770,-1.573224,-13.352057,0.999992,0.000326,-0.007371,0.012413,0.000587,0.012431,-0.007389,88.303301,0.012504,
880,1800,0.730409,-1.824981,0.999997,0.000182,-0.003288,0.008654,-0.000503,0.008675,-0.003309,-87.593102,0.008756,
1800,1450,-2.707184,-5.906516,0.999997,0.000251,-0.005205,0.010258,0.000116,0.010258,-0.005206,89.568769,0.010259,
660,1640,2.159951,-3.967270,0.999997,0.000224,-0.004979,0.010119,0.000148,0.010120,-0.004981,89.439404,0.010121,
880,1530,1.329563,-4.366573,0.999996,0.000223,-0.005132,0.010082,0.000749,0.010119,-0.005169,87.187635,0.010120,
1860,390,-2.366635,-16.252722,0.999996,0.000211,-0.004975,0.009975,0.000129,0.009976,-0.004976,89.507490,0.009976,
1200,220,0.041664,-18.887728,0.999998,0.000202,-0.001331,0.006723,-0.000006,0.006723,-0.001331,-89.956246,0.007120,
1500,710,-1.230476,-14.183162,0.999995,0.000294,-0.006818,0.011460,0.001482,0.011579,-0.006937,85.395608,0.011655,
1490,630,-1.009260,-15.103211,0.999995,0.000261,-0.005754,0.010159,0.001718,0.010342,-0.005938,83.906380,0.010380,
1140,1960,0.041797,-0.462661,0.999998,0.000170,-0.000562,0.006298,-0.000209,0.006304,-0.000568,-88.257571,0.006974,
1290,1210,-0.409738,-5.096180,0.999991,0.000362,-0.005263,0.003154,-0.000833,0.003236,-0.005345,-84.399856,0.005384,
830,1510,1.638301,-4.747448,0.999995,0.000260,-0.005361,0.010386,0.000497,0.010401,-0.005377,88.192383,0.010403,
1060,1320,0.638784,-5.565031,0.999996,0.000246,-0.006219,0.009878,0.003392,0.010563,-0.006905,78.573406,0.010728,
620,1440,2.959941,-6.137503,0.999996,0.000253,-0.005075,0.010184,-0.000091,0.010184,-0.005076,-89.657547,0.010184,
1440,170,-0.231306,-19.154861,0.999998,0.000226,-0.001375,0.007084,-0.000518,0.007115,-0.001407,-86.510809,0.007536,
1410,1390,-0.603880,-4.948690,0.999994,0.000276,-0.005198,0.009056,-0.002661,0.009536,-0.005679,-79.761521,0.009594,
750,920,3.344839,-11.153659,0.999995,0.000262,-0.004648,0.010060,0.000919,0.010118,-0.004705,86.438865,0.010126,
1570,320,-0.851248,-17.785150,0.999995,0.000275,-0.003659,0.008974,-0.000067,0.008975,-0.003659,-89.695931,0.009026,
980,50,0.051669,-19.965093,0.999998,0.000181,-0.000350,0.006431,0.000799,0.006524,-0.000443,83.370811,0.007291,
1760,60,-0.282319,-19.827068,0.999994,0.000290,-0.001711,0.008657,-0.003187,0.009558,-0.002612,-74.210124,0.009880,
1300,1360,-0.158747,-4.529122,0.999997,0.000227,-0.002897,0.005580,-0.002321,0.006174,-0.003491,-75.645890,0.006192,
1120,630,0.307718,-15.849750,0.999995,0.000255,-0.003620,0.007160,-0.002243,0.007608,-0.004068,-78.704734,0.007614,
1030,960,2.144693,-11.345156,0.999992,0.000362,-0.006689,0.016929,-0.002282,0.017147,-0.006908,-84.530952,0.017255,
1460,30,-0.018232,-20.089232,0.999998,0.000000,0.000038,0.006199,-0.000791,0.006299,-0.000062,-82.799036,0.007238,
1370,1210,-0.813198,-6.292594,0.999991,0.000395,-0.006320,0.009703,-0.004496,0.010878,-0.007495,-75.349796,0.011134,
1340,410,-0.262273,-17.478948,0.999998,0.000222,-0.002675,0.007405,0.000583,0.007439,-0.002709,86.700623,0.007530,
1700,1990,-0.239527,-0.346781,0.999997,0.000218,-0.000969,0.007726,0.002336,0.008314,-0.001556,75.876959,0.008839,
1450,250,-0.379434,-18.552311,0.999997,0.000210,-0.002103,0.007679,-0.000281,0.007687,-0.002111,-88.356460,0.007944,
1250,1680,-0.042123,-2.351384,0.999997,0.000189,-0.002228,0.007089,-0.000188,0.007093,-0.002232,-88.844721,0.007253,
1020,1290,0.981647,-6.228166,0.999996,0.000230,-0.007329,0.011656,0.002477,0.011974,-0.007647,82.689008,0.012126,
900,90,0.192510,-19.675740,0.999998,0.000159,-0.000935,0.007081,0.001253,0.007272,-0.001127,81.320216,0.007828,
1100,1680,0.304838,-2.451490,0.999997,0.000185,-0.002438,0.007596,0.000312,0.007606,-0.002448,88.217973,0.007765,
1790,2020,-0.138835,-0.134335,0.999995,0.000000,0.000056,0.008333,0.003790,0.009807,-0.001418,68.758671,0.010601,
1320,1930,-0.056912,-0.652949,0.999998,0.000182,-0.000731,0.006431,0.000200,0.006436,-0.000737,88.399793,0.007045,
1770,180,-1.089798,-18.673120,0.999997,0.000219,-0.004308,0.009909,-0.001402,0.010046,-0.004444,-84.422857,0.010068,
1530,1230,-1.904843,-7.560243,0.999996,0.000241,-0.007202,0.012851,0.000390,0.012859,-0.007210,88.887566,0.012890,
1400,1510,-0.505100,-3.872167,0.999996,0.000226,-0.003809,0.008176,-0.001504,0.008362,-0.003995,-82.956828,0.008365,
1840,660,-3.093595,-13.572032,0.999997,0.000209,-0.005066,0.010136,-0.000269,0.010141,-0.005071,-88.986400,0.010141,
1490,940,-2.348236,-11.252891,0.999992,0.000327,-0.005473,0.013602,-0.000983,0.013652,-0.005524,-87.058887,0.013735,
1490,610,-0.979240,-15.308196,0.999996,0.000222,-0.005497,0.010019,0.001637,0.010189,-0.005667,84.041472,0.010211,
1160,1890,0.066883,-0.912122,0.999998,0.000148,-0.000862,0.006532,-0.000175,0.006536,-0.000866,-88.642579,0.007100,
1200,200,0.041494,-19.021668,0.999998,0.000187,-0.001197,0.006663,0.000038,0.006664,-0.001197,89.719810,0.007105,
1480,710,-1.095765,-14.299009,0.999996,0.000286,-0.006744,0.011261,0.001867,0.011452,-0.006935,84.140753,0.011537,
800,1740,1.197735,-2.542250,0.999996,0.000216,-0.004308,0.009622,-0.000220,0.009626,-0.004311,-89.096086,0.009643,
960,1040,2.696721,-9.926121,0.999996,0.000260,-0.003883,0.012599,-0.000252,0.012603,-0.003887,-89.125016,0.012908,
590,1700,2.316294,-3.603211,0.999997,0.000216,-0.004968,0.009838,0.000012,0.009838,-0.004968,89.952937,0.009838,
1880,880,-4.005449,-11.343261,0.999998,0.000150,-0.004317,0.008708,-0.000176,0.008710,-0.004319,-89.227058,0.008711,
1860,490,-2.665534,-15.244941,0.999995,0.000251,-0.005042,0.010109,0.000066,0.010109,-0.005043,89.751787,0.010109,
700,1760,1.575200,-2.623070,0.999995,0.000282,-0.004838,0.010079,-0.000277,0.010084,-0.004843,-88.938053,0.010087,
1620,1120,-2.962098,-9.098881,0.999997,0.000228,-0.004602,0.010876,0.001225,0.010972,-0.004698,85.502272,0.011010,
1670,1160,-3.057796,-8.708729,0.999996,0.000285,-0.004963,0.010680,0.001290,0.010786,-0.005069,85.317497,0.010792,
1150,1380,0.200128,-4.471920,0.999996,0.000258,-0.003138,0.006138,0.002326,0.006688,-0.003689,76.680459,0.006700,
1230,800,0.002550,-15.480408,0.999992,0.000362,-0.003272,0.002069,-0.000052,0.002070,-0.003272,-89.442897,0.003311,
1140,1940,0.053851,-0.589852,0.999998,0.000166,-0.000669,0.006398,-0.000216,0.006404,-0.000676,-88.248044,0.007037,
850,420,1.253047,-16.740289,0.999995,0.000296,-0.004516,0.009669,-0.000325,0.009676,-0.004523,-88.686636,0.009683,
1570,900,-2.562429,-11.531017,0.999995,0.000262,-0.005505,0.011950,-0.001477,0.012075,-0.005629,-85.196976,0.012084,
660,1620,2.216394,-4.170767,0.999997,0.000233,-0.005033,0.010125,0.000168,0.010127,-0.005035,89.365511,0.010127,
970,50,0.057461,-19.963037,0.999998,0.000180,-0.000487,0.006452,0.000813,0.006546,-0.000580,83.408992,0.007247,
620,1420,3.024849,-6.343099,0.999996,0.000236,-0.005074,0.010190,-0.000148,0.010191,-0.005075,-89.445696,0.010191,
1790,1430,-2.717877,-6.082858,0.999996,0.000254,-0.005259,0.010289,0.000188,0.010291,-0.005261,89.305589,0.010292,
1320,410,-0.210150,-17.511455,0.999998,0.000170,-0.002626,0.007318,0.000539,0.007347,-0.002655,86.907670,0.007441,
1750,1990,-0.307688,-0.373770,0.999994,0.000291,-0.001947,0.008551,0.002908,0.009303,-0.002699,75.503957,0.009572,
1060,1300,0.675956,-5.769375,0.999996,0.000245,-0.006574,0.010174,0.003509,0.010879,-0.007280,78.632555,0.011085,
1340,170,-0.109327,-19.202930,0.999998,0.000146,-0.001156,0.006654,-0.000190,0.006658,-0.001160,-88.605491,0.007114,
1410,1370,-0.625027,-5.136055,0.999993,0.000291,-0.005513,0.009299,-0.002869,0.009835,-0.006049,-79.412227,0.009922,
1380,1930,-0.103952,-0.670024,0.999998,0.000155,-0.000682,0.006601,0.000422,0.006625,-0.000706,86.692607,0.007277,
1100,1640,0.327066,-2.752701,0.999997,0.000209,-0.002656,0.007526,0.000518,0.007552,-0.002682,87.092793,0.007657,
870,1680,1.069139,-2.939182,0.999996,0.000226,-0.004171,0.009268,0.000185,0.009271,-0.004174,89.212038,0.009286,
880,90,0.216188,-19.667183,0.999997,0.000221,-0.001278,0.007213,0.001350,0.007423,-0.001487,81.181680,0.007854,
1680,1070,-3.332420,-9.652628,0.999994,0.000287,-0.004216,0.010076,0.000445,0.010089,-0.004230,88.217107,0.010133,
1790,30,-0.092410,-20.068450,0.999998,0.000000,0.000265,0.008313,-0.003979,0.009948,-0.001370,-67.661380,0.010783,
1350,1420,-0.332979,-4.379476,0.999996,0.000221,-0.003732,0.007332,-0.002325,0.007801,-0.004201,-78.601587,0.007808,
1700,670,-2.375587,-13.859700,0.999995,0.000268,-0.005743,0.010778,-0.000295,0.010783,-0.005748,-88.976040,0.010791,
1370,1190,-0.955747,-6.494918,0.999990,0.000393,-0.005357,0.008881,-0.004568,0.010221,-0.006697,-73.655745,0.010383,
1770,160,-0.976058,-18.869970,0.999997,0.000225,-0.004104,0.009916,-0.001745,0.010130,-0.004317,-83.011649,0.010166,
1060,1100,1.905346,-8.274538,0.999975,0.000622,-0.006799,0.018391,0.006990,0.020200,-0.008608,75.485090,0.020274,
1070,760,0.621085,-14.435678,0.999992,0.000335,-0.006437,0.009930,-0.003715,0.010734,-0.007241,-77.791504,0.010950,
580,1230,3.859250,-8.323879,0.999996,0.000217,-0.004616,0.009242,-0.000215,0.009245,-0.004620,-89.110646,0.009245,
1530,1190,-2.124599,-8.073370,0.999995,0.000261,-0.006702,0.012869,0.000987,0.012919,-0.006751,87.121316,0.012923,
1840,640,-3.025731,-13.775228,0.999996,0.000226,-0.005067,0.010171,-0.000202,0.010174,-0.005070,-89.241913,0.010174,
1450,2020,-0.028653,-0.100806,0.999998,0.000000,0.000034,0.006243,0.000630,0.006306,-0.000030,84.267744,0.007265,
1120,610,0.308275,-15.995761,0.999996,0.000247,-0.003559,0.007205,-0.002007,0.007567,-0.003921,-79.775381,0.007569,
830,1710,1.153599,-2.756765,0.999997,0.000201,-0.004040,0.009477,-0.000154,0.009479,-0.004042,-89.346412,0.009513,
1470,920,-2.093773,-11.645312,0.999994,0.000284,-0.006370,0.014145,-0.000333,0.014150,-0.006375,-89.070289,0.014173,
800,1720,1.257037,-2.738450,0.999996,0.000235,-0.004437,0.009694,-0.000078,0.009694,-0.004437,-89.685297,0.009706,
1220,1890,0.011173,-0.904018,0.999998,0.000161,-0.001000,0.006513,0.000018,0.006513,-0.001000,89.858956,0.007015,
700,1740,1.649835,-2.825125,0.999996,0.000238,-0.004862,0.010024,-0.000129,0.010025,-0.004863,-89.505337,0.010027,
660,710,3.078990,-13.163529,0.999996,0.000218,-0.005136,0.010189,0.000509,0.010206,-0.005153,88.099868,0.010206,
1400,1490,-0.511282,-4.036832,0.999996,0.000243,-0.004024,0.008261,-0.001725,0.008499,-0.004262,-82.159074,0.008499,
1000,710,0.982420,-14.410174,0.999996,0.000265,-0.006616,0.010990,-0.002172,0.011253,-0.006880,-83.070612,0.011346,
1250,1360,-0.037479,-4.380178,0.999998,0.000175,-0.002081,0.004458,-0.000746,0.004542,-0.002165,-83.573303,0.004543,
1650,1160,-2.960105,-8.688913,0.999997,0.000267,-0.005047,0.010845,0.001314,0.010953,-0.005155,85.303769,0.010959,
1530,1260,-1.756518,-7.173694,0.999996,0.000235,-0.007306,0.012609,-0.000046,0.012609,-0.007306,-89.868370,0.012662,
960,1020,2.701959,-10.170185,0.999997,0.000231,-0.003859,0.012518,0.000104,0.012518,-0.003860,89.635511,0.012821,
1200,180,0.031453,-19.156127,0.999998,0.000168,-0.001054,0.006580,0.000024,0.006580,-0.001054,89.820662,0.007068,
1490,590,-0.952861,-15.510810,0.999995,0.000245,-0.005195,0.009828,0.001528,0.009982,-0.005349,84.252315,0.009990,
1870,290,-2.070533,-17.214887,0.999996,0.000235,-0.004836,0.009774,0.000003,0.009774,-0.004836,89.989071,0.009775,
1550,900,-2.449919,-11.575985,0.999994,0.000327,-0.005723,0.012298,-0.001464,0.012416,-0.005842,-85.386990,0.012423,
1800,1070,-3.845679,-9.683495,0.999997,0.000230,-0.004363,0.009245,0.000224,0.009249,-0.004367,89.057272,0.009254,
940,90,0.164049,-19.685141,0.999998,0.000168,-0.000830,0.006908,0.001047,0.007047,-0.000970,82.428993,0.007639,
1780,2020,-0.140699,-0.135217,0.999994,0.000000,-0.000248,0.008237,0.003517,0.009505,-0.001516,70.169227,0.010213,
1750,1970,-0.435042,-0.549761,0.999995,0.000243,-0.002675,0.008442,0.002480,0.008970,-0.003203,77.977703,0.009091,
1410,1350,-0.644615,-5.329371,0.999994,0.000266,-0.005796,0.009643,-0.003039,0.010220,-0.006372,-79.256956,0.010323,
850,1680,1.153949,-2.990680,0.999998,0.000163,-0.004099,0.009364,0.000071,0.009364,-0.004099,89.696193,0.009389,
1590,390,-1.089191,-17.086957,0.999996,0.000242,-0.004225,0.009351,0.000260,0.009356,-0.004230,88.904995,0.009371,
1170,840,0.375115,-15.042767,0.999993,0.000333,-0.004980,0.003410,-0.001376,0.003630,-0.005200,-80.917296,0.005334,
1100,1620,0.334550,-2.904685,0.999997,0.000223,-0.002782,0.007580,0.000602,0.007615,-0.002817,86.683859,0.007701,
1660,1710,-1.272171,-2.827310,0.999995,0.000246,-0.004498,0.009659,0.000021,0.009660,-0.004498,89.916194,0.009667,
1750,160,-0.892481,-18.921540,0.999997,0.000209,-0.003997,0.009656,-0.001639,0.009850,-0.004191,-83.249154,0.009887,
1320,170,-0.084719,-19.212242,0.999998,0.000145,-0.001075,0.006599,-0.000142,0.006601,-0.001077,-88.937933,0.007083,
1140,1920,0.065170,-0.717644,0.999998,0.000143,-0.000849,0.006467,-0.000206,0.006473,-0.000855,-88.387448,0.007033,
1730,420,-1.812587,-16.377148,0.999995,0.000261,-0.004952,0.010134,0.000196,0.010136,-0.004954,89.255523,0.010137,
1460,1930,-0.176344,-0.696414,0.999997,0.000190,-0.000877,0.006978,0.000718,0.007043,-0.000942,84.823199,0.007646,
1530,1170,-2.246640,-8.335780,0.999995,0.000274,-0.006324,0.012789,0.001213,0.012866,-0.006400,86.381735,0.012866,
1370,870,-1.002353,-13.620587,0.999993,0.000310,-0.005087,0.008678,0.004549,0.010046,-0.006455,73.269097,0.010181,
1840,620,-2.962049,-13.980409,0.999996,0.000238,-0.005085,0.010180,-0.000121,0.010181,-0.005086,-89.545542,0.010181,
950,1480,1.051138,-4.600211,0.999997,0.000166,-0.005246,0.009977,0.001306,0.010088,-0.005357,85.133160,0.010094,
1060,1280,0.723697,-5.980933,0.999993,0.000304,-0.006929,0.010598,0.003561,0.011294,-0.007625,78.943509,0.011522,
910,220,0.550727,-18.675277,0.999997,0.000219,-0.002296,0.008170,0.000764,0.008226,-0.002351,85.844357,0.008474,
1670,850,-2.891949,-11.940868,0.999995,0.000299,-0.005439,0.010961,-0.001279,0.011060,-0.005538,-85.567241,0.011060,
1620,360,-1.144184,-17.290741,0.999997,0.000173,-0.003949,0.009416,-0.000079,0.009416,-0.003949,-89.662967,0.009457,
1810,820,-3.502890,-12.039044,0.999995,0.000238,-0.004864,0.009727,-0.000763,0.009766,-0.004904,-87.014258,0.009766,
1550,1260,-1.900440,-7.263449,0.999996,0.000228,-0.007066,0.012424,0.000271,0.012427,-0.007069,89.204455,0.012467,
1260,1890,-0.029085,-0.907418,0.999998,0.000174,-0.000940,0.006507,0.000045,0.006508,-0.000940,89.657189,0.007035,
1250,480,-0.047245,-17.068033,0.999998,0.000212,-0.002512,0.006877,0.000294,0.006887,-0.002522,88.207457,0.006968,
930,1210,2.032124,-7.830507,0.999995,0.000262,-0.006957,0.012803,-0.000717,0.012829,-0.006983,-87.925484,0.012846,
1000,1640,0.635116,-2.961022,0.999996,0.000226,-0.003555,0.008448,0.000665,0.008485,-0.003592,86.838170,0.008518,
1450,50,-0.047883,-19.966342,0.999998,0.000160,-0.000190,0.006238,-0.000672,0.006308,-0.000259,-84.097005,0.007139,
760,1440,2.216529,-5.719197,0.999996,0.000242,-0.005602,0.010620,-0.000001,0.010620,-0.005602,-89.997466,0.010625,
1370,1740,-0.276770,-2.005694,0.999997,0.000220,-0.002083,0.007417,-0.000082,0.007417,-0.002084,-89.504131,0.007651,
1680,2010,-0.131311,-0.191857,0.999998,0.000201,-0.000915,0.007272,0.001985,0.007728,-0.001371,77.068010,0.008247,
850,1150,2.810440,-8.758142,0.999996,0.000263,-0.005124,0.011181,-0.001402,0.011301,-0.005244,-85.119984,0.011310,
880,1780,0.785104,-2.000728,0.999997,0.000198,-0.003481,0.008801,-0.000376,0.008812,-0.003493,-88.247768,0.008875,
960,1240,1.654014,-7.291763,0.999992,0.000345,-0.007595,0.012960,0.000285,0.012964,-0.007599,89.205060,0.013028,
1270,670,-0.082446,-15.870569,0.999997,0.000204,-0.002434,0.005191,0.001212,0.005379,-0.002622,81.179451,0.005380,
1450,30,-0.018826,-20.089554,0.999998,0.000000,0.000033,0.006173,-0.000712,0.006255,-0.000049,-83.472043,0.007194,
1060,950,1.874728,-11.975403,0.999984,0.000496,-0.006468,0.017875,-0.006650,0.019573,-0.008166,-75.675751,0.019662,
1230,1360,0.002402,-4.358925,0.999997,0.000219,-0.002026,0.004367,0.000093,0.004369,-0.002028,89.163083,0.004372,
1880,930,-4.114630,-10.904469,0.999998,0.000197,-0.004240,0.008714,-0.000331,0.008723,-0.004248,-88.536310,0.008723,
1070,780,0.669571,-14.231282,0.999995,0.000248,-0.006794,0.010255,-0.003782,0.011056,-0.007595,-78.037443,0.011311,
1380,1990,-0.041004,-0.281238,0.999998,0.000163,-0.000236,0.006260,0.000426,0.006288,-0.000264,86.264535,0.007113,
620,1620,2.419111,-4.300809,0.999996,0.000229,-0.005019,0.010054,0.000132,0.010055,-0.005020,89.498537,0.010055,
1050,990,2.120541,-10.989124,0.999964,0.000714,-0.008727,0.022872,-0.003919,0.023350,-0.009205,-83.035243,0.023524,
1180,410,0.120639,-17.541141,0.999997,0.000212,-0.002309,0.007143,-0.000183,0.007147,-0.002312,-88.894028,0.007293,
660,1600,2.275069,-4.374170,0.999996,0.000249,-0.005054,0.010165,0.000187,0.010168,-0.005056,89.297300,0.010168,
1490,790,-1.434680,-13.271849,0.999993,0.000353,-0.007675,0.012674,0.000995,0.012722,-0.007724,87.207480,0.012819,
810,440,1.488390,-16.418628,0.999996,0.000244,-0.004752,0.009930,-0.000300,0.009937,-0.004758,-88.831357,0.009940,
1480,650,-0.980834,-14.951837,0.999995,0.000243,-0.005887,0.010287,0.001865,0.010500,-0.006100,83.506464,0.010545,
590,1230,3.814546,-8.298451,0.999996,0.000214,-0.004585,0.009267,-0.000316,0.009274,-0.004593,-88.693390,0.009275,
1750,1950,-0.553770,-0.714807,0.999995,0.000258,-0.003235,0.008951,0.002312,0.009375,-0.003659,79.608630,0.009450,
920,90,0.180066,-19.680807,0.999998,0.000156,-0.000707,0.006999,0.001180,0.007175,-0.000884,81.483528,0.007825,
1860,1390,-3.211546,-6.697659,0.999997,0.000208,-0.005023,0.010050,0.000206,0.010053,-0.005026,89.215410,0.010053,
1400,1590,-0.469043,-3.225079,0.999997,0.000191,-0.003406,0.008036,-0.000998,0.008122,-0.003492,-85.053154,0.008149,
1370,1370,-0.420225,-4.873569,0.999995,0.000273,-0.004647,0.007983,-0.003072,0.008691,-0.005355,-77.028966,0.008769,
1650,1900,-0.567334,-1.047292,0.999995,0.000258,-0.002389,0.008521,0.001595,0.008749,-0.002618,81.852035,0.008981,
1140,1900,0.078995,-0.850023,0.999998,0.000140,-0.000985,0.006566,-0.000201,0.006572,-0.000991,-88.477213,0.007086,
1060,1260,0.786579,-6.194825,0.999993,0.000332,-0.007307,0.011008,0.003522,0.011662,-0.007961,79.480908,0.011918,
1840,600,-2.898337,-14.184116,0.999996,0.000232,-0.005100,0.010145,-0.000096,0.010146,-0.005101,-89.638728,0.010146,
810,210,0.792333,-18.624402,0.999997,0.000225,-0.003245,0.009006,0.001134,0.009110,-0.003349,84.757106,0.009216,
600,190,1.569890,-18.234628,0.999995,0.000265,-0.004878,0.010054,0.000554,0.010075,-0.004899,87.878408,0.010076,
990,1480,0.850056,-4.434486,0.999997,0.000228,-0.004992,0.009524,0.001622,0.009704,-0.005171,83.700167,0.009711,
1620,1100,-3.017154,-9.313676,0.999996,0.000231,-0.004294,0.010702,0.001037,0.010773,-0.004365,86.064480,0.010837,
1820,430,-2.287419,-15.984967,0.999996,0.000254,-0.005038,0.010086,0.000143,0.010088,-0.005040,89.457966,0.010088,
860,930,2.861024,-11.134320,0.999996,0.000262,-0.004743,0.011172,0.001383,0.011291,-0.004862,85.070494,0.011327,
1200,160,0.033890,-19.285830,0.999998,0.000162,-0.000920,0.006505,0.000069,0.006506,-0.000921,89.467351,0.007041,
1530,1150,-2.358415,-8.588402,0.999996,0.000250,-0.005874,0.012647,0.001371,0.012748,-0.005975,85.789034,0.012756,
1240,1890,-0.009174,-0.904597,0.999999,0.000122,-0.000991,0.006497,-0.000002,0.006497,-0.000991,-89.986143,0.007000,
1810,860,-3.628830,-11.652591,0.999996,0.000241,-0.004747,0.009710,-0.000835,0.009758,-0.004795,-86.706695,0.009758,
1100,1600,0.342935,-3.054324,0.999996,0.000220,-0.002901,0.007624,0.000739,0.007676,-0.002953,86.005292,0.007743,
880,1760,0.838020,-2.180126,0.999997,0.000203,-0.003650,0.008876,-0.000240,0.008881,-0.003655,-88.904783,0.008927,
840,1040,3.131693,-9.948932,0.999996,0.000250,-0.003856,0.010388,-0.000274,0.010393,-0.003861,-88.897525,0.010507,
1670,830,-2.811971,-12.159596,0.999994,0.000286,-0.005608,0.010970,-0.001200,0.011057,-0.005695,-85.880211,0.011059,
730,440,1.881564,-16.164631,0.999998,0.000191,-0.004956,0.010105,-0.000186,0.010107,-0.004959,-89.293475,0.010108,
1440,2020,-0.029087,-0.100623,0.999999,0.000000,-0.000053,0.006199,0.000530,0.006244,-0.000098,85.185750,0.007154,
850,1660,1.196877,-3.179004,0.999998,0.000141,-0.004293,0.009540,0.000212,0.009543,-0.004297,89.122507,0.009559,
1590,370,-1.046718,-17.273503,0.999997,0.000216,-0.004150,0.009275,0.000213,0.009278,-0.004153,89.092256,0.009295,
1150,840,0.466525,-14.795376,0.999981,0.000497,-0.004427,0.004410,-0.002631,0.005134,-0.005150,-74.615146,0.005937,
1680,2000,-0.172380,-0.262972,0.999997,0.000211,-0.001036,0.007436,0.002056,0.007909,-0.001509,77.054728,0.008398,
1410,1330,-0.665936,-5.520665,0.999995,0.000239,-0.006145,0.009957,-0.003175,0.010560,-0.006748,-79.239350,0.010695,
1610,1260,-2.304490,-7.467600,0.999994,0.000309,-0.006404,0.011807,0.000846,0.011846,-0.006443,87.346264,0.011861,
890,220,0.599053,-18.650875,0.999996,0.000219,-0.002785,0.008335,0.000742,0.008385,-0.002835,86.199399,0.008530,
760,1420,2.278283,-5.930760,0.999995,0.000263,-0.005663,0.010668,-0.000103,0.010668,-0.005663,-89.639810,0.010675,
930,1190,2.144045,-8.084417,0.999995,0.000270,-0.006649,0.012825,-0.001020,0.012879,-0.006702,-87.010214,0.012882,
1140,590,0.242743,-16.204324,0.999997,0.000240,-0.003040,0.006934,-0.001430,0.007135,-0.003241,-82.001298,0.007145,
1610,780,-2.238285,-12.871396,0.999995,0.000268,-0.006470,0.011738,-0.000687,0.011764,-0.006496,-87.840815,0.011786,
660,1580,2.333473,-4.579099,0.999996,0.000262,-0.005072,0.010181,0.000167,0.010183,-0.005073,89.373620,0.010183,
1440,50,-0.044980,-19.966732,0.999998,0.000145,-0.000236,0.006215,-0.000608,0.006272,-0.000293,-84.661959,0.007079,
1000,1400,0.889280,-5.166364,0.999995,0.000255,-0.005802,0.010109,0.002046,0.010368,-0.006061,82.788000,0.010417,
640,1060,3.953487,-9.780747,0.999997,0.000240,-0.004305,0.009073,-0.000264,0.009079,-0.004310,-88.870659,0.009082,
970,1740,0.591839,-2.182657,0.999997,0.000230,-0.003112,0.008355,0.000061,0.008355,-0.003112,89.693674,0.008445,
1060,940,1.815971,-12.136816,0.999982,0.000535,-0.005969,0.016117,-0.006420,0.017847,-0.007700,-74.913044,0.017903,
1270,630,-0.089941,-16.086253,0.999998,0.000177,-0.002513,0.005780,0.000882,0.005873,-0.002606,83.999346,0.005885,
880,1230,2.266496,-7.753312,0.999992,0.000295,-0.006491,0.012122,-0.000994,0.012175,-0.006544,-86.950936,0.012187,
1370,1960,-0.066592,-0.470722,0.999998,0.000149,-0.000433,0.006401,0.000386,0.006423,-0.000455,86.775667,0.007168,
1250,1340,-0.036219,-4.463930,0.999998,0.000147,-0.002015,0.004041,-0.000837,0.004155,-0.002129,-82.274449,0.004155,
1060,90,0.076258,-19.717429,0.999998,0.000184,-0.000595,0.006434,0.000444,0.006462,-0.000623,86.396071,0.007129,
1560,190,-0.480349,-18.914288,0.999996,0.000220,-0.002129,0.008008,-0.000948,0.008096,-0.002217,-84.702476,0.008367,
1840,580,-2.833381,-14.387161,0.999996,0.000217,-0.005100,0.010189,-0.000052,0.010190,-0.005100,-89.804525,0.010190,
960,1000,2.673518,-10.429437,0.999995,0.000248,-0.003982,0.012962,0.000507,0.012977,-0.003997,88.286100,0.013292,
1530,1130,-2.476714,-8.846068,0.999995,0.000282,-0.005385,0.012453,0.001402,0.012562,-0.005494,85.533348,0.012595,
1060,1240,0.872463,-6.424703,0.999995,0.000284,-0.007539,0.011592,0.003391,0.012175,-0.008122,80.240964,0.012399,
1620,1060,-3.100487,-9.739972,0.999996,0.000244,-0.003958,0.010413,0.000486,0.010430,-0.003974,88.064488,0.010528,
1590,1580,-1.264039,-3.890507,0.999995,0.000259,-0.004863,0.009821,-0.000598,0.009845,-0.004888,-87.673606,0.009845,
1060,1890,0.168479,-0.946384,0.999998,0.000193,-0.001226,0.006884,-0.000394,0.006903,-0.001245,-87.225463,0.007358,
1150,190,0.087492,-19.081736,0.999998,0.000187,-0.001131,0.006706,0.000153,0.006709,-0.001134,88.880412,0.007182,
590,180,1.559459,-18.289297,0.999996,0.000278,-0.005009,0.010036,0.000654,0.010064,-0.005038,87.516602,0.010064,
1360,1240,-0.563678,-5.873930,0.999992,0.000351,-0.006244,0.008680,-0.004460,0.009911,-0.007476,-74.567308,0.010329,
1750,1930,-0.683204,-0.906514,0.999995,0.000258,-0.003536,0.009326,0.002198,0.009692,-0.003901,80.564490,0.009753,
1500,120,-0.209759,-19.480419,0.999998,0.000167,-0.001247,0.007124,-0.000856,0.007211,-0.001333,-84.220786,0.007674,
1680,1990,-0.219766,-0.338952,0.999997,0.000231,-0.001207,0.007612,0.002139,0.008104,-0.001698,77.060841,0.008548,
1820,390,-2.168598,-16.388969,0.999996,0.000250,-0.004954,0.010086,0.000110,0.010087,-0.004955,89.579644,0.010087,
1010,1480,0.751214,-4.343962,0.999996,0.000226,-0.004747,0.009220,0.001703,0.009425,-0.004952,83.147768,0.009429,
840,970,3.069036,-10.683333,0.999997,0.000211,-0.004143,0.010616,0.000939,0.010676,-0.004202,86.375256,0.010756,
1200,140,0.023663,-19.416828,0.999998,0.000142,-0.000784,0.006399,0.000064,0.006400,-0.000784,89.492293,0.006982,
1350,220,-0.161887,-18.856617,0.999998,0.000189,-0.001499,0.006915,-0.000104,0.006916,-0.001500,-89.293805,0.007277,
1160,670,0.173090,-15.757487,0.999998,0.000179,-0.002871,0.005905,-0.002006,0.006342,-0.003308,-77.718753,0.006344,
880,1740,0.888147,-2.356151,0.999996,0.000232,-0.003813,0.009071,-0.000082,0.009072,-0.003813,-89.635392,0.009110,
1670,290,-1.151276,-17.838019,0.999997,0.000208,-0.004247,0.009533,-0.000389,0.009544,-0.004258,-88.384691,0.009562,
1110,50,0.022767,-19.974589,0.999998,0.000174,-0.000213,0.006082,0.000302,0.006096,-0.000228,87.258129,0.006912,
1400,1090,-1.926304,-8.408367,0.999974,0.000586,-0.007327,0.020316,-0.007114,0.022039,-0.009051,-76.381934,0.022156,
840,1080,3.084032,-9.530663,0.999996,0.000227,-0.004105,0.010613,-0.000847,0.010662,-0.004153,-86.716318,0.010748,
930,1170,2.265004,-8.347350,0.999995,0.000270,-0.006259,0.012719,-0.001250,0.012801,-0.006341,-86.249059,0.012801,
1440,30,-0.018244,-20.090194,0.999998,0.000000,-0.000029,0.006151,-0.000624,0.006213,-0.000091,-84.292072,0.007122,
1590,780,-2.105864,-12.934590,0.999997,0.000214,-0.006636,0.011912,-0.000554,0.011929,-0.006653,-88.292269,0.011955,
760,1400,2.342915,-6.148773,0.999995,0.000292,-0.005704,0.010728,-0.000202,0.010731,-0.005706,-89.295646,0.010738,
1250,1320,-0.036281,-4.538779,0.999998,0.000165,-0.002029,0.003544,-0.000910,0.003688,-0.002174,-80.958934,0.003708,
1220,1830,0.015223,-1.301189,0.999998,0.000179,-0.001434,0.006746,0.000026,0.006746,-0.001434,89.819042,0.007107,
1490,1940,-0.183506,-0.636790,0.999998,0.000214,-0.001096,0.007045,0.000826,0.007128,-0.001179,84.265966,0.007642,
960,1230,1.705146,-7.420497,0.999994,0.000326,-0.007559,0.013099,0.000119,0.013099,-0.007560,89.669111,0.013151,
1420,1100,-2.027573,-8.569898,0.999976,0.000567,-0.007101,0.017363,-0.004053,0.018017,-0.007755,-80.833752,0.018075,
630,970,3.977126,-10.598551,0.999997,0.000222,-0.004299,0.008925,0.000167,0.008927,-0.004301,89.278058,0.008929,
660,1560,2.391534,-4.784459,0.999995,0.000264,-0.005118,0.010184,0.000145,0.010185,-0.005119,89.456809,0.010185,
1000,90,0.118453,-19.702036,0.999998,0.000187,-0.000516,0.006673,0.000756,0.006751,-0.000595,84.061758,0.007476,
960,960,2.525320,-10.946513,0.999994,0.000273,-0.004719,0.012920,0.001094,0.012988,-0.004787,86.465072,0.013137,
1530,1110,-2.578361,-9.091565,0.999994,0.000291,-0.004828,0.012262,0.001348,0.012367,-0.004933,85.516886,0.012451,
1200,170,0.033329,-19.220957,0.999998,0.000188,-0.000981,0.006537,0.000042,0.006537,-0.000981,89.683551,0.007050,
1620,1040,-3.121234,-9.948273,0.999997,0.000233,-0.003850,0.010469,0.000266,0.010474,-0.003855,88.935769,0.010595,
950,1740,0.655233,-2.220579,0.999998,0.000185,-0.003187,0.008517,0.000017,0.008517,-0.003187,89.914573,0.008607,
1040,1890,0.199670,-0.958724,0.999998,0.000201,-0.001473,0.006969,-0.000442,0.006992,-0.001496,-87.008029,0.007364,
1530,800,-1.779357,-12.922709,0.999995,0.000269,-0.007287,0.012638,-0.000025,0.012638,-0.007287,-89.928774,0.012688,
1060,1220,0.975372,-6.658479,0.999993,0.000302,-0.007540,0.011758,0.003115,0.012248,-0.008031,81.054566,0.012445,
1840,1000,-4.032243,-10.326398,0.999998,0.000210,-0.004259,0.008914,-0.000294,0.008920,-0.004265,-88.723858,0.008923,
1500,140,-0.248942,-19.341287,0.999997,0.000189,-0.001515,0.007220,-0.000780,0.007289,-0.001584,-84.939236,0.007667,
1270,610,-0.091473,-16.202008,0.999998,0.000191,-0.002539,0.005993,0.000748,0.006058,-0.002604,85.029555,0.006078,
1750,1910,-0.806036,-1.090036,0.999996,0.000234,-0.003863,0.009474,0.001847,0.009725,-0.004114,82.260762,0.009764,
1370,330,-0.292578,-18.038737,0.999997,0.000214,-0.002217,0.007499,0.000122,0.007501,-0.002219,89.281253,0.007706,
1740,410,-1.834002,-16.447768,0.999996,0.000247,-0.004922,0.010156,0.000139,0.010157,-0.004923,89.472713,0.010158,
1000,1360,0.951866,-5.584316,0.999996,0.000282,-0.006406,0.010753,0.002179,0.011025,-0.006678,82.876209,0.011107,
820,970,3.151623,-10.674260,0.999996,0.000240,-0.004184,0.010438,0.000864,0.010489,-0.004235,86.631375,0.010554,
1590,1560,-1.304065,-4.089568,0.999996,0.000275,-0.004978,0.009931,-0.000656,0.009960,-0.005007,-87.484024,0.009960,
1680,1970,-0.318660,-0.496183,0.999996,0.000253,-0.001536,0.007850,0.002103,0.008299,-0.001985,77.931454,0.008668,
1140,1880,0.090500,-0.980500,0.999998,0.000153,-0.001154,0.006632,-0.000138,0.006634,-0.001157,-88.986618,0.007087,
850,520,1.472851,-15.742470,0.999996,0.000264,-0.005234,0.010165,-0.000577,0.010187,-0.005255,-87.857985,0.010189,
1200,670,0.068046,-15.879828,0.999998,0.000143,-0.002329,0.005069,-0.000983,0.005198,-0.002458,-82.562586,0.005200,
880,1720,0.937297,-2.547228,0.999997,0.000235,-0.003962,0.009232,0.000038,0.009232,-0.003962,89.833418,0.009263,
930,1150,2.376715,-8.596739,0.999995,0.000284,-0.005787,0.012610,-0.001415,0.012718,-0.005895,-85.626470,0.012729,
630,1480,2.781180,-5.699623,0.999996,0.000234,-0.005099,0.010227,-0.000017,0.010227,-0.005099,-89.935386,0.010227,
1670,270,-1.081651,-18.031449,0.999996,0.000201,-0.004135,0.009432,-0.000554,0.009455,-0.004158,-87.666131,0.009477,
940,1230,1.853997,-7.524718,0.999993,0.000295,-0.007276,0.012922,-0.000265,0.012925,-0.007279,-89.247624,0.012960,
1650,740,-2.330409,-13.222600,0.999995,0.000312,-0.006185,0.011310,-0.000581,0.011329,-0.006205,-88.101186,0.011346,
1610,1340,-1.984200,-6.527864,0.999996,0.000239,-0.006407,0.011512,0.000081,0.011512,-0.006407,89.741069,0.011537,
1430,2020,-0.026712,-0.097861,0.999999,0.000000,-0.000236,0.006178,0.000454,0.006210,-0.000268,85.968639,0.007021,
960,940,2.417605,-11.204900,0.999995,0.000263,-0.005275,0.013085,0.001205,0.013164,-0.005354,86.259853,0.013240,
1300,1340,-0.155515,-4.636139,0.999996,0.000242,-0.002984,0.005328,-0.002626,0.006088,-0.003744,-73.856453,0.006142,
760,1380,2.410386,-6.363206,0.999994,0.000290,-0.005723,0.010829,-0.000313,0.010834,-0.005729,-88.918030,0.010840,
1700,1140,-3.274659,-8.949255,0.999995,0.000286,-0.004751,0.010220,0.001039,0.010292,-0.004823,86.047509,0.010299,
1550,180,-0.434852,-19.000838,0.999996,0.000246,-0.001833,0.007796,-0.000968,0.007893,-0.001930,-84.318824,0.008229,
630,1010,4.007680,-10.239617,0.999997,0.000202,-0.004266,0.009040,0.000265,0.009045,-0.004271,88.860277,0.009050,
1430,1940,-0.134074,-0.617631,0.999998,0.000207,-0.000913,0.006766,0.000604,0.006813,-0.000961,85.528539,0.007375,
1060,1200,1.119133,-6.882968,0.999994,0.000292,-0.007371,0.011989,0.003074,0.012465,-0.007847,81.191785,0.012604,
1420,1090,-2.084743,-8.756058,0.999984,0.000447,-0.007502,0.018503,-0.004064,0.019123,-0.008122,-81.322452,0.019196,
700,1720,1.713737,-3.025849,0.999996,0.000223,-0.004831,0.010027,-0.000024,0.010027,-0.004831,-89.905758,0.010029,
1530,1090,-2.670061,-9.338698,0.999994,0.000283,-0.004369,0.012064,0.001105,0.012138,-0.004443,86.169400,0.012283,
850,590,1.634367,-15.012585,0.999995,0.000252,-0.005696,0.010597,-0.000544,0.010615,-0.005714,-88.091415,0.010626,
660,1540,2.449373,-4.988159,0.999995,0.000255,-0.005150,0.010194,0.000105,0.010195,-0.005151,89.607860,0.010195,
1620,1020,-3.123150,-10.159470,0.999997,0.000235,-0.003830,0.010475,-0.000185,0.010478,-0.003832,-89.260073,0.010603,
1020,1890,0.231066,-0.970435,0.999998,0.000240,-0.001319,0.007097,-0.000584,0.007137,-0.001359,-86.051059,0.007580,
1790,260,-1.566349,-17.804594,0.999996,0.000242,-0.004689,0.010093,-0.000603,0.010117,-0.004714,-87.667332,0.010125,
1750,1890,-0.920310,-1.285971,0.999997,0.000201,-0.004069,0.009703,0.001579,0.009882,-0.004248,83.542344,0.009914,
980,90,0.124569,-19.700358,0.999998,0.000208,-0.000718,0.006767,0.000837,0.006860,-0.000811,83.693610,0.007497,
1320,1550,-0.233261,-3.346977,0.999997,0.000193,-0.002892,0.007237,-0.000952,0.007326,-0.002981,-84.678833,0.007368,
1840,1020,-4.047256,-10.148052,0.999997,0.000208,-0.004253,0.008992,-0.000145,0.008994,-0.004255,-89.374254,0.008998,
1250,50,-0.004508,-19.977359,0.999998,0.000150,-0.000252,0.006003,-0.000019,0.006003,-0.000252,-89.829232,0.006790,
600,100,0.935006,-19.178763,0.999997,0.000207,-0.004644,0.010860,0.002153,0.011153,-0.004937,82.239354,0.011178,
930,1740,0.718395,-2.257769,0.999997,0.000230,-0.003130,0.008594,-0.000085,0.008595,-0.003130,-89.584177,0.008700,
1420,470,-0.539813,-16.842494,0.999997,0.000216,-0.003424,0.008213,0.000935,0.008287,-0.003499,85.434566,0.008321,
1200,120,0.022535,-19.541962,0.999998,0.000155,-0.000631,0.006361,0.000066,0.006362,-0.000632,89.456997,0.007010,
1500,160,-0.297129,-19.192576,0.999998,0.000182,-0.001714,0.007415,-0.000753,0.007476,-0.001775,-85.316250,0.007812,
1580,690,-1.707236,-14.032125,0.999996,0.000226,-0.006501,0.011390,0.000416,0.011400,-0.006510,88.669269,0.011438,
1190,660,0.095327,-15.912701,0.999997,0.000232,-0.002499,0.005409,-0.001224,0.005594,-0.002684,-81.397611,0.005595,
1680,1950,-0.409968,-0.657254,0.999993,0.000301,-0.001966,0.008312,0.002109,0.008728,-0.002382,78.845140,0.009023,
1370,290,-0.258923,-18.336823,0.999997,0.000192,-0.001956,0.007410,-0.000037,0.007410,-0.001956,-89.775980,0.007680,
1670,250,-1.011405,-18.218264,0.999997,0.000189,-0.003955,0.009387,-0.000719,0.009426,-0.003993,-86.926169,0.009462,
1140,1840,0.116268,-1.252470,0.999998,0.000183,-0.001432,0.006850,-0.000062,0.006850,-0.001432,-89.571676,0.007226,
800,1450,1.959604,-5.483704,0.999998,0.000141,-0.005685,0.010707,0.000193,0.010709,-0.005688,89.326969,0.010716,
1840,810,-3.615196,-12.076394,0.999995,0.000263,-0.004785,0.009487,-0.000582,0.009511,-0.004808,-87.667152,0.009511,
1570,1580,-1.167502,-3.823336,0.999996,0.000225,-0.004656,0.009644,-0.000657,0.009674,-0.004686,-87.376407,0.009675,
1820,370,-2.106875,-16.593247,0.999996,0.000248,-0.004960,0.010102,0.000051,0.010102,-0.004960,89.806338,0.010103,
1510,820,-1.732158,-12.764975,0.999990,0.000375,-0.007476,0.012972,0.000029,0.012972,-0.007476,89.918629,0.013022,
1240,1270,-0.022177,-4.658813,0.999998,0.000199,-0.002603,0.002292,-0.000507,0.002344,-0.002655,-84.142405,0.002902,
920,1230,1.997419,-7.615230,0.999995,0.000257,-0.007004,0.012668,-0.000565,0.012684,-0.007021,-88.357034,0.012708,
850,500,1.428321,-15.944676,0.999995,0.000251,-0.005052,0.010021,-0.000542,0.010040,-0.005072,-87.941422,0.010040,
1650,720,-2.253973,-13.447645,0.999997,0.000304,-0.006143,0.011272,-0.000430,0.011283,-0.006154,-88.585420,0.011298,
930,1130,2.493169,-8.853390,0.999994,0.000285,-0.005297,0.012383,-0.001419,0.012496,-0.005410,-85.441537,0.012534,
760,1360,2.479334,-6.582931,0.999994,0.000295,-0.005757,0.010851,-0.000452,0.010864,-0.005769,-88.443212,0.010871,
880,1700,0.983262,-2.726767,0.999996,0.000234,-0.004115,0.009150,0.000158,0.009152,-0.004117,89.316656,0.009167,
1430,30,-0.018347,-20.090857,0.999998,0.000000,-0.000124,0.006152,-0.000557,0.006201,-0.000173,-84.970803,0.007063,
960,920,2.289776,-11.473771,0.999996,0.000250,-0.005808,0.013223,0.001161,0.013293,-0.005878,86.522027,0.013323,
1140,1890,0.084921,-0.914495,0.999999,0.000135,-0.001073,0.006600,-0.000170,0.006604,-0.001077,-88.734918,0.007086,
1270,590,-0.093513,-16.323568,0.999997,0.000214,-0.002545,0.006252,0.000630,0.006297,-0.002590,85.923557,0.006330,
850,570,1.588499,-15.220005,0.999995,0.000255,-0.005545,0.010476,-0.000562,0.010496,-0.005565,-87.992569,0.010502,
1420,1150,-1.641593,-7.797775,0.999990,0.000364,-0.006730,0.013999,-0.002761,0.014360,-0.007091,-82.541337,0.014361,
1040,90,0.090678,-19.711575,0.999998,0.000165,-0.000731,0.006488,0.000505,0.006523,-0.000766,86.016944,0.007131,
1000,1340,0.988991,-5.802364,0.999995,0.000275,-0.006739,0.011069,0.002167,0.011328,-0.006998,83.161887,0.011433,
660,1520,2.507545,-5.193540,0.999995,0.000266,-0.005172,0.010229,0.000068,0.010230,-0.005172,89.747325,0.010230,
1620,1000,-3.104520,-10.366912,0.999996,0.000248,-0.003893,0.010403,-0.000411,0.010415,-0.003905,-88.354772,0.010523,
1060,1180,1.271573,-7.138046,0.999992,0.000317,-0.007021,0.012409,0.003275,0.012947,-0.007558,80.684643,0.013007,
1230,500,0.004234,-16.940804,0.999997,0.000188,-0.002539,0.006777,-0.000031,0.006777,-0.002539,-89.808314,0.006847,
1780,30,-0.097952,-20.064994,0.999998,0.000000,0.000184,0.008160,-0.003699,0.009611,-0.001267,-68.576473,0.010443,
1750,1870,-1.028207,-1.479954,0.999997,0.000199,-0.004257,0.009766,0.001295,0.009884,-0.004375,84.766335,0.009906,
1500,1620,-0.804848,-3.240404,0.999997,0.000203,-0.003826,0.008855,-0.000666,0.008889,-0.003861,-87.002308,0.008915,
1840,1040,-4.041706,-9.967032,0.999998,0.000202,-0.004227,0.008952,0.000215,0.008955,-0.004231,89.064018,0.008960,
1770,80,-0.459516,-19.627596,0.999992,0.000314,-0.002313,0.009103,-0.003153,0.009916,-0.003126,-75.544466,0.010139,
930,50,0.074146,-19.956902,0.999998,0.000163,-0.000259,0.006567,0.001052,0.006725,-0.000418,81.438092,0.007536,
1820,1070,-3.932613,-9.689617,0.999996,0.000237,-0.004283,0.009056,0.000203,0.009059,-0.004286,89.129514,0.009063,
600,80,0.745793,-19.397557,0.999997,0.000204,-0.004523,0.011656,0.002757,0.012112,-0.004979,80.590088,0.012176,
1530,1070,-2.736322,-9.578247,0.999995,0.000255,-0.003939,0.012043,0.000862,0.012089,-0.003986,86.920158,0.012321,
940,1950,0.196761,-0.577271,0.999997,0.000197,-0.001000,0.007110,-0.001048,0.007243,-0.001133,-82.756577,0.007792,
640,500,2.509835,-15.261031,0.999996,0.000249,-0.005096,0.010180,-0.000110,0.010180,-0.005096,-89.588859,0.010180,
710,1880,0.986240,-1.390781,0.999997,0.000212,-0.004228,0.009758,-0.001392,0.009895,-0.004365,-84.370155,0.009918,
1610,420,-1.240357,-16.748098,0.999996,0.000232,-0.004498,0.009644,0.000351,0.009653,-0.004507,88.580752,0.009660,
1360,1680,-0.297228,-2.448660,0.999997,0.000225,-0.002467,0.007597,-0.000319,0.007607,-0.002477,-88.185004,0.007759,
1300,1320,-0.154909,-4.738593,0.999996,0.000244,-0.003095,0.005003,-0.002953,0.005966,-0.004058,-71.946846,0.006093,
1200,100,0.014902,-19.670450,0.999999,0.000161,-0.000499,0.006235,0.000061,0.006235,-0.000499,89.484071,0.006930,
910,1740,0.782772,-2.295276,0.999997,0.000203,-0.003227,0.008749,-0.000161,0.008751,-0.003229,-89.229372,0.008850,
1670,230,-0.935987,-18.409034,0.999997,0.000202,-0.003805,0.009322,-0.000868,0.009379,-0.003863,-86.231401,0.009428,
1700,900,-3.223999,-11.369910,0.999997,0.000233,-0.004847,0.010444,-0.001190,0.010536,-0.004939,-85.577077,0.010543,
1350,1280,-0.393841,-5.415556,0.999992,0.000353,-0.005332,0.007727,-0.004368,0.009053,-0.006658,-73.109360,0.009381,
760,1370,2.444268,-6.473423,0.999993,0.000315,-0.005741,0.010849,-0.000389,0.010858,-0.005750,-88.657676,0.010864,
1420,2020,-0.024775,-0.097588,0.999998,0.000000,-0.000337,0.006172,0.000431,0.006200,-0.000365,86.228889,0.006958,
1550,1580,-1.078376,-3.762361,0.999997,0.000222,-0.004520,0.009510,-0.000723,0.009548,-0.004558,-87.056053,0.009551,
1140,1820,0.129592,-1.390720,0.999998,0.000191,-0.001579,0.006951,-0.000041,0.006951,-0.001579,-89.726874,0.007288,
1590,940,-2.837690,-11.034570,0.999996,0.000283,-0.004616,0.011201,-0.001292,0.011306,-0.004721,-85.360697,0.011357,
850,400,1.208628,-16.932199,0.999995,0.000296,-0.004323,0.009504,-0.000210,0.009507,-0.004327,-89.130532,0.009520,
960,900,2.166928,-11.738003,0.999995,0.000278,-0.006327,0.013315,0.000987,0.013364,-0.006376,87.129686,0.013369,
710,210,1.167243,-18.421426,0.999997,0.000214,-0.004447,0.009920,0.000988,0.009988,-0.004515,86.083355,0.010003,
760,1340,2.552177,-6.800423,0.999996,0.000262,-0.005747,0.010865,-0.000559,0.010884,-0.005765,-88.076403,0.010890,
1300,1550,-0.175316,-3.305240,0.999997,0.000186,-0.002766,0.007059,-0.000746,0.007115,-0.002822,-85.683182,0.007165,
1820,350,-2.041551,-16.796662,0.999996,0.000244,-0.004947,0.010077,0.000003,0.010077,-0.004947,89.988460,0.010078,
720,1230,3.184112,-8.059444,0.999995,0.000265,-0.005182,0.010398,-0.001065,0.010471,-0.005255,-86.108314,0.010471,
730,800,3.040122,-12.379441,0.999997,0.000225,-0.005286,0.010485,0.001015,0.010550,-0.005351,86.332147,0.010550,
1510,800,-1.630342,-13.026991,0.999992,0.000338,-0.007516,0.012773,0.000339,0.012778,-0.007521,89.043669,0.012845,
1270,570,-0.095706,-16.451023,0.999998,0.000198,-0.002545,0.006449,0.000550,0.006483,-0.002579,86.511615,0.006528,
880,1680,1.027299,-2.913293,0.999996,0.000247,-0.004177,0.009255,0.000226,0.009259,-0.004181,89.035518,0.009273,
930,1110,2.592050,-9.098125,0.999993,0.000302,-0.004771,0.012189,-0.001367,0.012298,-0.004880,-85.419801,0.012385,
1620,980,-3.081030,-10.577249,0.999996,0.000252,-0.004079,0.010575,-0.000754,0.010614,-0.004117,-87.063512,0.010702,
850,550,1.541799,-15.429744,0.999994,0.000272,-0.005437,0.010382,-0.000575,0.010403,-0.005458,-87.921095,0.010408,
1120,1890,0.108830,-0.924721,0.999998,0.000166,-0.001085,0.006695,-0.000197,0.006700,-0.001090,-88.547366,0.007191,
1790,1410,-2.785887,-6.289190,0.999996,0.000262,-0.005260,0.010339,0.000266,0.010343,-0.005265,89.024363,0.010344,
1020,90,0.105672,-19.707017,0.999998,0.000170,-0.000630,0.006565,0.000617,0.006617,-0.000683,85.134412,0.007279,
1450,230,-0.342130,-18.709748,0.999997,0.000218,-0.001892,0.007561,-0.000352,0.007574,-0.001905,-87.868007,0.007880,
1750,1850,-1.127756,-1.679459,0.999996,0.000227,-0.004353,0.009907,0.001064,0.009986,-0.004432,85.755720,0.010007,
1010,1180,1.636850,-7.738027,0.999992,0.000315,-0.007626,0.013983,0.000726,0.014008,-0.007650,88.079037,0.014028,
1530,1050,-2.780841,-9.818903,0.999996,0.000238,-0.003732,0.011872,0.000478,0.011886,-0.003746,88.247201,0.012154,
1360,1660,-0.310743,-2.600136,0.999997,0.000222,-0.002571,0.007486,-0.000424,0.007503,-0.002589,-87.588654,0.007622,
1260,1990,-0.008059,-0.273634,0.999998,0.000166,-0.000263,0.006080,0.000093,0.006082,-0.000264,89.159399,0.006875,
1880,920,-4.094193,-10.994220,0.999998,0.000187,-0.004267,0.008711,-0.000339,0.008720,-0.004276,-88.504572,0.008720,
660,1500,2.569832,-5.398705,0.999995,0.000265,-0.005168,0.010235,0.000036,0.010235,-0.005168,89.865377,0.010235,
1060,1160,1.434423,-7.417912,0.999987,0.000389,-0.006381,0.012549,0.003855,0.013304,-0.007136,78.920154,0.013315,
640,480,2.447962,-15.466642,0.999996,0.000255,-0.005066,0.010183,-0.000127,0.010184,-0.005067,-89.523387,0.010184,
1550,1920,-0.310641,-0.812844,0.999998,0.000185,-0.001287,0.007516,0.001147,0.007663,-0.001434,82.697706,0.008148,
1600,230,-0.709098,-18.525450,0.999997,0.000231,-0.003070,0.008733,-0.000779,0.008784,-0.003121,-86.240064,0.008906,
1210,500,0.054389,-16.929341,0.999998,0.000162,-0.002530,0.006806,-0.000334,0.006818,-0.002542,-87.952460,0.006891,
610,480,2.599912,-15.368631,0.999994,0.000298,-0.005033,0.010142,-0.000078,0.010142,-0.005034,-89.706598,0.010142,
770,2010,0.141683,-0.196900,0.999996,0.000214,-0.000665,0.007359,-0.002154,0.007901,-0.001207,-75.887237,0.008512,
1840,1060,-4.024989,-9.789693,0.999997,0.000220,-0.004213,0.008877,0.000238,0.008881,-0.004217,88.958117,0.008885,
1230,300,0.003112,-18.341930,0.999998,0.000166,-0.001891,0.006954,-0.000017,0.006954,-0.001891,-89.890292,0.007191,
1370,720,-0.437580,-15.003914,0.999996,0.000239,-0.005089,0.008321,0.003566,0.009211,-0.005979,75.995925,0.009346,
1420,30,-0.017228,-20.091832,0.999999,0.000000,-0.000201,0.006152,-0.000507,0.006192,-0.000241,-85.461474,0.007015,
1500,1600,-0.830208,-3.417438,0.999997,0.000203,-0.003965,0.009001,-0.000758,0.009045,-0.004009,-86.666712,0.009064,
1670,210,-0.858898,-18.592865,0.999996,0.000233,-0.003578,0.009148,-0.001068,0.009237,-0.003667,-85.236784,0.009302,
1570,940,-2.745177,-11.060757,0.999997,0.000218,-0.004617,0.011523,-0.001384,0.011640,-0.004735,-85.133761,0.011708,
1680,1410,-2.176686,-5.970741,0.999994,0.000277,-0.005814,0.010774,0.000071,0.010774,-0.005814,89.756373,0.010786,
930,1360,1.412495,-5.975878,0.999995,0.000299,-0.006682,0.011392,0.000991,0.011446,-0.006736,86.871405,0.011506,
850,380,1.164837,-17.120732,0.999998,0.000197,-0.004148,0.009399,-0.000094,0.009400,-0.004148,-89.603260,0.009421,
1530,1580,-0.987486,-3.697688,0.999997,0.000222,-0.004545,0.009439,-0.000854,0.009491,-0.004597,-86.517926,0.009492,
960,880,2.035000,-12.005717,0.999995,0.000279,-0.006824,0.013319,0.000765,0.013348,-0.006853,87.827625,0.013350,
930,1090,2.682550,-9.342217,0.999994,0.000291,-0.004352,0.011958,-0.001125,0.012036,-0.004429,-86.072496,0.012175,
810,230,0.871425,-18.444972,0.999997,0.000220,-0.003435,0.009163,0.000946,0.009234,-0.003506,85.727932,0.009323,
1070,1420,0.510459,-4.593475,0.999997,0.000193,-0.004547,0.008384,0.002471,0.008840,-0.005003,79.543660,0.008865,
760,1320,2.625098,-7.021018,0.999996,0.000254,-0.005736,0.010830,-0.000703,0.010860,-0.005766,-87.573335,0.010867,
1140,1800,0.140275,-1.530036,0.999998,0.000183,-0.001726,0.007011,0.000017,0.007011,-0.001726,89.890726,0.007306,
1440,1150,-1.774066,-8.048351,0.999993,0.000325,-0.006799,0.014470,-0.001193,0.014536,-0.006865,-86.798377,0.014544,
1750,1830,-1.226207,-1.878092,0.999997,0.000223,-0.004461,0.009911,0.000862,0.009962,-0.004513,86.580747,0.009977,
1620,960,-3.030543,-10.792832,0.999997,0.000213,-0.004261,0.010674,-0.001038,0.010745,-0.004333,-86.044892,0.010812,
770,1860,0.874549,-1.469975,0.999996,0.000204,-0.003400,0.009351,-0.001409,0.009505,-0.003554,-83.768779,0.009605,
1450,210,-0.312840,-18.855884,0.999998,0.000215,-0.001716,0.007413,-0.000449,0.007435,-0.001738,-87.189739,0.007779,
1420,450,-0.525928,-17.006333,0.999996,0.000247,-0.003338,0.008132,0.000826,0.008191,-0.003397,85.904160,0.008231,
880,1950,0.263589,-0.602919,0.999998,0.000173,-0.001500,0.007460,-0.001340,0.007656,-0.001696,-81.675332,0.008042,
1570,600,-1.413848,-15.065460,0.999994,0.000296,-0.005786,0.010490,0.000909,0.010541,-0.005837,86.814600,0.010561,
880,1660,1.071370,-3.100502,0.999996,0.000249,-0.004222,0.009365,0.000274,0.009371,-0.004227,88.846810,0.009386,
710,800,3.142737,-12.344401,0.999996,0.000261,-0.005246,0.010323,0.000978,0.010384,-0.005307,86.419458,0.010385,
1270,1740,-0.072824,-1.934985,0.999998,0.000164,-0.001877,0.007071,-0.000081,0.007072,-0.001877,-89.480985,0.007326,
1140,1990,0.023474,-0.273833,0.999999,0.000113,-0.000349,0.006134,-0.000247,0.006144,-0.000358,-87.822982,0.006897,
1360,1640,-0.317800,-2.747082,0.999997,0.000213,-0.002670,0.007487,-0.000531,0.007515,-0.002698,-87.013703,0.007614,
1840,1500,-2.756930,-5.514331,0.999995,0.000262,-0.005084,0.010204,-0.000042,0.010205,-0.005084,-89.842108,0.010205,
1250,300,-0.034122,-18.337850,0.999998,0.000213,-0.001862,0.006985,0.000110,0.006986,-0.001864,89.288265,0.007235,
600,60,0.554476,-19.648273,0.999994,0.000274,-0.003786,0.011165,0.003502,0.011945,-0.004566,77.450204,0.012055,
1670,190,-0.774531,-18.776808,0.999996,0.000249,-0.003383,0.009044,-0.001281,0.009175,-0.003514,-84.174181,0.009258,
1370,700,-0.427301,-15.164946,0.999995,0.000256,-0.004795,0.008150,0.003278,0.008932,-0.005578,76.571710,0.009024,
600,570,2.920090,-14.419116,0.999996,0.000220,-0.005068,0.010201,0.000010,0.010201,-0.005068,89.961076,0.010201,
1790,1390,-2.851143,-6.498529,0.999997,0.000223,-0.005252,0.010364,0.000341,0.010372,-0.005260,88.751401,0.010372,
810,260,0.976909,-18.163625,0.999996,0.000236,-0.003708,0.009248,0.000697,0.009286,-0.003746,86.928630,0.009343,
1000,1320,1.042322,-6.035398,0.999995,0.000291,-0.007049,0.011406,0.002142,0.011651,-0.007294,83.466088,0.011774,
1200,80,0.017431,-19.794837,0.999998,0.000182,-0.000377,0.006127,0.000094,0.006128,-0.000378,89.175475,0.006868,
1230,1680,0.004293,-2.344404,0.999998,0.000161,-0.002238,0.007072,0.000023,0.007072,-0.002238,89.858544,0.007229,
1810,1260,-3.417754,-7.871946,0.999997,0.000222,-0.004997,0.009983,0.000768,0.010022,-0.005036,87.070704,0.010022,
1100,1580,0.350629,-3.205791,0.999997,0.000198,-0.003039,0.007642,0.000910,0.007719,-0.003116,85.166275,0.007767,
590,1420,3.175551,-6.434272,0.999996,0.000234,-0.004944,0.010159,-0.000103,0.010159,-0.004945,-89.607894,0.010160,
690,1100,3.697676,-9.390664,0.999997,0.000226,-0.004460,0.009622,-0.000630,0.009650,-0.004488,-87.443556,0.009658,
1500,1580,-0.853366,-3.597014,0.999996,0.000236,-0.004177,0.009118,-0.000903,0.009179,-0.004238,-86.129938,0.009188,
1060,900,1.473722,-12.674115,0.999987,0.000445,-0.006195,0.012715,-0.004171,0.013594,-0.007074,-78.097221,0.013598,
1700,860,-3.087811,-11.792114,0.999995,0.000254,-0.005136,0.010550,-0.001181,0.010639,-0.005225,-85.718417,0.010639,
730,420,1.828132,-16.368548,0.999997,0.000241,-0.004892,0.010124,-0.000156,0.010125,-0.004894,-89.405358,0.010127,
1880,910,-4.072124,-11.081791,0.999997,0.000189,-0.004270,0.008672,-0.000288,0.008678,-0.004276,-88.725525,0.008678,
1510,860,-1.960213,-12.235070,0.999993,0.000346,-0.007041,0.013199,-0.000586,0.013216,-0.007058,-88.341743,0.013226,
760,1740,1.372055,-2.649813,0.999996,0.000245,-0.004347,0.009781,-0.000275,0.009787,-0.004352,-88.885891,0.009806,
590,480,2.701254,-15.306656,0.999994,0.000300,-0.005102,0.010106,-0.000070,0.010107,-0.005103,-89.735014,0.010107,
930,1070,2.747296,-9.581544,0.999997,0.000227,-0.003924,0.011971,-0.000850,0.012016,-0.003969,-86.948402,0.012245,
1270,500,-0.096972,-16.915893,0.999998,0.000163,-0.002503,0.006832,0.000352,0.006846,-0.002516,87.844419,0.006925,
1050,1120,1.840344,-8.140418,0.999985,0.000429,-0.006519,0.015317,0.004585,0.016240,-0.007443,78.609830,0.016259,
1530,1030,-2.801758,-10.052124,0.999996,0.000237,-0.003589,0.011497,0.000067,0.011497,-0.003589,89.743789,0.011764,
850,530,1.494283,-15.639969,0.999995,0.000275,-0.005322,0.010242,-0.000586,0.010264,-0.005344,-87.845019,0.010267,
1240,90,-0.004625,-19.734326,0.999998,0.000169,-0.000489,0.006115,-0.000001,0.006115,-0.000489,-89.988076,0.006796,
640,460,2.391135,-15.670662,0.999996,0.000249,-0.005044,0.010136,-0.000138,0.010137,-0.005045,-89.477801,0.010137,
1770,2020,-0.138559,-0.137397,0.999996,0.000000,-0.000697,0.008134,0.003237,0.009194,-0.001757,71.877451,0.009761,
1410,2020,-0.018923,-0.095966,0.999998,0.000000,-0.000297,0.006170,0.000444,0.006201,-0.000327,86.092776,0.006979,
920,50,0.077197,-19.955393,0.999998,0.000165,-0.000254,0.006614,0.001140,0.006798,-0.000438,80.817715,0.007610,
1850,1200,-3.802956,-8.530535,0.999998,0.000162,-0.004586,0.009429,0.000588,0.009454,-0.004611,87.601882,0.009455,
1270,550,-0.096456,-16.579814,0.999998,0.000191,-0.002543,0.006576,0.000489,0.006602,-0.002569,86.940107,0.006656,
630,960,3.968422,-10.687962,0.999996,0.000229,-0.004337,0.008982,0.000266,0.008987,-0.004343,88.856893,0.008989,
960,750,1.374178,-13.694011,0.999991,0.000333,-0.007251,0.012045,-0.001138,0.012112,-0.007318,-86.636326,0.012199,
1280,1830,-0.064810,-1.309108,0.999998,0.000191,-0.001304,0.006810,0.000034,0.006810,-0.001304,89.759622,0.007229,
1080,1610,0.398752,-3.019410,0.999997,0.000213,-0.003204,0.007808,0.000873,0.007876,-0.003273,85.495208,0.007914,
1330,220,-0.130955,-18.869105,0.999997,0.000229,-0.001522,0.006854,-0.000034,0.006854,-0.001523,-89.766629,0.007198,
810,250,0.941176,-18.255988,0.999996,0.000237,-0.003624,0.009263,0.000777,0.009309,-0.003671,86.562268,0.009378,
1450,190,-0.276399,-19.007151,0.999998,0.000229,-0.001514,0.007291,-0.000520,0.007321,-0.001545,-86.632305,0.007718,
660,1480,2.629771,-5.605761,0.999995,0.000252,-0.005165,0.010298,0.000009,0.010298,-0.005165,89.966961,0.010298,
590,1550,2.775949,-5.108307,0.999996,0.000223,-0.005064,0.010084,0.000050,0.010084,-0.005064,89.809736,0.010084,
740,1930,0.604699,-0.864573,0.999997,0.000224,-0.002234,0.008970,-0.002423,0.009472,-0.002735,-78.304278,0.009750,
1840,1480,-2.816936,-5.720009,0.999996,0.000232,-0.005118,0.010209,0.000027,0.010209,-0.005118,89.899039,0.010209,
880,1930,0.328770,-0.756630,0.999997,0.000204,-0.001751,0.007647,-0.001291,0.007821,-0.001926,-82.317630,0.008150,
730,1420,2.445018,-6.022668,0.999995,0.000249,-0.005503,0.010563,-0.000158,0.010565,-0.005505,-89.435334,0.010568,
1870,400,-2.447911,-16.120983,0.999994,0.000268,-0.004963,0.009923,0.000108,0.009923,-0.004964,89.582415,0.009923,
880,1640,1.112980,-3.288023,0.999996,0.000243,-0.004256,0.009427,0.000382,0.009438,-0.004267,88.403094,0.009452,
840,1870,0.621846,-1.276747,0.999996,0.000246,-0.002399,0.008484,-0.001264,0.008629,-0.002544,-83.461668,0.008868,
1160,790,0.208349,-15.131456,0.999995,0.000286,-0.003803,0.004602,-0.003678,0.005984,-0.005185,-69.401435,0.006498,
1590,350,-1.001774,-17.458489,0.999997,0.000222,-0.004036,0.009238,0.000090,0.009239,-0.004037,89.611187,0.009264,
1300,1300,-0.163231,-4.836886,0.999996,0.000233,-0.003200,0.004776,-0.003263,0.005941,-0.004364,-70.356962,0.006155,
1840,650,-3.059093,-13.672973,0.999996,0.000228,-0.005066,0.010163,-0.000237,0.010167,-0.005070,-89.109855,0.010167,
1750,1810,-1.313576,-2.078534,0.999996,0.000251,-0.004548,0.009963,0.000683,0.009995,-0.004580,87.311625,0.010006,
1890,1340,-3.530838,-7.292758,0.999995,0.000259,-0.004938,0.009794,0.000182,0.009796,-0.004940,89.291596,0.009796,
820,1950,0.345248,-0.630352,0.999997,0.000207,-0.001397,0.007914,-0.001792,0.008247,-0.001730,-79.473547,0.008698,
1670,170,-0.690192,-18.953147,0.999997,0.000211,-0.003118,0.008804,-0.001466,0.008981,-0.003296,-83.091679,0.009086,
1050,480,0.522010,-16.779658,0.999995,0.000271,-0.003453,0.008181,-0.001019,0.008270,-0.003542,-85.029948,0.008298,
710,230,1.261775,-18.223847,0.999996,0.000226,-0.004560,0.009942,0.000782,0.009984,-0.004602,86.920448,0.009994,
1360,1620,-0.325979,-2.898299,0.999997,0.000229,-0.002757,0.007568,-0.000585,0.007601,-0.002790,-86.768750,0.007690,
1870,310,-2.147256,-17.015366,0.999997,0.000211,-0.004840,0.009920,0.000038,0.009920,-0.004840,89.853915,0.009921,
1610,400,-1.195979,-16.939454,0.999998,0.000158,-0.004304,0.009495,0.000226,0.009499,-0.004307,89.062816,0.009512,
1200,60,0.006477,-19.916327,0.999998,0.000162,-0.000263,0.006058,0.000097,0.006060,-0.000265,89.116813,0.006849,
1000,1300,1.096126,-6.265351,0.999994,0.000313,-0.007332,0.011788,0.002035,0.012002,-0.007546,83.991187,0.012134,
1620,940,-2.978047,-11.005833,0.999996,0.000248,-0.004526,0.010780,-0.001163,0.010868,-0.004614,-85.679893,0.010909,
1790,1370,-2.921159,-6.707187,0.999997,0.000214,-0.005255,0.010295,0.000456,0.010308,-0.005268,88.321136,0.010309,
1140,1780,0.152835,-1.672563,0.999997,0.000187,-0.001863,0.007113,0.000047,0.007113,-0.001863,89.698076,0.007377,
840,430,1.323774,-16.610195,0.999993,0.000327,-0.004685,0.009836,-0.000351,0.009845,-0.004694,-88.614953,0.009848,
1410,1310,-0.702769,-5.726201,0.999994,0.000280,-0.006528,0.010263,-0.003312,0.010892,-0.007158,-79.234450,0.011070,
1210,1680,0.047810,-2.352494,0.999998,0.000180,-0.002199,0.007071,0.000194,0.007076,-0.002203,88.803657,0.007241,
1070,1320,0.579008,-5.481516,0.999996,0.000245,-0.006002,0.009492,0.003541,0.010263,-0.006773,77.716750,0.010437,
960,860,1.909286,-12.272415,0.999994,0.000323,-0.007191,0.013328,0.000443,0.013338,-0.007201,88.765027,0.013352,
1250,500,-0.046712,-16.931267,0.999998,0.000175,-0.002531,0.006790,0.000322,0.006801,-0.002542,88.023359,0.006873,
1310,1740,-0.149963,-1.949722,0.999998,0.000174,-0.001982,0.007155,-0.000089,0.007156,-0.001982,-89.444529,0.007389,
1500,1560,-0.876782,-3.781320,0.999996,0.000245,-0.004425,0.009263,-0.001043,0.009342,-0.004504,-85.666218,0.009344,
760,1760,1.308808,-2.455353,0.999996,0.000232,-0.004239,0.009763,-0.000465,0.009778,-0.004255,-88.101768,0.009806,
1700,840,-3.013906,-12.004938,0.999996,0.000244,-0.005301,0.010699,-0.001196,0.010788,-0.005390,-85.749995,0.010788,
1410,30,-0.013366,-20.094066,0.999998,0.000000,-0.000235,0.006130,-0.000494,0.006168,-0.000273,-85.588908,0.006970,
1430,980,-2.230846,-11.013945,0.999979,0.000596,-0.007399,0.018429,0.002322,0.018636,-0.007606,84.903101,0.018741,
580,1420,3.224988,-6.464205,0.999996,0.000230,-0.004707,0.010119,-0.000037,0.010119,-0.004707,-89.855711,0.010128,
1030,880,1.521784,-12.544263,0.999991,0.000416,-0.007185,0.013943,-0.001728,0.014083,-0.007325,-85.355302,0.014087,
790,1100,3.246727,-9.341509,0.999995,0.000242,-0.004393,0.010306,-0.000953,0.010368,-0.004454,-86.305398,0.010402,
660,110,0.758969,-19.308155,0.999997,0.000201,-0.003011,0.010123,0.002909,0.010739,-0.003627,78.055095,0.010926,
660,1460,2.690082,-5.812430,0.999996,0.000237,-0.005200,0.010274,-0.000070,0.010274,-0.005200,-89.741500,0.010274,
1770,900,-3.560156,-11.306541,0.999997,0.000222,-0.004700,0.009766,-0.000833,0.009814,-0.004748,-86.714970,0.009816,
1450,390,-0.568835,-17.433110,0.999996,0.000229,-0.003090,0.008279,0.000416,0.008294,-0.003105,87.905463,0.008381,
1520,1950,-0.194275,-0.578000,0.999998,0.000179,-0.001030,0.007131,0.001029,0.007259,-0.001158,82.923824,0.007800,
640,440,2.332941,-15.872733,0.999996,0.000228,-0.005024,0.010118,-0.000143,0.010119,-0.005026,-89.458491,0.010119,
930,1050,2.791105,-9.819452,0.999997,0.000221,-0.003674,0.011761,-0.000491,0.011776,-0.003690,-88.179691,0.012047,
840,1850,0.695987,-1.452501,0.999996,0.000218,-0.002680,0.008729,-0.001160,0.008846,-0.002797,-84.253147,0.009043,
1750,1790,-1.399114,-2.277171,0.999996,0.000257,-0.004646,0.010006,0.000519,0.010025,-0.004664,87.972343,0.010033,
1820,650,-2.958462,-13.731948,0.999998,0.000180,-0.005108,0.010243,-0.000245,0.010247,-0.005112,-89.086006,0.010247,
1880,1340,-3.481755,-7.261792,0.999995,0.000265,-0.004941,0.009825,0.000206,0.009828,-0.004943,89.199864,0.009828,
880,1990,0.138424,-0.314371,0.999997,0.000199,-0.000887,0.007076,-0.001394,0.007313,-0.001124,-80.351152,0.007875,
850,510,1.450247,-15.844113,0.999996,0.000260,-0.005141,0.010098,-0.000558,0.010118,-0.005162,-87.905579,0.010119,
1360,1600,-0.333554,-3.048591,0.999997,0.000221,-0.002845,0.007572,-0.000698,0.007618,-0.002891,-86.183011,0.007692,
830,820,2.554650,-12.344939,0.999992,0.000322,-0.006019,0.011525,0.001144,0.011599,-0.006093,86.285925,0.011604,
1670,150,-0.599457,-19.131200,0.999997,0.000231,-0.002869,0.008672,-0.001627,0.008897,-0.003094,-82.127648,0.009034,
1100,1560,0.356348,-3.358453,0.999997,0.000189,-0.003181,0.007667,0.001092,0.007776,-0.003290,84.306252,0.007807,
1270,530,-0.097303,-16.712875,0.999998,0.000181,-0.002539,0.006702,0.000414,0.006721,-0.002558,87.442808,0.006784,
710,250,1.349443,-18.021966,0.999995,0.000265,-0.004646,0.009984,0.000610,0.010009,-0.004671,87.615657,0.010017,
1130,1300,0.289793,-5.108208,0.999995,0.000270,-0.004400,0.006574,0.003953,0.007850,-0.005676,72.112862,0.008106,
1870,300,-2.108988,-17.115858,0.999997,0.000226,-0.004834,0.009854,0.000021,0.009854,-0.004834,89.917910,0.009854,
1050,460,0.509557,-16.942417,0.999996,0.000240,-0.003359,0.008083,-0.000907,0.008155,-0.003431,-85.494693,0.008189,
850,320,1.014347,-17.687912,0.999997,0.000239,-0.003789,0.009271,0.000166,0.009273,-0.003792,89.273019,0.009325,
880,1620,1.151466,-3.479121,0.999996,0.000273,-0.004397,0.009549,0.000458,0.009564,-0.004412,88.119589,0.009573,
1200,1830,0.043502,-1.305561,0.999998,0.000164,-0.001341,0.006773,0.000015,0.006773,-0.001341,89.890649,0.007173,
1560,210,-0.537641,-18.749860,0.999997,0.000229,-0.002362,0.008189,-0.000845,0.008256,-0.002429,-85.451273,0.008486,
1770,1620,-2.052843,-4.062096,0.999997,0.000210,-0.004994,0.010136,-0.000145,0.010138,-0.004995,-89.450046,0.010138,
1000,490,0.721327,-16.540115,0.999995,0.000255,-0.004075,0.008845,-0.001109,0.008939,-0.004170,-85.128960,0.008946,
870,740,1.966995,-13.399741,0.999996,0.000231,-0.006614,0.011758,0.000116,0.011758,-0.006615,89.637823,0.011789,
570,2010,0.447934,-0.402609,0.999748,0.001945,-0.000887,0.013923,-0.007783,0.017260,-0.004225,-66.787138,0.017994,
940,610,1.164575,-15.156387,0.999997,0.000230,-0.005670,0.010345,-0.001276,0.010446,-0.005771,-85.472239,0.010466,
1500,1540,-0.907839,-3.971528,0.999997,0.000224,-0.004642,0.009377,-0.001157,0.009472,-0.004737,-85.314078,0.009472,
990,300,0.510409,-18.131998,0.999997,0.000193,-0.002571,0.007997,0.000090,0.007998,-0.002572,89.511903,0.008166,
1270,660,-0.085511,-15.920527,0.999997,0.000202,-0.002451,0.005352,0.001123,0.005510,-0.002609,81.971787,0.005513,
1510,840,-1.841847,-12.502266,0.999995,0.000299,-0.007312,0.013112,-0.000261,0.013115,-0.007315,-89.268656,0.013144,
1140,1760,0.165142,-1.814830,0.999998,0.000173,-0.001989,0.007132,0.000106,0.007134,-0.001990,89.334067,0.007362,
1790,1350,-2.992906,-6.910535,0.999996,0.000226,-0.005250,0.010215,0.000531,0.010233,-0.005268,88.034659,0.010235,
1380,90,-0.066924,-19.719257,0.999998,0.000161,-0.000428,0.006385,-0.000422,0.006411,-0.000454,-86.465867,0.007155,
1190,1990,0.011174,-0.274850,0.999998,0.000150,-0.000274,0.006095,-0.000119,0.006097,-0.000276,-88.932749,0.006886,
1000,1280,1.165633,-6.510141,0.999995,0.000285,-0.007594,0.012219,0.001848,0.012390,-0.007765,84.717343,0.012522,
1410,1290,-0.745491,-5.937677,0.999994,0.000282,-0.006905,0.010682,-0.003369,0.011305,-0.007528,-79.517152,0.011511,
1090,890,1.236650,-13.407884,0.999993,0.000307,-0.004006,0.008869,-0.005230,0.010725,-0.005862,-70.454695,0.010741,
1290,1740,-0.109695,-1.942044,0.999997,0.000181,-0.001836,0.007098,-0.000018,0.007098,-0.001836,-89.887406,0.007368,
1700,1070,-3.415420,-9.656463,0.999994,0.000279,-0.004272,0.009920,0.000378,0.009930,-0.004282,88.476862,0.009962,
640,420,2.274531,-16.077065,0.999996,0.000217,-0.004996,0.010084,-0.000147,0.010086,-0.004998,-89.440644,0.010086,
1640,1390,-2.004158,-6.063155,0.999996,0.000235,-0.006030,0.011017,-0.000043,0.011017,-0.006030,-89.855645,0.011033,
660,1440,2.754902,-6.018611,0.999996,0.000237,-0.005229,0.010244,-0.000165,0.010245,-0.005230,-89.389996,0.010246,
960,840,1.788894,-12.537212,0.999994,0.000300,-0.007478,0.013231,0.000085,0.013231,-0.007478,89.764644,0.013269,
930,1030,2.811605,-10.051267,0.999996,0.000242,-0.003539,0.011455,-0.000021,0.011455,-0.003539,-89.919845,0.011731,
1460,1760,-0.472576,-1.971841,0.999997,0.000208,-0.002437,0.007927,0.000119,0.007929,-0.002438,89.340660,0.008122,
1620,920,-2.905635,-11.227340,0.999996,0.000246,-0.004816,0.011078,-0.001386,0.011198,-0.004936,-85.051589,0.011224,
1420,980,-2.144463,-11.119692,0.999978,0.000590,-0.008301,0.020097,0.003658,0.020561,-0.008765,82.777222,0.020635,
920,1950,0.215724,-0.585590,0.999998,0.000204,-0.000886,0.007195,-0.001178,0.007363,-0.001054,-81.874159,0.007964,
1680,650,-2.193006,-14.135332,0.999995,0.000254,-0.005820,0.010780,-0.000112,0.010781,-0.005821,-89.611853,0.010792,
810,270,1.010496,-18.071482,0.999996,0.000247,-0.003770,0.009292,0.000631,0.009322,-0.003800,87.242886,0.009375,
1470,940,-2.233295,-11.361043,0.999992,0.000331,-0.005809,0.014402,-0.000405,0.014410,-0.005817,-88.851622,0.014499,
1360,1580,-0.342737,-3.200360,0.999997,0.000206,-0.002984,0.007626,-0.000885,0.007700,-0.003057,-85.264134,0.007754,
840,1970,0.247943,-0.472989,0.999996,0.000235,-0.000967,0.007491,-0.001779,0.007850,-0.001326,-78.591450,0.008404,
1050,680,0.635823,-15.049819,0.999994,0.000266,-0.005515,0.009328,-0.002799,0.009838,-0.006025,-79.667167,0.009921,
1220,1550,0.029176,-3.257054,0.999998,0.000189,-0.002550,0.006782,0.000249,0.006789,-0.002556,88.472028,0.006857,
830,800,2.468636,-12.575150,0.999992,0.000329,-0.006174,0.011527,0.000974,0.011581,-0.006228,86.860713,0.011592,
1750,1770,-1.475729,-2.480907,0.999997,0.000245,-0.004727,0.010046,0.000357,0.010055,-0.004736,88.616571,0.010061,
1270,510,-0.097861,-16.847326,0.999998,0.000172,-0.002516,0.006786,0.000365,0.006800,-0.002530,87.758895,0.006874,
640,130,0.980477,-19.049389,0.999994,0.000282,-0.004247,0.010476,0.001880,0.010712,-0.004484,82.835934,0.010760,
710,1440,2.489437,-5.869791,0.999994,0.000264,-0.005400,0.010437,-0.000117,0.010438,-0.005401,-89.577845,0.010440,
850,490,1.406930,-16.045104,0.999995,0.000247,-0.004973,0.009967,-0.000531,0.009986,-0.004992,-87.966618,0.009986,
960,1610,0.829559,-3.336721,0.999996,0.000231,-0.003933,0.008944,0.000694,0.008981,-0.003970,86.924616,0.009001,
880,1600,1.187800,-3.669798,0.999996,0.000262,-0.004601,0.009671,0.000526,0.009691,-0.004620,87.893123,0.009694,
1000,610,0.838045,-15.435588,0.999996,0.000266,-0.005220,0.009661,-0.001841,0.009885,-0.005444,-83.052281,0.009902,
810,240,0.908113,-18.349576,0.999996,0.000249,-0.003522,0.009245,0.000855,0.009302,-0.003579,86.187420,0.009384,
1870,1340,-3.431924,-7.231415,0.999996,0.000249,-0.004935,0.009870,0.000243,0.009874,-0.004939,89.059725,0.009874,
1180,1830,0.069256,-1.310243,0.999998,0.000147,-0.001283,0.006821,-0.000070,0.006821,-0.001283,-89.502251,0.007250,
920,610,1.276866,-15.073525,0.999993,0.000315,-0.005761,0.010421,-0.001076,0.010492,-0.005832,-86.211255,0.010514,
870,720,1.892344,-13.634286,0.999995,0.000237,-0.006581,0.011664,-0.000043,0.011664,-0.006581,-89.866088,0.011696,
1100,1540,0.363352,-3.513610,0.999996,0.000214,-0.003317,0.007697,0.001263,0.007840,-0.003460,83.543650,0.007858,
1500,1520,-0.933203,-4.161337,0.999997,0.000226,-0.004799,0.009482,-0.001245,0.009589,-0.004906,-85.056233,0.009590,
1350,300,-0.223643,-18.280011,0.999998,0.000169,-0.002096,0.007271,0.000133,0.007273,-0.002098,89.187327,0.007487,
1410,1270,-0.802006,-6.152705,0.999994,0.000282,-0.007240,0.011059,-0.003357,0.011656,-0.007836,-79.926436,0.011884,
1670,130,-0.509912,-19.301544,0.999997,0.000241,-0.002488,0.008361,-0.001751,0.008637,-0.002763,-81.057183,0.008821,
1560,90,-0.190143,-19.675858,0.999998,0.000175,-0.000880,0.007083,-0.001266,0.007280,-0.001076,-81.182480,0.007859,
1700,820,-2.937791,-12.221770,0.999995,0.000262,-0.005438,0.010738,-0.001122,0.010816,-0.005516,-86.049747,0.010816,
1860,770,-3.574213,-12.417898,0.999996,0.000210,-0.004839,0.009785,-0.000412,0.009797,-0.004851,-88.389282,0.009797,
580,2010,0.447321,-0.398423,0.999966,0.000719,-0.001053,0.012762,-0.006611,0.015416,-0.003706,-68.128279,0.016094,
1840,1460,-2.879962,-5.924265,0.999996,0.000234,-0.005113,0.010175,0.000097,0.010176,-0.005113,89.636216,0.010176,
760,1780,1.235173,-2.256609,0.999995,0.000235,-0.004116,0.009753,-0.000648,0.009783,-0.004146,-87.330918,0.009821,
1640,1370,-2.069678,-6.285599,0.999998,0.000197,-0.006127,0.011174,0.000088,0.011174,-0.006127,89.709891,0.011191,
640,400,2.215258,-16.277789,0.999996,0.000232,-0.004959,0.010076,-0.000129,0.010077,-0.004961,-89.508314,0.010077,
1340,850,-0.672837,-14.323603,0.999983,0.000553,-0.004479,0.006303,0.003764,0.007488,-0.005663,72.537536,0.007809,
1400,2020,-0.016460,-0.095564,0.999998,0.000000,-0.000186,0.006152,0.000436,0.006182,-0.000216,86.087360,0.007017,
590,1720,2.246637,-3.403601,0.999997,0.000200,-0.004837,0.009810,0.000094,0.009811,-0.004838,89.630702,0.009811,
1250,660,-0.039686,-15.946346,0.999998,0.000175,-0.002214,0.005107,0.000600,0.005156,-0.002263,85.348634,0.005168,
1450,1670,-0.563588,-2.685080,0.999996,0.000247,-0.003034,0.008279,-0.000388,0.008292,-0.003047,-88.036944,0.008389,
930,1010,2.797597,-10.281000,0.999997,0.000217,-0.003622,0.011694,0.000431,0.011706,-0.003634,88.390518,0.011983,
1050,1140,1.680624,-7.840152,0.999990,0.000331,-0.006409,0.014034,0.003774,0.014709,-0.007083,79.867170,0.014712,
900,1950,0.234657,-0.592215,0.999997,0.000214,-0.001106,0.007328,-0.001261,0.007513,-0.001291,-81.676842,0.008034,
1660,650,-2.076606,-14.195786,0.999996,0.000229,-0.005887,0.010904,0.000018,0.010904,-0.005887,89.940148,0.010915,
840,1990,0.165060,-0.319732,0.999997,0.000181,-0.000596,0.007301,-0.001792,0.007688,-0.000984,-77.797090,0.008367,
1360,1560,-0.345302,-3.352142,0.999996,0.000208,-0.003145,0.007655,-0.001078,0.007761,-0.003252,-84.353401,0.007795,
1140,1740,0.175834,-1.956904,0.999998,0.000176,-0.002126,0.007184,0.000181,0.007187,-0.002129,88.886489,0.007384,
1200,240,0.048942,-18.751197,0.999998,0.000204,-0.001477,0.006838,0.000001,0.006838,-0.001477,89.993166,0.007197,
660,1420,2.822022,-6.224198,0.999996,0.000234,-0.005206,0.010267,-0.000218,0.010270,-0.005209,-89.193735,0.010270,
1790,1330,-3.063720,-7.117092,0.999996,0.000212,-0.005211,0.010230,0.000597,0.010253,-0.005234,87.790068,0.010253,
870,1000,3.002244,-10.375214,0.999996,0.000252,-0.003824,0.010684,0.000465,0.010699,-0.003839,88.167316,0.010841,
960,820,1.679610,-12.801987,0.999995,0.000287,-0.007583,0.013028,-0.000205,0.013030,-0.007585,-89.431002,0.013089,
1620,900,-2.825568,-11.450466,0.999996,0.000244,-0.005157,0.011147,-0.001372,0.011261,-0.005272,-85.223401,0.011269,
1080,890,1.280768,-13.195382,0.999994,0.000312,-0.004928,0.010200,-0.005049,0.011730,-0.006459,-73.139430,0.011750,
640,110,0.830035,-19.264890,0.999994,0.000324,-0.003934,0.010439,0.002289,0.010795,-0.004290,81.166594,0.010870,
710,270,1.432093,-17.821800,0.999997,0.000254,-0.004731,0.009984,0.000495,0.010000,-0.004747,88.075414,0.010005,
710,1420,2.552887,-6.081004,0.999995,0.000259,-0.005436,0.010482,-0.000228,0.010485,-0.005439,-89.179047,0.010487,
850,740,2.097208,-13.330125,0.999996,0.000251,-0.006437,0.011621,0.000329,0.011627,-0.006443,88.957127,0.011649,
1660,1790,-1.023094,-2.056711,0.999996,0.000251,-0.003927,0.009336,0.000618,0.009365,-0.003956,87.337716,0.009402,
810,710,2.234496,-13.551233,0.999995,0.000281,-0.006121,0.011252,0.000350,0.011259,-0.006128,88.847624,0.011273,
810,520,1.683382,-15.606037,0.999996,0.000205,-0.005254,0.010289,-0.000412,0.010300,-0.005264,-88.481962,0.010301,
770,1520,1.932133,-4.844469,0.999995,0.000292,-0.005322,0.010372,0.000278,0.010376,-0.005327,88.984926,0.010378,
1750,1750,-1.549629,-2.681669,0.999997,0.000241,-0.004778,0.010017,0.000221,0.010020,-0.004782,89.143126,0.010024,
1500,1590,-0.841899,-3.508076,0.999997,0.000231,-0.004061,0.009059,-0.000829,0.009111,-0.004113,-86.397007,0.009126,
1500,1500,-0.961212,-4.353252,0.999996,0.000239,-0.004930,0.009650,-0.001327,0.009770,-0.005050,-84.841860,0.009771,
1050,660,0.619038,-15.234498,0.999994,0.000295,-0.005202,0.009137,-0.002610,0.009598,-0.005662,-79.998141,0.009649,
1000,1260,1.242790,-6.759093,0.999993,0.000312,-0.007764,0.012535,0.001648,0.012668,-0.007897,85.389233,0.012796,
990,760,1.186810,-13.763146,0.999994,0.000305,-0.007416,0.012049,-0.001696,0.012195,-0.007563,-85.057332,0.012312,
1100,1520,0.369262,-3.669439,0.999996,0.000226,-0.003451,0.007713,0.001467,0.007903,-0.003640,82.635831,0.007911,
870,180,0.530053,-18.958548,0.999997,0.000223,-0.002552,0.008175,0.001032,0.008274,-0.002650,84.554150,0.008450,
1270,490,-0.096659,-16.984627,0.999998,0.000162,-0.002484,0.006875,0.000339,0.006888,-0.002496,87.928388,0.006974,
1670,110,-0.418708,-19.467548,0.999997,0.000211,-0.002075,0.008272,-0.001967,0.008633,-0.002437,-79.590061,0.008902,
1420,550,-0.588724,-16.168854,0.999997,0.000223,-0.004224,0.008558,0.001675,0.008774,-0.004440,82.656891,0.008774,
570,1690,2.455904,-3.763961,0.999664,0.002287,-0.006165,0.010083,-0.000635,0.010108,-0.006190,-87.763848,0.010192,
850,470,1.365888,-16.244808,0.999996,0.000240,-0.004855,0.009908,-0.000507,0.009926,-0.004872,-88.037330,0.009926,
880,1580,1.228633,-3.865278,0.999995,0.000243,-0.004837,0.009757,0.000610,0.009782,-0.004863,87.610265,0.009782,
650,1420,2.872841,-6.253103,0.999997,0.000224,-0.005152,0.010250,-0.000206,0.010252,-0.005155,-89.233387,0.010252,
640,380,2.150764,-16.482547,0.999997,0.000203,-0.004958,0.010103,-0.000089,0.010104,-0.004958,-89.661871,0.010104,
1230,660,0.003062,-15.964551,0.999997,0.000183,-0.002173,0.005067,-0.000068,0.005067,-0.002174,-89.458749,0.005084,
570,1370,3.454506,-7.010566,0.999459,0.002727,-0.005864,0.010327,-0.000556,0.010346,-0.005883,-88.035622,0.010378,
1410,1250,-0.880289,-6.383106,0.999993,0.000324,-0.007567,0.011588,-0.003239,0.012121,-0.008100,-80.657661,0.012348,
1540,90,-0.177002,-19.680629,0.999998,0.000175,-0.000740,0.006990,-0.001153,0.007158,-0.000909,-81.692692,0.007794,
1460,1150,-1.914876,-8.225026,0.999991,0.000347,-0.006898,0.014232,-0.000071,0.014232,-0.006899,-89.807155,0.014235,
1600,1070,-3.011193,-9.627828,0.999996,0.000253,-0.003943,0.010742,0.000704,0.010775,-0.003976,87.261669,0.010898,
1020,1950,0.126135,-0.552196,0.999998,0.000192,-0.000775,0.006740,-0.000667,0.006799,-0.000834,-84.970846,0.007416,
570,2000,0.607969,-0.553641,0.999559,0.002396,-0.002523,0.013677,-0.006463,0.015939,-0.004786,-70.707250,0.016358,
1270,300,-0.072017,-18.330606,0.999998,0.000178,-0.001824,0.007016,0.000065,0.007016,-0.001824,89.581686,0.007281,
630,1600,2.427021,-4.472563,0.999996,0.000217,-0.005039,0.010140,0.000124,0.010141,-0.005040,89.531911,0.010141,
930,980,2.730656,-10.640333,0.999996,0.000259,-0.004014,0.011966,0.000949,0.012022,-0.004071,86.613200,0.012229,
930,1430,1.248477,-5.202532,0.999995,0.000262,-0.005861,0.010531,0.001161,0.010612,-0.005942,85.969619,0.010638,
1360,1540,-0.352688,-3.504210,0.999996,0.000232,-0.003299,0.007625,-0.001255,0.007768,-0.003441,-83.530213,0.007784,
960,800,1.576351,-13.065198,0.999993,0.000316,-0.007594,0.012786,-0.000531,0.012800,-0.007608,-88.509439,0.012876,
1540,750,-1.639637,-13.497200,0.999993,0.000353,-0.007116,0.012119,0.000426,0.012128,-0.007125,88.731378,0.012190,
660,1400,2.886657,-6.431078,0.999996,0.000250,-0.005173,0.010323,-0.000289,0.010328,-0.005179,-88.933652,0.010328,
1450,1710,-0.517923,-2.357308,0.999996,0.000224,-0.002786,0.008018,-0.000225,0.008023,-0.002791,-88.808745,0.008146,
1750,1730,-1.617842,-2.882800,0.999996,0.000252,-0.004805,0.009988,0.000091,0.009989,-0.004806,89.646372,0.009991,
680,730,3.046809,-13.007940,0.999996,0.000228,-0.005232,0.010297,0.000643,0.010324,-0.005258,87.633831,0.010324,
1640,1790,-0.950725,-2.018069,0.999996,0.000248,-0.003401,0.009160,0.000716,0.009201,-0.003442,86.748394,0.009297,
1620,880,-2.747348,-11.676477,0.999995,0.000290,-0.005437,0.011372,-0.001422,0.011492,-0.005556,-85.197487,0.011494,
810,500,1.634169,-15.813231,0.999996,0.000195,-0.005165,0.010193,-0.000402,0.010204,-0.005176,-88.500693,0.010204,
1500,1480,-0.982199,-4.548136,0.999996,0.000241,-0.005128,0.009799,-0.001387,0.009927,-0.005256,-84.736756,0.009933,
1370,420,-0.347560,-17.358738,0.999996,0.000219,-0.002759,0.007622,0.000573,0.007653,-0.002790,86.852487,0.007746,
850,180,0.580015,-18.934934,0.999998,0.000189,-0.002376,0.008331,0.001177,0.008459,-0.002504,83.798861,0.008690,
590,1830,1.803432,-2.319434,0.999996,0.000228,-0.004849,0.009900,-0.000285,0.009906,-0.004855,-88.892785,0.009906,
1140,1720,0.184278,-2.101515,0.999998,0.000172,-0.002247,0.007226,0.000233,0.007231,-0.002253,88.593643,0.007401,
990,740,1.125490,-14.001655,0.999993,0.000312,-0.007149,0.011652,-0.001856,0.011834,-0.007331,-84.415037,0.011946,
1670,310,-1.212380,-17.650384,0.999997,0.000201,-0.004362,0.009619,-0.000227,0.009623,-0.004366,-89.068373,0.009637,
1270,470,-0.096565,-17.124164,0.999998,0.000159,-0.002462,0.006961,0.000292,0.006970,-0.002471,88.225298,0.007068,
1420,530,-0.576556,-16.342670,0.999996,0.000259,-0.004032,0.008486,0.001482,0.008659,-0.004205,83.340533,0.008661,
880,1560,1.271499,-4.063217,0.999995,0.000255,-0.004983,0.009884,0.000677,0.009915,-0.005014,87.397331,0.009915,
960,1750,0.606617,-2.117784,0.999997,0.000213,-0.003148,0.008289,0.000008,0.008289,-0.003148,89.961629,0.008369,
770,920,3.254892,-11.166263,0.999996,0.000235,-0.004704,0.010260,0.001016,0.010329,-0.004773,86.133980,0.010339,
1840,1440,-2.946533,-6.129169,0.999997,0.000220,-0.005097,0.010193,0.000131,0.010194,-0.005099,89.508969,0.010194,
640,360,2.090856,-16.684783,0.999997,0.000197,-0.004934,0.010068,-0.000022,0.010069,-0.004934,-89.916135,0.010069,
1100,1500,0.374028,-3.828480,0.999997,0.000200,-0.003576,0.007619,0.001620,0.007849,-0.003806,81.930656,0.007850,
850,450,1.319644,-16.441996,0.999996,0.000266,-0.004770,0.009870,-0.000463,0.009885,-0.004785,-88.190526,0.009887,
1640,1530,-1.626775,-4.563473,0.999995,0.000250,-0.005270,0.010299,-0.000468,0.010313,-0.005284,-88.281479,0.010314,
1210,660,0.046379,-15.942838,0.999998,0.000170,-0.002238,0.005125,-0.000671,0.005185,-0.002299,-84.835757,0.005196,
770,1500,1.985948,-5.050434,0.999997,0.000239,-0.005404,0.010366,0.000225,0.010369,-0.005407,89.180958,0.010373,
1820,970,-3.920089,-10.607304,0.999997,0.000192,-0.004301,0.009058,-0.000194,0.009061,-0.004303,-89.167177,0.009065,
580,2000,0.583010,-0.530842,0.999950,0.000846,-0.002587,0.012684,-0.005549,0.014487,-0.004390,-71.995775,0.014857,
760,610,2.199750,-14.493894,0.999995,0.000285,-0.005592,0.010641,-0.000031,0.010641,-0.005593,-89.891946,0.010646,
810,1420,1.990494,-5.774719,0.999995,0.000246,-0.005850,0.010842,0.000115,0.010843,-0.005850,89.603865,0.010854,
1410,1230,-0.973570,-6.623051,0.999994,0.000300,-0.007665,0.012007,-0.003050,0.012470,-0.008127,-81.385484,0.012660,
1120,90,0.048768,-19.725533,0.999998,0.000180,-0.000507,0.006273,0.000266,0.006283,-0.000518,87.754296,0.006976,
840,1370,1.965456,-6.228050,0.999994,0.000281,-0.006256,0.011249,0.000048,0.011249,-0.006256,89.842422,0.011272,
960,780,1.487149,-13.321979,0.999992,0.000322,-0.007510,0.012560,-0.000797,0.012592,-0.007542,-87.729024,0.012674,
930,1450,1.209546,-4.994344,0.999996,0.000251,-0.005657,0.010287,0.001149,0.010369,-0.005740,85.899181,0.010389,
910,1480,1.267988,-4.765032,0.999995,0.000286,-0.005435,0.010279,0.000978,0.010340,-0.005495,86.451546,0.010347,
1790,1310,-3.137477,-7.324063,0.999996,0.000238,-0.005171,0.010223,0.000668,0.010252,-0.005200,87.520137,0.010253,
1220,460,0.029789,-17.211381,0.999998,0.000155,-0.002472,0.006944,-0.000190,0.006948,-0.002476,-88.841608,0.007043,
1000,1950,0.141215,-0.558043,0.999998,0.000166,-0.000659,0.006820,-0.000770,0.006898,-0.000738,-84.180754,0.007575,
1420,1130,-1.806894,-8.096638,0.999995,0.000256,-0.006541,0.014685,-0.003199,0.015156,-0.007013,-81.612992,0.015171,
730,1100,3.513239,-9.367530,0.999997,0.000224,-0.004497,0.009904,-0.000766,0.009944,-0.004537,-86.964146,0.009957,
1550,720,-1.602902,-13.811934,0.999994,0.000332,-0.006873,0.011749,0.000605,0.011768,-0.006893,88.141805,0.011826,
910,980,2.811485,-10.619777,0.999995,0.000278,-0.003971,0.011490,0.000960,0.011550,-0.004030,86.461289,0.011724,
1360,1520,-0.357182,-3.660022,0.999996,0.000251,-0.003432,0.007647,-0.001458,0.007836,-0.003621,-82.627294,0.007843,
880,1850,0.584312,-1.400010,0.999996,0.000221,-0.002791,0.008372,-0.000865,0.008439,-0.002858,-85.598005,0.008584,
1620,1080,-3.070046,-9.529529,0.999996,0.000253,-0.004090,0.010618,0.000869,0.010669,-0.004141,86.630176,0.010758,
810,690,2.166679,-13.778405,0.999996,0.000257,-0.006085,0.011114,0.000198,0.011116,-0.006087,89.339169,0.011133,
1750,1710,-1.684777,-3.084225,0.999995,0.000266,-0.004810,0.010014,0.000036,0.010014,-0.004810,89.860942,0.010017,
580,1730,2.264222,-3.342741,0.999998,0.000185,-0.004622,0.009668,0.000027,0.009668,-0.004622,89.889788,0.009671,
780,930,3.231936,-11.070886,0.999995,0.000252,-0.004599,0.010225,0.000964,0.010288,-0.004661,86.293631,0.010303,
810,1300,2.404538,-7.117441,0.999995,0.000299,-0.006097,0.011318,-0.000685,0.011345,-0.006124,-87.749835,0.011357,
1600,310,-0.940322,-17.809878,0.999997,0.000231,-0.003744,0.009093,-0.000175,0.009095,-0.003746,-89.217661,0.009142,
1660,1530,-1.732069,-4.628237,0.999995,0.000246,-0.005277,0.010324,-0.000391,0.010334,-0.005286,-88.566406,0.010335,
1680,770,-2.626817,-12.809365,0.999995,0.000262,-0.005853,0.011008,-0.000889,0.011054,-0.005900,-86.989045,0.011063,
970,1820,0.440243,-1.532247,0.999997,0.000206,-0.002420,0.007912,-0.000408,0.007928,-0.002436,-87.742710,0.008122,
1500,1460,-1.011100,-4.745448,0.999996,0.000244,-0.005391,0.009983,-0.001457,0.010120,-0.005528,-84.632881,0.010135,
640,340,2.023580,-16.887705,0.999996,0.000230,-0.004917,0.010007,-0.000004,0.010007,-0.004917,-89.985001,0.010007,
660,1380,2.955453,-6.638272,0.999996,0.000232,-0.005174,0.010252,-0.000389,0.010261,-0.005183,-88.557326,0.010262,
1140,1700,0.194384,-2.249225,0.999998,0.000174,-0.002374,0.007317,0.000289,0.007326,-0.002383,88.296314,0.007473,
840,1610,1.358004,-3.699847,0.999994,0.000288,-0.004785,0.009869,0.000405,0.009880,-0.004796,88.419468,0.009881,
590,2010,0.433986,-0.387213,0.999968,0.000724,-0.001303,0.011621,-0.005353,0.013550,-0.003232,-70.181885,0.014154,
790,1420,2.105995,-5.840350,0.999998,0.000158,-0.005782,0.010766,0.000018,0.010766,-0.005782,89.938832,0.010776,
1700,800,-2.859375,-12.436851,0.999995,0.000274,-0.005550,0.010848,-0.001053,0.010915,-0.005618,-86.341744,0.010917,
1100,1480,0.378683,-3.980014,0.999996,0.000229,-0.003662,0.007587,0.001762,0.007857,-0.003932,81.300723,0.007857,
810,670,2.097447,-13.998303,0.999996,0.000253,-0.006038,0.011000,0.000081,0.011000,-0.006038,89.727764,0.011017,
1830,560,-2.721543,-14.624299,0.999996,0.000227,-0.005090,0.010246,0.000035,0.010246,-0.005090,89.867593,0.010246,
620,290,1.941204,-17.319468,0.999997,0.000222,-0.004880,0.009980,0.000047,0.009980,-0.004880,89.818426,0.009981,
960,980,2.608336,-10.689299,0.999995,0.000233,-0.004294,0.012822,0.000822,0.012861,-0.004334,87.257629,0.013087,
1400,1080,-1.958208,-8.631559,0.999978,0.000000,-0.008089,0.022582,-0.006567,0.023929,-0.009436,-78.408669,0.024106,
1570,360,-0.941167,-17.421617,0.999997,0.000217,-0.004051,0.009118,0.000193,0.009121,-0.004054,89.162487,0.009139,
1460,1200,-1.550334,-7.524051,0.999993,0.000326,-0.007803,0.013749,-0.000893,0.013786,-0.007840,-87.630140,0.013829,
1350,1340,-0.339164,-4.966074,0.999995,0.000277,-0.004439,0.007354,-0.003493,0.008311,-0.005396,-74.678328,0.008433,
1110,300,0.232083,-18.278941,0.999998,0.000191,-0.002056,0.007300,-0.000107,0.007302,-0.002057,-89.341955,0.007530,
1420,1110,-1.959141,-8.407101,0.999976,0.000598,-0.006782,0.016193,-0.003828,0.016814,-0.007403,-80.785884,0.016854,
1690,520,-1.877307,-15.484438,0.999995,0.000255,-0.005255,0.010363,0.000313,0.010370,-0.005262,88.854221,0.010370,
1770,30,-0.101709,-20.063552,0.999997,0.000000,-0.000201,0.008024,-0.003366,0.009225,-0.001403,-70.350196,0.009942,
710,710,2.813886,-13.287413,0.999996,0.000230,-0.005469,0.010500,0.000595,0.010523,-0.005491,87.870342,0.010526,
1000,1240,1.340161,-7.017771,0.999991,0.000368,-0.007858,0.012854,0.001356,0.012943,-0.007946,86.269064,0.013054,
880,1540,1.310783,-4.265162,0.999996,0.000232,-0.005087,0.010036,0.000727,0.010071,-0.005122,87.253876,0.010071,
1240,1550,-0.022189,-3.255354,0.999998,0.000141,-0.002532,0.006784,-0.000202,0.006788,-0.002537,-88.759328,0.006860,
1840,1420,-3.010204,-6.333781,0.999997,0.000195,-0.005099,0.010175,0.000157,0.010177,-0.005101,89.410336,0.010177,
1130,740,0.275499,-15.152854,0.999994,0.000324,-0.004146,0.006559,-0.003737,0.007734,-0.005322,-72.537979,0.007914,
1790,1290,-3.208631,-7.526858,0.999995,0.000252,-0.005129,0.010154,0.000774,0.010193,-0.005168,87.109835,0.010193,
740,610,2.311015,-14.432463,0.999995,0.000261,-0.005523,0.010559,0.000054,0.010559,-0.005523,89.807232,0.010563,
1780,1730,-1.763950,-2.979291,0.999997,0.000197,-0.004836,0.010021,0.000059,0.010021,-0.004836,89.771742,0.010024,
1350,50,-0.023250,-19.973596,0.999998,0.000159,-0.000201,0.006025,-0.000291,0.006038,-0.000214,-87.329345,0.006852,
1440,1950,-0.123883,-0.551535,0.999998,0.000181,-0.000756,0.006728,0.000662,0.006786,-0.000814,84.983151,0.007411,
930,1470,1.177084,-4.789315,0.999996,0.000221,-0.005494,0.010215,0.001157,0.010300,-0.005579,85.810230,0.010312,
1190,500,0.104948,-16.914680,0.999997,0.000214,-0.002523,0.006850,-0.000344,0.006862,-0.002536,-87.899762,0.006940,
850,430,1.274956,-16.642241,0.999995,0.000299,-0.004609,0.009766,-0.000380,0.009776,-0.004619,-88.485115,0.009781,
1160,90,0.030807,-19.730480,0.999998,0.000182,-0.000381,0.006200,0.000195,0.006206,-0.000387,88.305770,0.006953,
1000,1310,1.067653,-6.148829,0.999994,0.000311,-0.007204,0.011581,0.002096,0.011812,-0.007435,83.709132,0.011943,
1200,1920,0.025588,-0.711088,0.999998,0.000182,-0.000721,0.006371,-0.000050,0.006371,-0.000722,-89.598986,0.006977,
750,1060,3.479161,-9.758811,0.999996,0.000235,-0.004263,0.009833,-0.000358,0.009842,-0.004273,-88.544771,0.009871,
1670,90,-0.321437,-19.629607,0.999997,0.000196,-0.001630,0.007862,-0.001984,0.008260,-0.002028,-78.655819,0.008609,
580,1830,1.851914,-2.362741,0.999996,0.000231,-0.004881,0.009876,-0.000283,0.009882,-0.004886,-88.901174,0.009882,
720,1930,0.656975,-0.889222,0.999997,0.000226,-0.003240,0.009183,-0.002205,0.009563,-0.003619,-80.225981,0.009657,
1220,790,0.030491,-15.486621,0.999998,0.000165,-0.002817,0.002231,-0.000668,0.002318,-0.002904,-82.591607,0.003071,
1060,880,1.308902,-12.949085,0.999990,0.000383,-0.006882,0.012441,-0.003365,0.013010,-0.007451,-80.398992,0.013056,
1600,290,-0.888639,-17.988651,0.999997,0.000195,-0.003629,0.009033,-0.000347,0.009043,-0.003639,-88.429484,0.009100,
1700,850,-3.052597,-11.896399,0.999996,0.000240,-0.005221,0.010639,-0.001203,0.010729,-0.005312,-85.688637,0.010730,
570,700,3.498746,-13.006023,0.999151,0.003276,-0.006246,0.008542,0.000958,0.008604,-0.006308,86.306896,0.008910,
1760,180,-1.046057,-18.701191,0.999997,0.000208,-0.004359,0.009844,-0.001336,0.009969,-0.004484,-84.673608,0.009985,
1450,900,-1.805442,-12.086525,0.999991,0.000325,-0.007036,0.014287,0.000578,0.014303,-0.007052,88.449410,0.014303,
1830,1200,-3.709464,-8.491969,0.999996,0.000226,-0.004701,0.009576,0.000720,0.009612,-0.004738,87.118347,0.009612,
760,1800,1.162051,-2.064647,0.999996,0.000251,-0.003948,0.009670,-0.000861,0.009724,-0.004002,-86.395621,0.009775,
1270,450,-0.093487,-17.264415,0.999998,0.000182,-0.002434,0.007038,0.000256,0.007045,-0.002441,88.454507,0.007155,
1360,1500,-0.361496,-3.814988,0.999997,0.000219,-0.003531,0.007575,-0.001630,0.007809,-0.003765,-81.818065,0.007811,
1440,810,-1.136268,-13.411693,0.999992,0.000315,-0.007810,0.012416,0.002221,0.012657,-0.008051,83.805387,0.012812,
940,1630,0.877214,-3.209754,0.999996,0.000221,-0.003937,0.009052,0.000560,0.009076,-0.003961,87.535523,0.009100,
670,1380,2.903585,-6.611285,0.999997,0.000223,-0.005223,0.010311,-0.000386,0.010320,-0.005233,-88.578500,0.010321,
810,650,2.035598,-14.220950,0.999996,0.000229,-0.005931,0.010982,-0.000046,0.010982,-0.005931,-89.842764,0.010994,
1140,1680,0.204331,-2.395897,0.999998,0.000176,-0.002481,0.007347,0.000380,0.007362,-0.002496,87.787608,0.007488,
1100,1460,0.380832,-4.133913,0.999996,0.000207,-0.003716,0.007635,0.001913,0.007949,-0.004030,80.688417,0.007949,
1400,1070,-1.984831,-8.864297,0.999959,0.000000,-0.008815,0.025295,-0.005746,0.026237,-0.009756,-80.690301,0.026523,
770,1820,1.043270,-1.846935,0.999997,0.000182,-0.003804,0.009532,-0.000967,0.009602,-0.003873,-85.872467,0.009661,
880,1520,1.347341,-4.468830,0.999995,0.000234,-0.005203,0.010127,0.000769,0.010165,-0.005242,87.133748,0.010167,
1700,780,-2.781475,-12.658511,0.999996,0.000243,-0.005665,0.010902,-0.000958,0.010958,-0.005720,-86.700254,0.010961,
1800,1390,-2.904145,-6.526124,0.999998,0.000185,-0.005221,0.010315,0.000330,0.010322,-0.005228,88.785444,0.010322,
1350,1320,-0.349840,-5.115523,0.999997,0.000257,-0.004678,0.007431,-0.003782,0.008515,-0.005762,-74.005262,0.008691,
1670,520,-1.770919,-15.548482,0.999998,0.000164,-0.005240,0.010351,0.000376,0.010360,-0.005249,88.620667,0.010360,
660,1360,3.026496,-6.843208,0.999996,0.000250,-0.005198,0.010159,-0.000465,0.010173,-0.005213,-88.265850,0.010174,
1570,340,-0.896215,-17.604340,0.999998,0.000209,-0.003884,0.009068,0.000078,0.009068,-0.003885,89.654560,0.009099,
1760,1730,-1.665520,-2.917329,0.999997,0.000225,-0.004846,0.010006,0.000084,0.010007,-0.004846,89.677366,0.010009,
1620,1320,-2.121501,-6.793878,0.999995,0.000290,-0.006396,0.011523,0.000331,0.011529,-0.006402,88.942639,0.011553,
1810,560,-2.619733,-14.688055,0.999996,0.000230,-0.005137,0.010262,0.000048,0.010262,-0.005137,89.822822,0.010262,
1750,420,-1.911317,-16.313603,0.999995,0.000250,-0.004967,0.010122,0.000154,0.010124,-0.004968,89.415164,0.010124,
650,420,2.224861,-16.110272,0.999997,0.000189,-0.005026,0.010128,-0.000148,0.010130,-0.005027,-89.439654,0.010130,
1760,2020,-0.126047,-0.131602,0.999997,0.000000,-0.001056,0.008023,0.003021,0.008936,-0.001969,73.175573,0.009391,
640,320,1.955402,-17.088490,0.999997,0.000219,-0.004864,0.010019,0.000044,0.010019,-0.004864,89.831082,0.010020,
1500,1440,-1.043667,-4.952780,0.999996,0.000261,-0.005624,0.010166,-0.001555,0.010317,-0.005776,-84.428234,0.010342,
980,420,0.718123,-17.097884,0.999997,0.000218,-0.003817,0.008729,-0.000692,0.008767,-0.003855,-86.851956,0.008788,
1790,1270,-3.279837,-7.731700,0.999995,0.000256,-0.005096,0.010105,0.000821,0.010149,-0.005140,86.918844,0.010149,
1020,1310,0.925435,-5.998917,0.999996,0.000281,-0.007007,0.011199,0.002569,0.011555,-0.007363,82.119029,0.011699,
840,1590,1.402044,-3.898686,0.999996,0.000237,-0.004825,0.009884,0.000453,0.009898,-0.004839,88.237566,0.009899,
780,1870,0.795225,-1.359061,0.999996,0.000226,-0.003349,0.009109,-0.001380,0.009260,-0.003501,-83.752002,0.009351,
930,1490,1.142323,-4.583564,0.999996,0.000238,-0.005322,0.010100,0.001134,0.010183,-0.005405,85.815948,0.010190,
1540,1930,-0.271809,-0.733980,0.999998,0.000186,-0.001164,0.007402,0.001152,0.007554,-0.001316,82.472311,0.008071,
1450,300,-0.454492,-18.162086,0.999996,0.000215,-0.002470,0.007831,-0.000043,0.007831,-0.002470,-89.758217,0.008007,
1170,500,0.154896,-16.898531,0.999997,0.000186,-0.002659,0.006969,-0.000588,0.007004,-0.002695,-86.519186,0.007066,
1280,1550,-0.122252,-3.286116,0.999997,0.000184,-0.002568,0.006915,-0.000405,0.006933,-0.002585,-87.559257,0.007007,
1540,50,-0.077521,-19.955487,0.999998,0.000181,-0.000241,0.006639,-0.001113,0.006814,-0.000417,-81.037218,0.007639,
1050,1180,1.343551,-7.280893,0.999992,0.000313,-0.007120,0.013230,0.002845,0.013620,-0.007510,82.190277,0.013644,
970,180,0.325038,-19.049913,0.999996,0.000230,-0.001908,0.007457,0.000657,0.007503,-0.001954,86.006771,0.007785,
1140,90,0.038987,-19.730050,0.999998,0.000181,-0.000487,0.006246,0.000219,0.006253,-0.000494,88.137494,0.006953,
670,920,3.710063,-11.095424,0.999998,0.000239,-0.004561,0.009458,0.000656,0.009489,-0.004592,87.327676,0.009490,
1720,1990,-0.260053,-0.356100,0.999997,0.000217,-0.000941,0.007912,0.002553,0.008595,-0.001624,75.012913,0.009133,
1640,770,-2.386251,-12.904391,0.999995,0.000321,-0.006214,0.011437,-0.000754,0.011469,-0.006246,-87.559845,0.011484,
1460,1180,-1.691673,-7.802452,0.999993,0.000332,-0.007597,0.014000,-0.000529,0.014013,-0.007610,-88.598136,0.014031,
1000,1220,1.451125,-7.282138,0.999991,0.000393,-0.007866,0.013310,0.001148,0.013372,-0.007928,86.905654,0.013448,
1420,1630,-0.505701,-2.950076,0.999997,0.000221,-0.003253,0.008094,-0.000702,0.008138,-0.003297,-86.474539,0.008186,
590,2000,0.550583,-0.501381,0.999990,0.000418,-0.002659,0.011727,-0.004568,0.013055,-0.003987,-73.789691,0.013380,
1760,200,-1.149946,-18.499455,0.999996,0.000214,-0.004459,0.009991,-0.001087,0.010072,-0.004540,-85.723903,0.010088,
690,1380,2.798638,-6.556392,0.999995,0.000263,-0.005352,0.010418,-0.000395,0.010428,-0.005362,-88.566661,0.010429,
1140,1660,0.213324,-2.542412,0.999997,0.000190,-0.002573,0.007305,0.000503,0.007331,-0.002598,87.092712,0.007433,
810,630,1.975313,-14.441003,0.999997,0.000202,-0.005828,0.010819,-0.000142,0.010820,-0.005829,-89.509780,0.010831,
1200,1960,0.015056,-0.458769,0.999998,0.000177,-0.000479,0.006220,-0.000069,0.006221,-0.000480,-89.411242,0.006923,
850,410,1.231335,-16.837432,0.999995,0.000287,-0.004429,0.009568,-0.000262,0.009573,-0.004434,-88.927463,0.009582,
1100,1660,0.317628,-2.604129,0.999997,0.000194,-0.002539,0.007522,0.000418,0.007539,-0.002557,87.624330,0.007668,
1460,1450,-0.817412,-4.663199,0.999997,0.000230,-0.005160,0.009579,-0.001864,0.009811,-0.005392,-82.903281,0.009827,
1350,1760,-0.223032,-1.843106,0.999996,0.000232,-0.002042,0.007233,-0.000091,0.007234,-0.002042,-89.440097,0.007459,
1830,980,-3.970684,-10.511327,0.999997,0.000223,-0.004277,0.008973,-0.000186,0.008976,-0.004279,-89.194540,0.008979,
1400,1060,-2.008818,-9.133485,0.999966,0.000000,-0.009517,0.027266,-0.004771,0.027875,-0.010125,-82.729234,0.028220,
710,600,2.443247,-14.448503,0.999995,0.000256,-0.005393,0.010457,0.000076,0.010457,-0.005393,89.725778,0.010459,
910,1820,0.588898,-1.608293,0.999997,0.000234,-0.002437,0.008338,-0.000722,0.008386,-0.002485,-86.182871,0.008615,
660,1340,3.095657,-7.046696,0.999996,0.000246,-0.005175,0.010192,-0.000538,0.010210,-0.005194,-87.998453,0.010211,
1880,500,-2.795870,-15.083030,0.999997,0.000194,-0.005006,0.010085,0.000027,0.010085,-0.005006,89.897964,0.010086,
1110,740,0.366033,-14.981056,0.999995,0.000308,-0.004895,0.007646,-0.003845,0.008731,-0.005980,-74.243360,0.008928,
1760,30,-0.097229,-20.065799,0.999997,0.000000,-0.000724,0.007945,-0.003037,0.008903,-0.001682,-72.489875,0.009460,
970,330,0.618794,-17.847793,0.999996,0.000217,-0.003237,0.008471,-0.000166,0.008473,-0.003239,-89.186935,0.008551,
1790,1250,-3.352379,-7.933632,0.999996,0.000259,-0.005011,0.010026,0.000860,0.010075,-0.005060,86.737032,0.010075,
1780,1390,-2.800025,-6.470816,0.999996,0.000247,-0.005281,0.010419,0.000348,0.010426,-0.005288,88.730280,0.010427,
610,320,2.101038,-16.978454,0.999996,0.000246,-0.004871,0.009930,-0.000080,0.009931,-0.004871,-89.688776,0.009931,
1140,1310,0.238315,-4.958328,0.999996,0.000255,-0.003897,0.006092,0.003676,0.007299,-0.005104,71.823621,0.007490,
930,1930,0.264619,-0.731032,0.999997,0.000205,-0.001170,0.007346,-0.001083,0.007481,-0.001306,-82.864052,0.007992,
1840,1400,-3.075012,-6.538408,0.999997,0.000213,-0.005098,0.010139,0.000248,0.010143,-0.005102,89.067726,0.010143,
820,1870,0.671999,-1.300280,0.999996,0.000249,-0.002598,0.008680,-0.001343,0.008838,-0.002755,-83.302678,0.009044,
1050,220,0.259499,-18.818303,0.999997,0.000206,-0.001898,0.007240,0.000214,0.007245,-0.001903,88.657778,0.007512,
1430,300,-0.403617,-18.191673,0.999997,0.000236,-0.002563,0.007707,0.000092,0.007708,-0.002564,89.485429,0.007850,
1190,50,0.009363,-19.976922,0.999999,0.000144,-0.000153,0.006023,0.000092,0.006024,-0.000155,89.150628,0.006869,
770,1660,1.563535,-3.413564,0.999996,0.000234,-0.004713,0.009940,0.000097,0.009940,-0.004714,89.620456,0.009945,
1500,1420,-1.076878,-5.158744,0.999996,0.000247,-0.005817,0.010302,-0.001585,0.010457,-0.005971,-84.435668,0.010492,
640,300,1.881659,-17.292452,0.999997,0.000205,-0.004838,0.010110,0.000177,0.010112,-0.004840,89.321490,0.010115,
820,930,3.050445,-11.097141,0.999996,0.000275,-0.004649,0.010664,0.001168,0.010753,-0.004737,85.665056,0.010778,
930,840,2.005898,-12.395059,0.999996,0.000251,-0.006999,0.012864,0.000668,0.012886,-0.007021,88.076026,0.012904,
900,170,0.428826,-19.069097,0.999997,0.000218,-0.001909,0.007838,0.001044,0.007949,-0.002019,83.954115,0.008263,
1420,1950,-0.108832,-0.545758,0.999998,0.000204,-0.000853,0.006657,0.000552,0.006697,-0.000893,85.819382,0.007273,
880,1500,1.389641,-4.668464,0.999995,0.000251,-0.005410,0.010287,0.000788,0.010326,-0.005450,87.131728,0.010331,
1620,340,-1.091606,-17.481711,0.999997,0.000198,-0.003819,0.009516,-0.000163,0.009518,-0.003821,-89.301797,0.009580,
1610,1560,-1.405085,-4.155311,0.999996,0.000256,-0.004996,0.009994,-0.000549,0.010015,-0.005016,-87.904785,0.010015,
1300,90,-0.029480,-19.730226,0.999998,0.000175,-0.000368,0.006205,-0.000191,0.006211,-0.000374,-88.340232,0.006966,
570,1990,0.735839,-0.681531,0.999795,0.001661,-0.003704,0.013409,-0.004751,0.014640,-0.004935,-75.480156,0.014896,
1140,550,0.244375,-16.483376,0.999997,0.000198,-0.002944,0.007061,-0.001142,0.007190,-0.003072,-83.568457,0.007216,
1050,1160,1.509095,-7.555463,0.999992,0.000307,-0.006776,0.013405,0.003029,0.013850,-0.007221,81.645260,0.013854,
1760,220,-1.247042,-18.300497,0.999996,0.000234,-0.004572,0.009939,-0.000885,0.009992,-0.004626,-86.523041,0.010002,
810,610,1.916113,-14.655728,0.999996,0.000217,-0.005718,0.010724,-0.000244,0.010728,-0.005722,-89.151454,0.010736,
950,1380,1.233148,-5.652210,0.999995,0.000252,-0.006392,0.011073,0.001402,0.011185,-0.006504,85.440562,0.011234,
1600,1470,-1.549918,-5.049078,0.999995,0.000272,-0.005639,0.010524,-0.000647,0.010549,-0.005664,-87.712373,0.010559,
1260,1550,-0.072009,-3.271196,0.999997,0.000191,-0.002505,0.006828,-0.000379,0.006844,-0.002520,-87.675826,0.006922,
1040,1300,0.809099,-5.946937,0.999995,0.000276,-0.006909,0.010888,0.003008,0.011383,-0.007404,80.660787,0.011553,
1410,1210,-1.093728,-6.862479,0.999994,0.000295,-0.007524,0.012196,-0.002849,0.012600,-0.007927,-81.942658,0.012739,
1700,760,-2.703893,-12.874249,0.999996,0.000252,-0.005744,0.010852,-0.000840,0.010894,-0.005786,-87.109248,0.010901,
660,1320,3.167856,-7.251176,0.999997,0.000208,-0.005107,0.010182,-0.000604,0.010206,-0.005131,-87.741736,0.010206,
850,390,1.184986,-17.027115,0.999997,0.000243,-0.004228,0.009449,-0.000154,0.009451,-0.004230,-89.356767,0.009468,
1400,1050,-2.015404,-9.419325,0.999968,0.000000,-0.010076,0.028153,-0.003299,0.028436,-0.010359,-85.103695,0.028783,
1620,1730,-1.054094,-2.534943,0.999996,0.000248,-0.003813,0.009384,0.000179,0.009386,-0.003816,89.221042,0.009441,
1440,1450,-0.714356,-4.561302,0.999995,0.000281,-0.004919,0.009235,-0.001984,0.009508,-0.005192,-82.169973,0.009522,
1140,1860,0.106079,-1.116763,0.999998,0.000180,-0.001276,0.006767,-0.000112,0.006768,-0.001277,-89.199633,0.007192,
1120,1310,0.324393,-5.128404,0.999995,0.000296,-0.004604,0.007107,0.003887,0.008280,-0.005777,73.212783,0.008493,
1790,1230,-3.425073,-8.136211,0.999997,0.000231,-0.004928,0.009886,0.000855,0.009935,-0.004977,86.707891,0.009935,
1810,30,-0.092982,-20.067606,0.999997,0.000000,-0.001005,0.008580,-0.003891,0.009960,-0.002385,-70.464248,0.010401,
970,370,0.683896,-17.511289,0.999997,0.000212,-0.003575,0.008578,-0.000437,0.008594,-0.003591,-87.942269,0.008632,
1820,270,-1.749205,-17.608123,0.999996,0.000228,-0.004784,0.010127,-0.000346,0.010135,-0.004792,-88.670853,0.010140,
930,1910,0.309551,-0.874784,0.999997,0.000197,-0.001395,0.007485,-0.001015,0.007599,-0.001509,-83.558983,0.008046,
1130,1420,0.272247,-4.298234,0.999997,0.000233,-0.003455,0.006907,0.002188,0.007350,-0.003898,78.551569,0.007354,
1890,920,-4.138410,-10.979134,0.999997,0.000198,-0.004261,0.008592,-0.000324,0.008600,-0.004269,-88.558074,0.008600,
1210,1850,0.029751,-1.170015,0.999998,0.000180,-0.001233,0.006672,0.000014,0.006672,-0.001233,89.898156,0.007100,
1320,1890,-0.081064,-0.914895,0.999998,0.000165,-0.001015,0.006604,0.000149,0.006607,-0.001018,88.880648,0.007114,
1420,90,-0.088672,-19.713119,0.999998,0.000167,-0.000670,0.006496,-0.000524,0.006534,-0.000708,-85.836957,0.007171,
880,1920,0.359553,-0.830514,0.999997,0.000209,-0.001906,0.007727,-0.001236,0.007883,-0.002062,-82.806530,0.008176,
970,220,0.408808,-18.744853,0.999997,0.000206,-0.002304,0.007738,0.000438,0.007757,-0.002323,87.504964,0.007962,
1560,1790,-0.684172,-1.873622,0.999997,0.000217,-0.002862,0.008526,0.000508,0.008548,-0.002884,87.450334,0.008698,
1620,890,-2.787472,-11.562249,0.999996,0.000265,-0.005290,0.011247,-0.001392,0.011363,-0.005406,-85.221246,0.011368,
580,850,3.937294,-11.604081,0.999998,0.000170,-0.004450,0.009133,0.000259,0.009138,-0.004455,88.908409,0.009138,
640,280,1.804215,-17.494482,0.999997,0.000218,-0.004821,0.010096,0.000242,0.010100,-0.004825,89.072667,0.010103,
1170,1680,0.135206,-2.373275,0.999998,0.000157,-0.002197,0.007133,0.000115,0.007134,-0.002198,89.292991,0.007307,
1500,1400,-1.109532,-5.365341,0.999996,0.000256,-0.006084,0.010675,-0.001607,0.010828,-0.006236,-84.573450,0.010869,
1050,50,0.035378,-19.969701,0.999999,0.000159,-0.000343,0.006228,0.000482,0.006263,-0.000379,85.828154,0.007024,
1160,510,0.184226,-16.814039,0.999997,0.000216,-0.002809,0.007042,-0.000828,0.007111,-0.002878,-85.230606,0.007154,
1140,1950,0.046911,-0.525595,0.999998,0.000161,-0.000620,0.006329,-0.000217,0.006336,-0.000627,-88.214718,0.006982,
810,590,1.862603,-14.871941,0.999996,0.000207,-0.005610,0.010618,-0.000311,0.010624,-0.005616,-88.903872,0.010630,
1370,660,-0.413765,-15.490744,0.999997,0.000202,-0.004383,0.007931,0.002753,0.008519,-0.004971,77.954864,0.008558,
680,1870,1.172760,-1.572324,0.999995,0.000263,-0.004301,0.010048,-0.001410,0.010185,-0.004438,-84.442784,0.010213,
1880,440,-2.616902,-15.687278,0.999996,0.000215,-0.004915,0.010005,0.000050,0.010005,-0.004915,89.809199,0.010006,
600,2010,0.402582,-0.366369,0.999961,0.000806,-0.002463,0.010744,-0.004380,0.012065,-0.003784,-73.221768,0.012341,
1400,1040,-2.012884,-9.705476,0.999974,0.000000,-0.010362,0.028642,-0.001936,0.028738,-0.010458,-87.164850,0.029091,
1610,1540,-1.446611,-4.356433,0.999995,0.000292,-0.005178,0.010116,-0.000594,0.010139,-0.005201,-87.778485,0.010140,
1700,740,-2.629011,-13.094050,0.999995,0.000276,-0.005798,0.010883,-0.000719,0.010914,-0.005829,-87.537594,0.010922,
1000,1200,1.573262,-7.552225,0.999990,0.000382,-0.007791,0.013717,0.000811,0.013747,-0.007821,87.844913,0.013791,
1100,1920,0.102660,-0.730102,0.999998,0.000182,-0.000761,0.006548,-0.000328,0.006562,-0.000776,-87.432652,0.007172,
1760,240,-1.337903,-18.100528,0.999996,0.000260,-0.004682,0.009987,-0.000675,0.010018,-0.004713,-87.371207,0.010024,
1030,1180,1.481807,-7.544431,0.999987,0.000452,-0.007257,0.013835,0.001758,0.013981,-0.007403,85.266704,0.013989,
970,1380,1.105364,-5.544465,0.999996,0.000279,-0.006331,0.010885,0.001708,0.011052,-0.006498,84.389873,0.011109,
1400,1020,-2.018130,-10.297102,0.999938,0.000000,-0.010700,0.029013,0.001114,0.029045,-0.010731,88.394425,0.029373,
1490,1280,-1.369531,-6.697774,0.999992,0.000322,-0.007571,0.012430,-0.001154,0.012496,-0.007637,-86.708156,0.012599,
800,270,1.051703,-18.047670,0.999997,0.000232,-0.004048,0.009367,0.000584,0.009393,-0.004074,87.510656,0.009420,
1200,1550,0.079283,-3.273468,0.999998,0.000155,-0.002502,0.006811,0.000364,0.006825,-0.002516,87.763325,0.006903,
930,420,0.908808,-16.967629,0.999998,0.000182,-0.004035,0.009085,-0.000544,0.009107,-0.004058,-87.630484,0.009125,
1460,1160,-1.837084,-8.083841,0.999993,0.000334,-0.007171,0.014094,-0.000197,0.014095,-0.007173,-89.469511,0.014096,
1600,1730,-0.978213,-2.490716,0.999997,0.000183,-0.003807,0.009339,0.000134,0.009340,-0.003809,89.418144,0.009393,
690,1480,2.471873,-5.513099,0.999996,0.000226,-0.005308,0.010369,-0.000010,0.010369,-0.005308,-89.963603,0.010370,
1820,250,-1.662205,-17.811856,0.999995,0.000251,-0.004759,0.010162,-0.000474,0.010177,-0.004774,-88.181635,0.010184,
850,370,1.141989,-17.212428,0.999998,0.000203,-0.004049,0.009376,-0.000026,0.009377,-0.004049,-89.888398,0.009406,
970,1810,0.461539,-1.612958,0.999997,0.000213,-0.002499,0.007972,-0.000377,0.007985,-0.002512,-87.940688,0.008166,
1790,1210,-3.486296,-8.330180,0.999995,0.000275,-0.004849,0.009843,0.000852,0.009892,-0.004898,86.691422,0.009892,
1170,90,0.027751,-19.730985,0.999998,0.000169,-0.000356,0.006185,0.000170,0.006189,-0.000360,88.508835,0.006948,
1800,1030,-3.875647,-10.056713,0.999996,0.000219,-0.004339,0.009302,0.000033,0.009302,-0.004339,89.862439,0.009309,
660,1740,1.841073,-2.953952,0.999995,0.000255,-0.004827,0.010040,-0.000137,0.010041,-0.004828,-89.473612,0.010043,
1870,1390,-3.262446,-6.728344,0.999996,0.000233,-0.004991,0.010052,0.000156,0.010054,-0.004993,89.404960,0.010054,
1210,1830,0.028477,-1.302518,0.999998,0.000183,-0.001394,0.006760,0.000043,0.006760,-0.001394,89.696788,0.007138,
1420,1890,-0.195619,-0.957764,0.999998,0.000186,-0.001386,0.006928,0.000405,0.006948,-0.001406,87.218306,0.007346,
930,1890,0.368362,-1.033240,0.999997,0.000218,-0.001649,0.007637,-0.000943,0.007732,-0.001744,-84.257616,0.008110,
880,1940,0.298245,-0.680605,0.999997,0.000198,-0.001625,0.007575,-0.001338,0.007765,-0.001816,-81.888604,0.008124,
1540,1790,-0.632055,-1.845091,0.999996,0.000242,-0.002659,0.008337,0.000465,0.008357,-0.002678,87.580479,0.008535,
1110,220,0.165996,-18.855012,0.999997,0.000192,-0.001487,0.006929,0.000117,0.006930,-0.001489,89.203855,0.007296,
820,90,0.283878,-19.644129,0.999998,0.000184,-0.001166,0.007680,0.001880,0.008063,-0.001549,78.487114,0.008557,
1620,300,-0.989350,-17.852777,0.999997,0.000195,-0.003641,0.009172,-0.000359,0.009182,-0.003651,-88.396660,0.009246,
640,260,1.721308,-17.700972,0.999997,0.000240,-0.004780,0.010169,0.000399,0.010179,-0.004790,88.472761,0.010185,
1880,710,-3.464854,-12.948102,0.999996,0.000272,-0.004910,0.009803,-0.000185,0.009805,-0.004912,-89.278784,0.009805,
660,910,3.733383,-11.179209,0.999994,0.000299,-0.004559,0.009367,0.000619,0.009395,-0.004587,87.459342,0.009396,
1000,1180,1.712831,-7.828091,0.999992,0.000343,-0.007539,0.013950,0.000417,0.013958,-0.007547,88.888490,0.013974,
1120,1950,0.058715,-0.529828,0.999998,0.000166,-0.000650,0.006391,-0.000271,0.006401,-0.000661,-87.797690,0.007041,
600,2000,0.507395,-0.466952,0.999996,0.000262,-0.003327,0.011032,-0.003847,0.011998,-0.004293,-75.907388,0.012159,
1140,530,0.244878,-16.626739,0.999997,0.000214,-0.002940,0.007174,-0.001046,0.007281,-0.003047,-84.156028,0.007314,
1840,1380,-3.144682,-6.740572,0.999997,0.000194,-0.005089,0.010092,0.000328,0.010099,-0.005097,88.762606,0.010099,
700,50,0.224278,-19.906751,0.999997,0.000220,-0.001261,0.008392,0.003256,0.009387,-0.002256,72.999243,0.009800,
810,570,1.810140,-15.082334,0.999996,0.000212,-0.005507,0.010530,-0.000393,0.010540,-0.005517,-88.596702,0.010544,
1800,270,-1.655626,-17.671580,0.999997,0.000209,-0.004693,0.010105,-0.000508,0.010123,-0.004711,-88.035253,0.010131,
1500,1380,-1.148137,-5.584089,0.999995,0.000268,-0.006364,0.010967,-0.001608,0.011115,-0.006512,-84.743901,0.011170,
1150,740,0.201312,-15.302019,0.999997,0.000228,-0.003530,0.005549,-0.003442,0.006706,-0.004687,-71.413450,0.006881,
1880,430,-2.587096,-15.788644,0.999996,0.000256,-0.004924,0.009971,0.000047,0.009972,-0.004924,89.820029,0.009972,
1400,1630,-0.441950,-2.903635,0.999997,0.000198,-0.003246,0.007972,-0.000804,0.008030,-0.003303,-85.919537,0.008072,
1700,720,-2.553442,-13.313830,0.999995,0.000265,-0.005818,0.010913,-0.000590,0.010934,-0.005838,-87.982700,0.010942,
1470,1280,-1.219415,-6.559425,0.999994,0.000303,-0.007579,0.012271,-0.001657,0.012408,-0.007716,-85.261223,0.012531,
1090,1380,0.432650,-4.810068,0.999996,0.000239,-0.004631,0.008080,0.002968,0.008739,-0.005290,77.483002,0.008803,
1290,50,-0.011573,-19.976379,0.999998,0.000149,-0.000099,0.005998,-0.000147,0.006002,-0.000103,-88.617520,0.006872,
800,170,0.666833,-18.964959,0.999997,0.000190,-0.003024,0.008724,0.001443,0.008899,-0.003199,83.101265,0.009015,
920,1670,0.888253,-2.900526,0.999995,0.000243,-0.003725,0.008967,0.000253,0.008972,-0.003730,88.859864,0.009014,
570,1710,2.375448,-3.568804,0.999881,0.001284,-0.005095,0.009709,-0.000390,0.009720,-0.005105,-88.492457,0.009724,
1100,1960,0.064647,-0.469967,0.999998,0.000168,-0.000465,0.006372,-0.000354,0.006390,-0.000483,-87.046229,0.007117,
1790,1190,-3.551447,-8.529694,0.999995,0.000258,-0.004837,0.009844,0.000934,0.009903,-0.004897,86.375070,0.009903,
1440,1890,-0.224093,-0.970573,0.999997,0.000196,-0.001347,0.007066,0.000531,0.007099,-0.001380,86.400795,0.007528,
1150,1570,0.209702,-3.187616,0.999997,0.000200,-0.002862,0.007151,0.000796,0.007214,-0.002925,85.485646,0.007257,
1620,1450,-1.714800,-5.337192,0.999997,0.000185,-0.005807,0.010687,-0.000499,0.010703,-0.005822,-88.268036,0.010716,
1480,2020,-0.026419,-0.097874,0.999998,0.000000,-0.000154,0.006401,0.000778,0.006492,-0.000245,83.326125,0.007358,
1460,1140,-1.992289,-8.371968,0.999993,0.000315,-0.006615,0.014286,-0.000007,0.014286,-0.006615,-89.980738,0.014299,
660,1760,1.767871,-2.751963,0.999995,0.000270,-0.004773,0.010118,-0.000293,0.010124,-0.004779,-88.874081,0.010129,
1180,1550,0.129766,-3.286770,0.999998,0.000168,-0.002580,0.006910,0.000431,0.006930,-0.002600,87.407221,0.007001,
1620,2020,-0.065810,-0.110424,0.999997,0.000000,0.000078,0.006932,0.001599,0.007287,-0.000277,77.495493,0.008259,
1410,1190,-1.248756,-7.107220,0.999992,0.000324,-0.007258,0.012729,-0.002894,0.013139,-0.007668,-81.925919,0.013200,
710,1940,0.631547,-0.818670,0.999995,0.000278,-0.003439,0.009244,-0.002273,0.009639,-0.003834,-80.138684,0.009706,
970,1790,0.498346,-1.771970,0.999996,0.000226,-0.002708,0.008019,-0.000236,0.008024,-0.002713,-88.740459,0.008163,
1030,1100,2.115938,-8.725442,0.999991,0.000420,-0.006601,0.016537,0.002266,0.016757,-0.006821,84.460157,0.016853,
1760,680,-2.745156,-13.587567,0.999995,0.000246,-0.005421,0.010509,-0.000427,0.010520,-0.005432,-88.467183,0.010522,
930,1870,0.413513,-1.181133,0.999997,0.000219,-0.001846,0.007778,-0.000854,0.007853,-0.001922,-84.966671,0.008187,
1210,1810,0.035704,-1.439951,0.999998,0.000181,-0.001524,0.006842,0.000042,0.006842,-0.001524,89.711413,0.007184,
850,350,1.091112,-17.401499,0.999997,0.000187,-0.003889,0.009428,0.000094,0.009429,-0.003890,89.595876,0.009477,
1760,850,-3.356941,-11.821035,0.999995,0.000251,-0.004963,0.010009,-0.000964,0.010071,-0.005025,-86.332080,0.010071,
1870,710,-3.416047,-12.979740,0.999997,0.000227,-0.004926,0.009861,-0.000241,0.009865,-0.004930,-89.065418,0.009865,
880,1960,0.228365,-0.527992,0.999998,0.000186,-0.001363,0.007295,-0.001321,0.007492,-0.001560,-81.512264,0.007906,
1680,1030,-3.364136,-10.054885,0.999996,0.000259,-0.004121,0.010036,0.000055,0.010036,-0.004122,89.776868,0.010089,
640,240,1.632238,-17.905607,0.999996,0.000248,-0.004727,0.010132,0.000497,0.010149,-0.004744,88.087332,0.010156,
610,2010,0.372941,-0.340124,0.999992,0.000364,-0.003383,0.009940,-0.003563,0.010834,-0.004277,-75.929067,0.010913,
1110,1420,0.345547,-4.392704,0.999996,0.000244,-0.003774,0.007437,0.002317,0.007897,-0.004233,78.772162,0.007904,
1000,1380,0.920174,-5.374514,0.999994,0.000291,-0.006097,0.010450,0.002171,0.010730,-0.006377,82.648251,0.010794,
670,100,0.659865,-19.420785,0.999996,0.000233,-0.002617,0.009661,0.003072,0.010387,-0.003343,76.708589,0.010604,
810,550,1.756467,-15.295226,0.999996,0.000233,-0.005419,0.010440,-0.000425,0.010451,-0.005431,-88.465222,0.010454,
1380,1630,-0.377007,-2.856290,0.999996,0.000250,-0.002974,0.007738,-0.000705,0.007784,-0.003020,-86.251209,0.007849,
1300,150,-0.056477,-19.347280,0.999998,0.000166,-0.000736,0.006519,-0.000179,0.006523,-0.000741,-88.590752,0.007143,
1300,1830,-0.092232,-1.313451,0.999997,0.000191,-0.001285,0.006841,0.000108,0.006842,-0.001287,89.236515,0.007273,
1700,700,-2.482350,-13.531334,0.999995,0.000275,-0.005814,0.010874,-0.000479,0.010887,-0.005828,-88.357809,0.010896,
1030,220,0.295998,-18.798668,0.999998,0.000191,-0.001835,0.007363,0.000272,0.007371,-0.001843,88.308435,0.007672,
1490,30,-0.021572,-20.089731,0.999999,0.000000,-0.000333,0.006318,-0.000814,0.006417,-0.000431,-83.125656,0.007173,
1790,1170,-3.613980,-8.727378,0.999995,0.000258,-0.004722,0.009723,0.000860,0.009774,-0.004773,86.604387,0.009775,
1600,1450,-1.597874,-5.260039,0.999994,0.000278,-0.005809,0.010649,-0.000607,0.010671,-0.005832,-87.890854,0.010686,
1150,1610,0.201757,-2.895575,0.999998,0.000167,-0.002720,0.007253,0.000603,0.007289,-0.002756,86.553716,0.007361,
1140,510,0.241756,-16.770980,0.999997,0.000204,-0.002929,0.007208,-0.000950,0.007297,-0.003017,-84.691411,0.007333,
840,90,0.266972,-19.648464,0.999997,0.000219,-0.001015,0.007529,0.001713,0.007860,-0.001346,79.075263,0.008407,
1610,2020,-0.066860,-0.108163,0.999998,0.000000,-0.000187,0.006862,0.001472,0.007157,-0.000482,78.662980,0.008000,
980,1950,0.154596,-0.563179,0.999997,0.000191,-0.000881,0.006916,-0.000830,0.007004,-0.000969,-83.993949,0.007590,
1500,1360,-1.193360,-5.804929,0.999994,0.000278,-0.006625,0.011211,-0.001546,0.011344,-0.006758,-85.081619,0.011413,
970,1770,0.536867,-1.937605,0.999996,0.000242,-0.002870,0.008135,-0.000152,0.008137,-0.002872,-89.210205,0.008253,
1100,50,0.025296,-19.973539,0.999998,0.000151,-0.000205,0.006108,0.000334,0.006126,-0.000223,86.983679,0.006948,
1650,1580,-1.557614,-4.082432,0.999995,0.000233,-0.005019,0.010052,-0.000413,0.010063,-0.005030,-88.432754,0.010063,
1470,1260,-1.298655,-6.807729,0.999994,0.000305,-0.007763,0.012600,-0.001424,0.012699,-0.007862,-86.017645,0.012818,
1400,1890,-0.167163,-0.944300,0.999997,0.000170,-0.001222,0.006852,0.000385,0.006870,-0.001240,87.279488,0.007322,
1760,830,-3.290267,-12.021103,0.999994,0.000291,-0.005069,0.010152,-0.001004,0.010218,-0.005135,-86.240733,0.010218,
1860,710,-3.367044,-13.007971,0.999997,0.000212,-0.004950,0.009911,-0.000298,0.009917,-0.004956,-88.851103,0.009917,
1580,1730,-0.902068,-2.445208,0.999997,0.000207,-0.003869,0.009162,0.000020,0.009162,-0.003869,89.910124,0.009198,
1110,470,0.320495,-17.008194,0.999997,0.000196,-0.002860,0.007523,-0.000773,0.007580,-0.002917,-85.766491,0.007646,
930,540,1.099705,-15.830074,0.999996,0.000249,-0.005012,0.009832,-0.001037,0.009904,-0.005084,-86.022376,0.009906,
1590,330,-0.953682,-17.642962,0.999996,0.000242,-0.003882,0.009275,-0.000048,0.009275,-0.003882,-89.791709,0.009316,
600,1990,0.600334,-0.572748,0.999993,0.000320,-0.004073,0.011376,-0.003208,0.012016,-0.004712,-78.723598,0.012109,
1880,420,-2.557216,-15.889481,0.999995,0.000283,-0.004933,0.009918,0.000064,0.009918,-0.004934,89.753419,0.009918,
1370,640,-0.409711,-15.647444,0.999994,0.000265,-0.004127,0.007867,0.002434,0.008342,-0.004602,78.955803,0.008357,
1300,1280,-0.175623,-4.932087,0.999996,0.000267,-0.003419,0.004522,-0.003498,0.005843,-0.004740,-69.310201,0.006209,
1840,1360,-3.214930,-6.943307,0.999996,0.000237,-0.005059,0.010067,0.000356,0.010075,-0.005067,88.654011,0.010075,
1760,660,-2.676832,-13.798411,0.999995,0.000258,-0.005431,0.010454,-0.000355,0.010462,-0.005439,-88.720186,0.010465,
1700,680,-2.410047,-13.750538,0.999994,0.000280,-0.005762,0.010835,-0.000365,0.010843,-0.005770,-88.740106,0.010850,
1850,1960,-0.826848,-0.864983,0.999996,0.000216,-0.004701,0.010738,0.002172,0.011038,-0.005001,82.143136,0.011054,
1690,1480,-2.025063,-5.251590,0.999995,0.000254,-0.005511,0.010512,-0.000181,0.010514,-0.005513,-89.352519,0.010518,
660,1780,1.689975,-2.548103,0.999996,0.000230,-0.004732,0.010119,-0.000457,0.010133,-0.004746,-88.240552,0.010139,
790,1880,0.720125,-1.254927,0.999996,0.000222,-0.003236,0.008866,-0.001398,0.009025,-0.003396,-83.495551,0.009117,
850,330,1.039731,-17.593660,0.999997,0.000221,-0.003820,0.009416,0.000146,0.009418,-0.003822,89.367460,0.009473,
1660,1980,-0.241034,-0.406515,0.999996,0.000228,-0.001239,0.007638,0.001982,0.008061,-0.001662,77.970824,0.008512,
930,1850,0.470402,-1.344788,0.999996,0.000228,-0.002111,0.007987,-0.000786,0.008048,-0.002172,-85.573371,0.008327,
1530,1010,-2.786273,-10.282784,0.999997,0.000223,-0.003669,0.011757,-0.000372,0.011766,-0.003678,-88.620332,0.012039,
1000,990,2.466080,-10.660243,0.999990,0.000381,-0.005171,0.015289,-0.000047,0.015289,-0.005172,-89.868169,0.015554,
1610,1710,-1.066879,-2.703878,0.999997,0.000194,-0.003846,0.009387,0.000107,0.009387,-0.003847,89.538421,0.009438,
1420,630,-0.632298,-15.468635,0.999995,0.000283,-0.004932,0.008937,0.002224,0.009285,-0.005280,81.108677,0.009314,
1660,1030,-3.282197,-10.055092,0.999996,0.000233,-0.004025,0.010175,0.000042,0.010175,-0.004025,89.830694,0.010249,
1180,1230,0.237940,-4.968810,0.999996,0.000240,-0.004333,0.003187,0.001966,0.003670,-0.004816,76.198902,0.005032,
1280,150,-0.040825,-19.349857,0.999998,0.000143,-0.000779,0.006509,-0.000119,0.006511,-0.000781,-89.067943,0.007110,
710,690,2.742985,-13.499250,0.999997,0.000230,-0.005456,0.010545,0.000482,0.010559,-0.005471,88.275962,0.010562,
1740,850,-3.257723,-11.845413,0.999996,0.000252,-0.005029,0.010188,-0.001043,0.010259,-0.005100,-86.098124,0.010259,
1160,1460,0.184216,-3.935317,0.999997,0.000203,-0.002899,0.006550,0.001355,0.006740,-0.003089,81.999770,0.006748,
1610,1160,-2.755337,-8.640190,0.999996,0.000232,-0.005261,0.011348,0.001410,0.011467,-0.005380,85.180398,0.011474,
650,100,0.712869,-19.393809,0.999994,0.000288,-0.003094,0.010167,0.002984,0.010808,-0.003734,77.884323,0.010979,
1480,30,-0.017809,-20.090861,0.999998,0.000000,-0.000205,0.006267,-0.000819,0.006369,-0.000307,-82.898554,0.007183,
1790,1150,-3.664267,-8.919931,0.999996,0.000249,-0.004599,0.009500,0.000678,0.009532,-0.004632,87.251750,0.009534,
1000,1630,0.648692,-3.048190,0.999996,0.000230,-0.003658,0.008521,0.000748,0.008567,-0.003704,86.500489,0.008593,
710,440,1.982397,-16.101824,0.999996,0.000245,-0.004974,0.010130,-0.000181,0.010132,-0.004976,-89.315377,0.010133,
630,1420,2.973749,-6.312379,0.999996,0.000237,-0.005090,0.010204,-0.000167,0.010205,-0.005092,-89.375564,0.010205,
1460,1120,-2.136335,-8.667261,0.999994,0.000288,-0.006119,0.014536,-0.000047,0.014536,-0.006119,-89.868654,0.014596,
950,740,1.410491,-13.757653,0.999994,0.000287,-0.007129,0.011937,-0.001035,0.011993,-0.007185,-86.901328,0.012071,
1110,450,0.313691,-17.158908,0.999998,0.000203,-0.002758,0.007525,-0.000648,0.007566,-0.002799,-86.405898,0.007651,
1590,310,-0.902727,-17.834075,0.999996,0.000240,-0.003783,0.009035,-0.000147,0.009036,-0.003785,-89.343351,0.009076,
1470,220,-0.365806,-18.765624,0.999997,0.000210,-0.001835,0.007596,-0.000501,0.007622,-0.001862,-86.969251,0.007948,
1570,1860,-0.517953,-1.297219,0.999996,0.000237,-0.002385,0.008213,0.000922,0.008292,-0.002465,85.063456,0.008516,
960,1950,0.176851,-0.571090,0.999997,0.000200,-0.001143,0.007010,-0.000926,0.007114,-0.001246,-83.598796,0.007598,
1500,1770,-0.559130,-1.948555,0.999997,0.000225,-0.002937,0.008209,0.000140,0.008211,-0.002939,89.281659,0.008321,
1580,1710,-0.948493,-2.628778,0.999997,0.000189,-0.004077,0.009124,-0.000119,0.009125,-0.004078,-89.484970,0.009142,
1620,130,-0.413258,-19.338486,0.999997,0.000217,-0.001645,0.007957,-0.001578,0.008209,-0.001898,-80.904393,0.008596,
810,530,1.707285,-15.502822,0.999996,0.000229,-0.005300,0.010319,-0.000418,0.010330,-0.005311,-88.466475,0.010331,
810,740,2.346612,-13.214557,0.999995,0.000275,-0.006150,0.011277,0.000575,0.011296,-0.006169,88.110919,0.011312,
1050,520,0.542165,-16.451853,0.999996,0.000227,-0.003788,0.008344,-0.001320,0.008486,-0.003930,-83.861764,0.008494,
930,520,1.069126,-16.022586,0.999997,0.000225,-0.004764,0.009623,-0.000964,0.009687,-0.004829,-86.185024,0.009687,
1300,1260,-0.209203,-5.019024,0.999995,0.000264,-0.003712,0.004293,-0.003554,0.005643,-0.005062,-69.200553,0.006208,
1270,650,-0.086581,-15.975665,0.999998,0.000191,-0.002477,0.005503,0.001042,0.005637,-0.002611,82.679655,0.005642,
770,310,1.312843,-17.586552,0.999996,0.000257,-0.004322,0.009723,0.000285,0.009729,-0.004327,88.837046,0.009749,
1490,2020,-0.030097,-0.098441,0.999998,0.000000,-0.000297,0.006424,0.000770,0.006511,-0.000385,83.547516,0.007307,
1500,1340,-1.242129,-6.033520,0.999994,0.000289,-0.006889,0.011500,-0.001479,0.011618,-0.007007,-85.432416,0.011701,
970,1750,0.575027,-2.097870,0.999997,0.000217,-0.003047,0.008229,0.000005,0.008229,-0.003047,89.973560,0.008320,
1870,1200,-3.894303,-8.570226,0.999995,0.000236,-0.004487,0.009247,0.000388,0.009258,-0.004498,88.381930,0.009259,
590,1990,0.643955,-0.610845,0.999992,0.000354,-0.003777,0.011871,-0.003612,0.012664,-0.004571,-77.609143,0.012827,
1840,1340,-3.282247,-7.145445,0.999995,0.000254,-0.005013,0.010009,0.000409,0.010020,-0.005024,88.440602,0.010020,
1690,1460,-2.083162,-5.464144,0.999995,0.000262,-0.005577,0.010586,-0.000142,0.010588,-0.005578,-89.495753,0.010593,
1000,970,2.378276,-10.951963,0.999992,0.000314,-0.005391,0.014697,-0.000020,0.014697,-0.005391,-89.944289,0.014870,
1700,880,-3.156713,-11.580168,0.999996,0.000234,-0.004995,0.010472,-0.001188,0.010563,-0.005086,-85.632225,0.010565,
1850,1940,-0.996027,-1.077989,0.999996,0.000217,-0.004812,0.010659,0.001590,0.010820,-0.004974,84.191600,0.010832,
1760,640,-2.608252,-14.005473,0.999995,0.000276,-0.005396,0.010445,-0.000241,0.010449,-0.005400,-89.130183,0.010451,
770,1880,0.786389,-1.286233,0.999996,0.000202,-0.003115,0.009086,-0.001596,0.009292,-0.003320,-82.667985,0.009417,
660,1800,1.604392,-2.345619,0.999996,0.000245,-0.004677,0.010186,-0.000628,0.010212,-0.004704,-87.586730,0.010223,
1080,150,0.130836,-19.325698,0.999999,0.000120,-0.000879,0.006784,0.000414,0.006806,-0.000901,86.913361,0.007394,
930,1830,0.515294,-1.503544,0.999997,0.000216,-0.002331,0.008066,-0.000634,0.008105,-0.002370,-86.521625,0.008334,
930,1060,2.773546,-9.700888,0.999997,0.000206,-0.003792,0.011936,-0.000680,0.011965,-0.003821,-87.527413,0.012223,
820,1310,2.305694,-6.975715,0.999995,0.000280,-0.006209,0.011355,-0.000560,0.011373,-0.006227,-88.176375,0.011390,
890,920,2.671024,-11.288854,0.999996,0.000230,-0.005077,0.011630,0.001452,0.011756,-0.005202,85.070070,0.011782,
850,310,0.989415,-17.781501,0.999997,0.000208,-0.003734,0.009123,0.000224,0.009127,-0.003738,89.003335,0.009177,
1790,1130,-3.707599,-9.108824,0.999996,0.000241,-0.004530,0.009509,0.000687,0.009542,-0.004564,87.203159,0.009545,
1610,1690,-1.119536,-2.891790,0.999997,0.000215,-0.004009,0.009311,-0.000018,0.009311,-0.004009,-89.924023,0.009341,
1660,1960,-0.326502,-0.560920,0.999997,0.000221,-0.001644,0.007889,0.001922,0.008261,-0.002017,79.020746,0.008614,
1470,2020,-0.026180,-0.098305,0.999998,0.000000,-0.000033,0.006366,0.000780,0.006460,-0.000127,83.153350,0.007387,
1420,610,-0.623071,-15.645619,0.999996,0.000244,-0.004650,0.008896,0.002060,0.009203,-0.004956,81.540196,0.009212,
1500,1950,-0.173936,-0.570250,0.999998,0.000211,-0.001110,0.007016,0.000879,0.007110,-0.001204,83.895362,0.007611,
1110,430,0.303792,-17.309639,0.999998,0.000208,-0.002702,0.007510,-0.000591,0.007544,-0.002736,-86.699823,0.007639,
800,1700,1.315393,-2.930654,0.999995,0.000243,-0.004567,0.009644,0.000022,0.009644,-0.004567,89.912407,0.009648,
1590,290,-0.853139,-18.009389,0.999997,0.000212,-0.003636,0.008949,-0.000316,0.008957,-0.003644,-88.560976,0.009009,
1160,1440,0.182474,-4.065697,0.999998,0.000174,-0.002902,0.006380,0.001507,0.006619,-0.003140,81.002451,0.006621,
1470,1600,-0.712837,-3.331670,0.999996,0.000228,-0.003946,0.008757,-0.000919,0.008823,-0.004012,-85.883729,0.008835,
1020,820,1.207992,-13.259970,0.999994,0.000299,-0.007841,0.012671,-0.002002,0.012865,-0.008035,-84.476513,0.012997,
1050,560,0.564808,-16.111621,0.999996,0.000225,-0.004222,0.008492,-0.001729,0.008723,-0.004452,-82.391771,0.008724,
1800,1790,-1.636257,-2.437632,0.999997,0.000270,-0.004724,0.010142,0.000571,0.010164,-0.004745,87.802700,0.010172,
1560,1730,-0.824110,-2.397886,0.999997,0.000204,-0.003449,0.008943,0.000054,0.008943,-0.003449,89.748067,0.009021,
770,290,1.247859,-17.778528,0.999997,0.000211,-0.004223,0.009713,0.000489,0.009730,-0.004240,87.992185,0.009757,
1450,220,-0.329085,-18.783238,0.999997,0.000211,-0.001791,0.007451,-0.000391,0.007468,-0.001807,-87.582653,0.007792,
790,740,2.470904,-13.158205,0.999995,0.000266,-0.005983,0.011118,0.000664,0.011143,-0.006009,87.778962,0.011155,
1360,1480,-0.366466,-3.967559,0.999996,0.000226,-0.003611,0.007579,-0.001774,0.007854,-0.003885,-81.201915,0.007854,
1680,1430,-2.114128,-5.754206,0.999995,0.000256,-0.005717,0.010777,-0.000046,0.010777,-0.005718,-89.840176,0.010783,
1300,1240,-0.266179,-5.097265,0.999995,0.000261,-0.004147,0.004105,-0.003337,0.005286,-0.005328,-70.520302,0.006128,
1180,650,0.121063,-15.941555,0.999996,0.000233,-0.002652,0.005707,-0.001449,0.005951,-0.002896,-80.436704,0.005952,
600,610,3.045620,-14.011973,0.999997,0.000228,-0.005017,0.010151,0.000046,0.010151,-0.005017,89.824650,0.010151,
970,1730,0.608625,-2.267809,0.999997,0.000213,-0.003200,0.008456,0.000126,0.008457,-0.003202,89.381035,0.008540,
1260,420,-0.064086,-17.482921,0.999997,0.000217,-0.002376,0.007084,0.000253,0.007091,-0.002382,88.471733,0.007217,
1530,1210,-2.013707,-7.817759,0.999996,0.000250,-0.006992,0.012861,0.000698,0.012885,-0.007016,87.987634,0.012902,
1330,300,-0.181626,-18.302432,0.999998,0.000161,-0.002066,0.007179,0.000192,0.007183,-0.002070,88.813434,0.007395,
1620,150,-0.483802,-19.179284,0.999996,0.000252,-0.001931,0.008222,-0.001515,0.008443,-0.002153,-81.689689,0.008774,
580,1990,0.686311,-0.647908,0.999992,0.000344,-0.003761,0.012606,-0.004220,0.013630,-0.004785,-76.360801,0.013830,
1770,1200,-3.421595,-8.402931,0.999994,0.000295,-0.004910,0.009974,0.000961,0.010036,-0.004972,86.322804,0.010036,
980,990,2.559834,-10.601588,0.999994,0.000296,-0.004432,0.013859,0.000467,0.013871,-0.004444,88.537687,0.014166,
1840,1320,-3.353023,-7.344851,0.999995,0.000234,-0.004957,0.009898,0.000462,0.009912,-0.004971,88.222000,0.009912,
1100,1890,0.130226,-0.931546,0.999998,0.000191,-0.001023,0.006779,-0.000299,0.006790,-0.001034,-87.811239,0.007317,
1830,1940,-0.900016,-0.980129,0.999996,0.000223,-0.004390,0.010557,0.001874,0.010788,-0.004621,82.962336,0.010825,
1060,150,0.151351,-19.316507,0.999998,0.000137,-0.001127,0.006846,0.000426,0.006869,-0.001150,86.948092,0.007358,
1720,320,-1.462876,-17.416648,0.999995,0.000258,-0.004468,0.009902,-0.000272,0.009907,-0.004474,-88.917762,0.009923,
930,1810,0.567176,-1.669912,0.999997,0.000209,-0.002579,0.008282,-0.000568,0.008312,-0.002608,-87.017015,0.008502,
710,670,2.672180,-13.711924,0.999996,0.000267,-0.005493,0.010524,0.000393,0.010534,-0.005503,88.594381,0.010538,
1610,1670,-1.161431,-3.077230,0.999997,0.000230,-0.004197,0.009422,-0.000159,0.009424,-0.004199,-89.331414,0.009443,
1500,1320,-1.301424,-6.268892,0.999994,0.000277,-0.007132,0.011795,-0.001322,0.011887,-0.007224,-86.022549,0.011978,
950,720,1.348864,-13.993711,0.999992,0.000353,-0.006954,0.011666,-0.001200,0.011743,-0.007031,-86.328050,0.011819,
1470,30,-0.016781,-20.090600,0.999999,0.000000,-0.000032,0.006231,-0.000830,0.006339,-0.000141,-82.578558,0.007240,
1500,30,-0.027082,-20.088378,0.999998,0.000000,-0.000327,0.006379,-0.000848,0.006485,-0.000432,-82.904694,0.007252,
1790,1110,-3.751673,-9.302103,0.999996,0.000244,-0.004513,0.009528,0.000678,0.009560,-0.004545,87.241744,0.009564,
1580,890,-2.569032,-11.630455,0.999994,0.000281,-0.005601,0.011869,-0.001463,0.011991,-0.005723,-85.245824,0.011995,
800,1310,2.427722,-7.030008,0.999995,0.000302,-0.006051,0.011211,-0.000650,0.011236,-0.006076,-87.847685,0.011248,
1110,410,0.298235,-17.458965,0.999997,0.000220,-0.002643,0.007447,-0.000535,0.007475,-0.002672,-86.972715,0.007576,
1760,620,-2.542582,-14.216718,0.999995,0.000252,-0.005367,0.010466,-0.000125,0.010467,-0.005368,-89.546412,0.010468,
1490,1600,-0.790740,-3.389684,0.999997,0.000205,-0.003915,0.008882,-0.000798,0.008931,-0.003964,-86.444449,0.008950,
670,310,1.774166,-17.287324,0.999997,0.000212,-0.004799,0.010080,0.000160,0.010082,-0.004801,89.385893,0.010085,
1660,1940,-0.419338,-0.725204,0.999996,0.000250,-0.002007,0.008192,0.001841,0.008514,-0.002330,80.073413,0.008801,
810,510,1.658834,-15.709831,0.999996,0.000213,-0.005213,0.010244,-0.000412,0.010255,-0.005224,-88.475369,0.010256,
620,1650,2.328157,-3.997901,0.999995,0.000250,-0.005027,0.010048,0.000128,0.010049,-0.005028,89.512073,0.010049,
850,290,0.937175,-17.959209,0.999997,0.000205,-0.003596,0.009123,0.000440,0.009138,-0.003611,88.020951,0.009205,
1300,1220,-0.359835,-5.178677,0.999990,0.000376,-0.004503,0.003828,-0.002207,0.004376,-0.005051,-76.042849,0.005485,
770,270,1.176065,-17.975736,0.999997,0.000189,-0.004080,0.009572,0.000637,0.009602,-0.004110,87.334805,0.009635,
1160,1420,0.178628,-4.192384,0.999998,0.000192,-0.002891,0.006250,0.001674,0.006547,-0.003188,79.942540,0.006547,
1010,730,0.957887,-14.253496,0.999994,0.000286,-0.006875,0.011148,-0.002393,0.011460,-0.007187,-82.565104,0.011583,
1230,220,0.002947,-18.892824,0.999997,0.000177,-0.001384,0.006695,0.000001,0.006695,-0.001384,89.992422,0.007068,
1590,270,-0.794505,-18.191657,0.999997,0.000202,-0.003490,0.008791,-0.000413,0.008805,-0.003504,-88.074023,0.008866,
720,730,2.831553,-13.100939,0.999995,0.000256,-0.005518,0.010485,0.000711,0.010517,-0.005549,87.460600,0.010522,
1160,650,0.175921,-15.875918,0.999998,0.000192,-0.002845,0.006090,-0.001786,0.006434,-0.003189,-79.106832,0.006434,
1360,1460,-0.369287,-4.123095,0.999996,0.000242,-0.003672,0.007589,-0.001922,0.007908,-0.003991,-80.576667,0.007908,
790,1520,1.825527,-4.776114,0.999998,0.000198,-0.005342,0.010395,0.000354,0.010403,-0.005350,88.710356,0.010404,
1260,1840,-0.038451,-1.237485,0.999998,0.000180,-0.001269,0.006741,-0.000021,0.006741,-0.001269,-89.847906,0.007164,
600,590,2.982322,-14.215559,0.999997,0.000204,-0.005059,0.010144,0.000043,0.010145,-0.005059,89.838326,0.010145,
1050,540,0.552692,-16.285043,0.999996,0.000228,-0.004024,0.008415,-0.001525,0.008599,-0.004208,-83.111786,0.008600,
1370,300,-0.267471,-18.263201,0.999998,0.000195,-0.002022,0.007393,0.000027,0.007393,-0.002022,89.836999,0.007641,
910,1060,2.848459,-9.715068,0.999994,0.000308,-0.003779,0.011414,-0.000692,0.011445,-0.003811,-87.397025,0.011656,
1000,690,0.943606,-14.628520,0.999996,0.000234,-0.006313,0.010699,-0.002179,0.010974,-0.006588,-82.815584,0.011048,
1840,560,-2.772121,-14.593762,0.999996,0.000224,-0.005090,0.010227,0.000015,0.010227,-0.005090,89.944954,0.010227,
1550,650,-1.405399,-14.609610,0.999996,0.000281,-0.006152,0.010984,0.000956,0.011037,-0.006205,86.816841,0.011066,
610,2000,0.462720,-0.431005,0.999995,0.000287,-0.003896,0.010385,-0.003284,0.011104,-0.004615,-77.652002,0.011156,
1610,1650,-1.206793,-3.267440,0.999996,0.000262,-0.004381,0.009560,-0.000231,0.009563,-0.004384,-89.049301,0.009574,
1670,960,-3.245661,-10.770136,0.999996,0.000216,-0.004362,0.010291,-0.000912,0.010347,-0.004418,-86.453628,0.010384,
970,1710,0.641372,-2.436436,0.999997,0.000225,-0.003404,0.008453,0.000299,0.008461,-0.003412,88.557017,0.008513,
690,1900,0.958143,-1.244970,0.999997,0.000223,-0.004066,0.009958,-0.001833,0.010194,-0.004301,-82.673781,0.010235,
1700,250,-1.130406,-18.149910,0.999996,0.000237,-0.003944,0.009647,-0.000889,0.009705,-0.004002,-86.273544,0.009754,
1200,150,0.027700,-19.351618,0.999999,0.000137,-0.000858,0.006448,0.000080,0.006449,-0.000859,89.371454,0.007003,
1710,230,-1.088124,-18.326762,0.999997,0.000198,-0.003703,0.009650,-0.001133,0.009746,-0.003799,-85.186409,0.009824,
570,1740,2.269270,-3.288197,0.999927,0.001022,-0.004496,0.009714,0.000014,0.009714,-0.004496,89.943775,0.009723,
1500,1300,-1.370130,-6.511831,0.999993,0.000300,-0.007319,0.012124,-0.001141,0.012191,-0.007386,-86.651625,0.012281,
1630,1200,-2.688383,-8.210916,0.999997,0.000216,-0.005685,0.011353,0.001304,0.011452,-0.005784,85.648894,0.011452,
1460,2020,-0.026169,-0.098949,0.999998,0.000000,0.000074,0.006296,0.000730,0.006380,-0.000010,83.401334,0.007362,
710,650,2.603389,-13.923106,0.999995,0.000274,-0.005471,0.010469,0.000302,0.010474,-0.005476,88.914418,0.010478,
1610,30,-0.043010,-20.083220,0.999998,0.000000,-0.000011,0.006778,-0.001668,0.007166,-0.000399,-76.914677,0.008054,
1370,1820,-0.205598,-1.420960,0.999997,0.000190,-0.001543,0.007162,0.000192,0.007166,-0.001547,88.734453,0.007542,
1040,1950,0.110391,-0.547394,0.999998,0.000186,-0.000842,0.006657,-0.000553,0.006697,-0.000883,-85.808534,0.007278,
1100,1310,0.419394,-5.303792,0.999993,0.000335,-0.005296,0.008208,0.003891,0.009249,-0.006337,75.022979,0.009458,
1790,1090,-3.788383,-9.492524,0.999996,0.000242,-0.004426,0.009383,0.000371,0.009393,-0.004436,88.460458,0.009398,
1110,390,0.288645,-17.607464,0.999997,0.000223,-0.002552,0.007495,-0.000418,0.007512,-0.002569,-87.622202,0.007636,
930,740,1.551616,-13.653560,0.999994,0.000274,-0.007064,0.011987,-0.000649,0.012009,-0.007086,-88.050340,0.012074,
930,1790,0.611688,-1.833856,0.999996,0.000231,-0.002727,0.008292,-0.000396,0.008306,-0.002741,-87.946225,0.008465,
1510,1840,-0.440810,-1.397479,0.999997,0.000208,-0.002349,0.007826,0.000515,0.007852,-0.002375,87.108309,0.008054,
1300,1420,-0.169775,-4.182661,0.999997,0.000199,-0.002834,0.006167,-0.001669,0.006467,-0.003134,-79.825765,0.006468,
1560,890,-2.452525,-11.676487,0.999995,0.000259,-0.005841,0.012191,-0.001420,0.012302,-0.005952,-85.523326,0.012304,
1660,1920,-0.504314,-0.886465,0.999995,0.000261,-0.002416,0.008330,0.001648,0.008577,-0.002663,81.473964,0.008780,
850,270,0.873682,-18.147885,0.999996,0.000229,-0.003408,0.008984,0.000568,0.009010,-0.003434,87.382316,0.009095,
810,470,1.560743,-16.116069,0.999996,0.000220,-0.004976,0.010074,-0.000374,0.010084,-0.004985,-88.576026,0.010084,
1590,1600,-1.221473,-3.692654,0.999998,0.000199,-0.004655,0.009696,-0.000530,0.009716,-0.004675,-87.887097,0.009718,
770,250,1.103831,-18.163258,0.999997,0.000188,-0.003932,0.009568,0.000836,0.009620,-0.003984,86.468873,0.009667,
1760,600,-2.481477,-14.427802,0.999995,0.000254,-0.005347,0.010408,-0.000051,0.010408,-0.005347,-89.815090,0.010409,
1590,250,-0.742344,-18.361765,0.999997,0.000196,-0.003281,0.008716,-0.000583,0.008744,-0.003310,-87.222317,0.008830,
600,1570,2.666684,-4.874735,0.999996,0.000228,-0.005069,0.010118,0.000085,0.010119,-0.005070,89.681150,0.010119,
1570,480,-1.176193,-16.287487,0.999996,0.000251,-0.004709,0.009717,0.000665,0.009748,-0.004739,87.365216,0.009749,
600,1650,2.428043,-4.065869,0.999996,0.000240,-0.004946,0.009987,0.000092,0.009987,-0.004947,89.645581,0.009988,
670,290,1.702133,-17.490443,0.999997,0.000222,-0.004748,0.010126,0.000313,0.010133,-0.004755,88.795403,0.010139,
1410,1170,-1.401337,-7.378634,0.999992,0.000339,-0.006934,0.013079,-0.003099,0.013548,-0.007403,-81.395832,0.013567,
930,400,0.876636,-17.149490,0.999998,0.000166,-0.003781,0.008968,-0.000375,0.008979,-0.003792,-88.314576,0.009016,
1330,740,-0.261031,-15.177303,0.999996,0.000243,-0.004093,0.006443,0.003686,0.007604,-0.005254,72.508875,0.007787,
1420,1350,-0.701626,-5.399499,0.999995,0.000269,-0.005963,0.009920,-0.002927,0.010442,-0.006486,-79.883982,0.010544,
970,360,0.666430,-17.597314,0.999997,0.000201,-0.003499,0.008463,-0.000389,0.008475,-0.003511,-88.137436,0.008517,
700,730,2.941193,-13.054971,0.999995,0.000258,-0.005363,0.010398,0.000672,0.010426,-0.005392,87.564460,0.010428,
1840,1300,-3.424259,-7.542678,0.999996,0.000233,-0.004914,0.009808,0.000507,0.009825,-0.004931,88.031245,0.009825,
1780,1030,-3.789143,-10.055239,0.999997,0.000221,-0.004344,0.009463,0.000059,0.009463,-0.004344,89.755443,0.009474,
1260,1800,-0.047618,-1.513453,0.999998,0.000180,-0.001532,0.006875,-0.000050,0.006876,-0.001533,-89.659297,0.007219,
710,980,3.637787,-10.541085,0.999994,0.000274,-0.004361,0.009579,0.000314,0.009586,-0.004368,88.710958,0.009599,
1210,1790,0.034228,-1.578008,0.999998,0.000187,-0.001662,0.006904,0.000076,0.006905,-0.001663,89.493615,0.007207,
1160,1400,0.175998,-4.315496,0.999997,0.000203,-0.002890,0.006078,0.001854,0.006446,-0.003259,78.770014,0.006446,
1610,1630,-1.251344,-3.459025,0.999997,0.000247,-0.004584,0.009705,-0.000345,0.009714,-0.004592,-88.616260,0.009718,
570,1730,2.309288,-3.379142,0.999905,0.001168,-0.004491,0.009465,-0.000038,0.009466,-0.004491,-89.844014,0.009470,
570,1980,0.834265,-0.805430,0.999956,0.000750,-0.004442,0.012954,-0.003530,0.013643,-0.005131,-78.954142,0.013782,
1790,1510,-2.471894,-5.256069,0.999995,0.000259,-0.005209,0.010287,-0.000053,0.010287,-0.005209,-89.803303,0.010287,
970,1690,0.673198,-2.607711,0.999997,0.000248,-0.003575,0.008514,0.000438,0.008530,-0.003591,87.926035,0.008565,
1500,1280,-1.443001,-6.756999,0.999993,0.000302,-0.007509,0.012460,-0.000906,0.012501,-0.007550,-87.407898,0.012591,
970,1480,0.949967,-4.519185,0.999996,0.000235,-0.005038,0.009744,0.001436,0.009882,-0.005176,84.500703,0.009886,
720,310,1.533448,-17.449901,0.999997,0.000245,-0.004727,0.010020,0.000201,0.010023,-0.004730,89.218593,0.010028,
960,1890,0.313979,-1.008853,0.999998,0.000181,-0.001813,0.007438,-0.000736,0.007496,-0.001871,-85.482392,0.007803,
730,1980,0.332379,-0.445025,0.999997,0.000219,-0.001636,0.008172,-0.002571,0.008805,-0.002269,-76.168993,0.009143,
1180,150,0.041720,-19.349402,0.999998,0.000154,-0.000748,0.006479,0.000142,0.006482,-0.000751,88.874549,0.007091,
640,220,1.533556,-18.109173,0.999996,0.000262,-0.004707,0.010231,0.000681,0.010262,-0.004738,87.395253,0.010272,
1480,1950,-0.154990,-0.563012,0.999998,0.000192,-0.000849,0.006890,0.000804,0.006972,-0.000932,84.133107,0.007571,
1080,1310,0.534616,-5.487188,0.999997,0.000241,-0.005930,0.009221,0.003743,0.010095,-0.006804,76.854144,0.010297,
930,1770,0.656935,-2.005383,0.999997,0.000204,-0.002899,0.008517,-0.000289,0.008525,-0.002906,-88.548624,0.008667,
1080,850,0.939063,-13.602206,0.999991,0.000358,-0.006904,0.010683,-0.003975,0.011539,-0.007760,-77.838813,0.011766,
1760,580,-2.420199,-14.636514,0.999994,0.000269,-0.005320,0.010344,-0.000013,0.010344,-0.005320,-89.953701,0.010346,
1110,370,0.276647,-17.760751,0.999997,0.000235,-0.002459,0.007531,-0.000336,0.007543,-0.002470,-88.073778,0.007691,
1310,770,-0.206832,-15.167692,0.999996,0.000237,-0.003724,0.005179,0.003720,0.006529,-0.005074,70.055654,0.006855,
1310,1820,-0.109765,-1.384992,0.999997,0.000209,-0.001428,0.006914,0.000084,0.006915,-0.001429,89.419862,0.007301,
1710,270,-1.246051,-17.934501,0.999996,0.000240,-0.004041,0.009708,-0.000752,0.009749,-0.004082,-86.879340,0.009792,
770,230,1.021510,-18.359780,0.999997,0.000195,-0.003785,0.009499,0.001003,0.009574,-0.003860,85.704900,0.009634,
1310,1560,-0.202269,-3.253541,0.999998,0.000174,-0.002842,0.007167,-0.000824,0.007234,-0.002909,-85.323721,0.007280,
1060,860,1.155381,-13.214602,0.999991,0.000350,-0.007266,0.012110,-0.003106,0.012596,-0.007752,-81.111738,0.012708,
1880,1070,-4.184747,-9.718841,0.999997,0.000194,-0.004107,0.008296,0.000101,0.008297,-0.004108,89.535772,0.008297,
1560,30,-0.029130,-20.089564,0.999999,0.000000,-0.000111,0.006628,-0.001258,0.006855,-0.000338,-79.766718,0.007728,
1590,230,-0.679871,-18.542526,0.999997,0.000217,-0.003120,0.008629,-0.000721,0.008673,-0.003164,-86.500772,0.008778,
1800,710,-3.062404,-13.170342,0.999996,0.000257,-0.005207,0.010202,-0.000521,0.010220,-0.005225,-88.065221,0.010220,
1570,500,-1.215237,-16.089696,0.999996,0.000266,-0.004927,0.009814,0.000748,0.009852,-0.004965,87.102078,0.009852,
1550,1200,-2.202527,-8.020615,0.999995,0.000273,-0.006578,0.012518,0.001054,0.012576,-0.006636,86.849470,0.012583,
1310,740,-0.191339,-15.323307,0.999997,0.000206,-0.003399,0.005441,0.003342,0.006562,-0.004520,71.451926,0.006717,
810,450,1.513018,-16.319892,0.999997,0.000214,-0.004808,0.010012,-0.000320,0.010019,-0.004815,-88.765498,0.010021,
1380,1670,-0.353516,-2.549750,0.999996,0.000213,-0.002607,0.007701,-0.000370,0.007714,-0.002620,-87.944516,0.007845,
1880,490,-2.766519,-15.183100,0.999996,0.000228,-0.004985,0.010084,0.000033,0.010084,-0.004985,89.876295,0.010085,
1410,1150,-1.566455,-7.662105,0.999987,0.000426,-0.006439,0.013372,-0.003720,0.014047,-0.007114,-79.708990,0.014048,
1400,1350,-0.585791,-5.255024,0.999993,0.000284,-0.005624,0.009299,-0.003159,0.009940,-0.006265,-78.527598,0.010052,
610,1620,2.468725,-4.334452,0.999995,0.000250,-0.004986,0.010027,0.000127,0.010028,-0.004987,89.516102,0.010028,
850,250,0.817621,-18.320897,0.999996,0.000243,-0.003225,0.008937,0.000725,0.008981,-0.003268,86.599030,0.009091,
1660,1900,-0.593811,-1.060807,0.999996,0.000239,-0.002684,0.008621,0.001574,0.008836,-0.002899,82.221509,0.009008,
930,480,1.008909,-16.404629,0.999997,0.000226,-0.004542,0.009487,-0.000820,0.009535,-0.004590,-86.667463,0.009537,
590,1980,0.741987,-0.734365,0.999996,0.000237,-0.004317,0.011940,-0.003032,0.012487,-0.004865,-79.770463,0.012588,
1260,1260,-0.078746,-4.735515,0.999996,0.000246,-0.003007,0.002444,-0.001604,0.002881,-0.003444,-74.758620,0.003695,
1840,1260,-3.566083,-7.937080,0.999996,0.000235,-0.004802,0.009734,0.000578,0.009757,-0.004825,87.727648,0.009758,
1790,1530,-2.411451,-5.048851,0.999995,0.000281,-0.005158,0.010250,-0.000107,0.010251,-0.005159,-89.602037,0.010251,
1010,770,1.071625,-13.788361,0.999993,0.000308,-0.007490,0.011945,-0.002163,0.012182,-0.007728,-83.724459,0.012328,
1530,960,-2.649660,-10.885764,0.999994,0.000285,-0.004493,0.012079,-0.001195,0.012165,-0.004579,-85.895444,0.012288,
1340,150,-0.092967,-19.339058,0.999998,0.000145,-0.001020,0.006636,-0.000240,0.006643,-0.001028,-88.208486,0.007152,
1500,1260,-1.534645,-7.016759,0.999994,0.000289,-0.007623,0.012729,-0.000674,0.012752,-0.007645,-88.104098,0.012836,
1820,410,-2.230269,-16.188618,0.999997,0.000205,-0.004996,0.010085,0.000140,0.010086,-0.004998,89.468868,0.010087,
820,1670,1.304506,-3.166566,0.999997,0.000203,-0.004509,0.009771,0.000130,0.009773,-0.004510,89.477467,0.009782,
670,270,1.621954,-17.693620,0.999996,0.000253,-0.004698,0.010096,0.000491,0.010112,-0.004714,88.100729,0.010120,
1140,650,0.234167,-15.804536,0.999996,0.000227,-0.003297,0.006582,-0.002181,0.007042,-0.003757,-78.088120,0.007047,
1360,1440,-0.371110,-4.272551,0.999996,0.000242,-0.003759,0.007610,-0.002099,0.007985,-0.004134,-79.868490,0.007986,
930,1750,0.700029,-2.174996,0.999997,0.000213,-0.003059,0.008476,-0.000136,0.008477,-0.003061,-89.326265,0.008586,
880,1980,0.171981,-0.387846,0.999997,0.000190,-0.001030,0.007161,-0.001380,0.007387,-0.001256,-80.687847,0.007905,
710,630,2.536432,-14.130377,0.999995,0.000260,-0.005430,0.010436,0.000196,0.010438,-0.005432,89.292694,0.010441,
760,910,3.271703,-11.260257,0.999995,0.000261,-0.004763,0.010295,0.001087,0.010373,-0.004841,85.893063,0.010381,
1460,1950,-0.138375,-0.556634,0.999998,0.000218,-0.000689,0.006791,0.000750,0.006866,-0.000763,84.332735,0.007526,
1110,350,0.264633,-17.910853,0.999997,0.000218,-0.002368,0.007367,-0.000309,0.007377,-0.002378,-88.182060,0.007530,
1090,50,0.027293,-19.972555,0.999998,0.000164,-0.000173,0.006130,0.000378,0.006153,-0.000195,86.577829,0.006995,
1760,1030,-3.703054,-10.057305,0.999997,0.000193,-0.004321,0.009594,0.000075,0.009594,-0.004321,89.691038,0.009610,
1540,540,-1.133812,-15.800815,0.999995,0.000270,-0.005132,0.009920,0.001031,0.009990,-0.005202,86.100044,0.009993,
1550,30,-0.029104,-20.089532,0.999998,0.000000,0.000006,0.006627,-0.001250,0.006855,-0.000222,-79.656883,0.007790,
1890,1280,-3.736012,-7.879759,0.999994,0.000277,-0.004736,0.009544,0.000220,0.009548,-0.004739,89.117895,0.009548,
940,1890,0.351644,-1.023881,0.999997,0.000215,-0.001702,0.007573,-0.000876,0.007655,-0.001784,-84.651639,0.008010,
690,1940,0.701262,-0.856228,0.999995,0.000243,-0.003393,0.009616,-0.002500,0.010080,-0.003857,-79.488302,0.010172,
1310,790,-0.234977,-15.069709,0.999995,0.000260,-0.003982,0.005067,0.003893,0.006511,-0.005426,69.644820,0.006977,
770,210,0.944704,-18.545379,0.999997,0.000203,-0.003547,0.009424,0.001244,0.009542,-0.003665,84.573111,0.009627,
810,430,1.464056,-16.517654,0.999996,0.000246,-0.004725,0.009878,-0.000282,0.009883,-0.004731,-88.894605,0.009886,
1130,1560,0.269039,-3.298152,0.999998,0.000166,-0.002890,0.007331,0.000865,0.007403,-0.002962,85.194276,0.007453,
1550,260,-0.647135,-18.342074,0.999996,0.000252,-0.002682,0.008409,-0.000543,0.008435,-0.002709,-87.204042,0.008613,
720,290,1.461818,-17.652440,0.999996,0.000261,-0.004649,0.010012,0.000395,0.010023,-0.004660,88.457809,0.010031,
990,700,1.026273,-14.455002,0.999997,0.000213,-0.006513,0.011011,-0.001999,0.011236,-0.006738,-83.573338,0.011310,
1600,2020,-0.063120,-0.108860,0.999998,0.000000,-0.000470,0.006821,0.001387,0.007076,-0.000725,79.587726,0.007786,
1160,1380,0.171292,-4.431030,0.999997,0.000198,-0.002903,0.005866,0.002092,0.006339,-0.003377,77.243318,0.006344,
1610,1200,-2.575954,-8.177272,0.999994,0.000275,-0.005848,0.011601,0.001292,0.011696,-0.005943,85.789686,0.011697,
610,1600,2.527119,-4.536736,0.999996,0.000229,-0.005018,0.010107,0.000134,0.010109,-0.005019,89.492662,0.010109,
1590,210,-0.620123,-18.707845,0.999996,0.000235,-0.002891,0.008411,-0.000851,0.008475,-0.002955,-85.717852,0.008604,
1610,1610,-1.295210,-3.658717,0.999998,0.000233,-0.004773,0.009813,-0.000458,0.009828,-0.004787,-88.202882,0.009829,
1710,1710,-1.492911,-2.965361,0.999996,0.000246,-0.004489,0.009902,0.000196,0.009905,-0.004491,89.219000,0.009919,
570,1720,2.344610,-3.473337,0.999912,0.001119,-0.004579,0.009422,-0.000120,0.009423,-0.004580,-89.509811,0.009425,
1770,1160,-3.546906,-8.804595,0.999997,0.000216,-0.004722,0.009786,0.000879,0.009840,-0.004775,86.546907,0.009841,
1760,560,-2.356440,-14.842805,0.999995,0.000270,-0.005279,0.010361,0.000055,0.010361,-0.005279,89.797843,0.010362,
1290,1820,-0.081952,-1.380455,0.999998,0.000154,-0.001349,0.006888,0.000099,0.006889,-0.001350,89.310148,0.007301,
1370,600,-0.406557,-15.958334,0.999997,0.000195,-0.003809,0.007752,0.001957,0.008075,-0.004131,80.647302,0.008075,
1880,480,-2.736622,-15.284106,0.999996,0.000253,-0.004952,0.010109,0.000037,0.010109,-0.004952,89.860760,0.010110,
1730,80,-0.356263,-19.676247,0.999997,0.000183,-0.001660,0.008179,-0.002525,0.008789,-0.002270,-76.414665,0.009125,
1460,1100,-2.276974,-8.970522,0.999991,0.000342,-0.005737,0.015089,-0.000085,0.015090,-0.005738,-89.766655,0.015233,
1840,1240,-3.630792,-8.129793,0.999996,0.000238,-0.004727,0.009462,0.000578,0.009486,-0.004751,87.669798,0.009486,
1260,1240,-0.112892,-4.777695,0.999996,0.000244,-0.003953,0.002431,-0.001278,0.002678,-0.004199,-79.090715,0.004252,
610,1420,3.074908,-6.373955,0.999996,0.000251,-0.005045,0.010176,-0.000140,0.010177,-0.005046,-89.471602,0.010177,
630,480,2.500226,-15.433012,0.999995,0.000285,-0.005053,0.010170,-0.000126,0.010171,-0.005054,-89.526107,0.010171,
780,750,2.566301,-13.023958,0.999992,0.000314,-0.005880,0.011003,0.000764,0.011038,-0.005914,87.412962,0.011047,
850,230,0.749118,-18.506158,0.999996,0.000250,-0.003008,0.008808,0.000868,0.008872,-0.003071,85.822879,0.009011,
1660,1880,-0.677406,-1.230646,0.999997,0.000194,-0.003020,0.008728,0.001386,0.008889,-0.003181,83.362043,0.009008,
1790,1550,-2.352994,-4.842967,0.999996,0.000262,-0.005144,0.010180,-0.000149,0.010182,-0.005145,-89.442081,0.010182,
580,1980,0.785453,-0.771272,0.999995,0.000275,-0.004408,0.012439,-0.003321,0.013070,-0.005040,-79.240254,0.013184,
1310,300,-0.142427,-18.318774,0.999998,0.000158,-0.001859,0.007117,0.000047,0.007117,-0.001859,89.697417,0.007382,
1540,2020,-0.044083,-0.105955,0.999998,0.000000,0.000012,0.006503,0.001095,0.006683,-0.000168,80.676154,0.007621,
1320,150,-0.071890,-19.342881,0.999998,0.000144,-0.000906,0.006577,-0.000191,0.006582,-0.000911,-88.539125,0.007133,
1500,1240,-1.630229,-7.274461,0.999994,0.000299,-0.007642,0.012975,-0.000385,0.012982,-0.007650,-88.931487,0.013051,
670,250,1.536971,-17.897265,0.999996,0.000261,-0.004660,0.010137,0.000692,0.010169,-0.004692,87.327667,0.010179,
1440,1750,-0.435246,-2.020752,0.999996,0.000252,-0.002550,0.007795,-0.000071,0.007795,-0.002550,-89.606607,0.007949,
930,990,2.763523,-10.519934,0.999996,0.000258,-0.003841,0.011969,0.000796,0.012009,-0.003881,87.124129,0.012256,
810,410,1.417003,-16.715290,0.999995,0.000265,-0.004660,0.009848,-0.000225,0.009851,-0.004663,-89.109755,0.009856,
1310,810,-0.287062,-14.970236,0.999993,0.000299,-0.004389,0.004791,0.003737,0.006120,-0.005718,70.424231,0.006847,
1110,330,0.254788,-18.056229,0.999997,0.000201,-0.002278,0.007392,-0.000191,0.007396,-0.002282,-88.869833,0.007575,
790,660,2.185463,-14.048518,0.999994,0.000275,-0.005864,0.010899,0.000135,0.010900,-0.005865,89.538220,0.010911,
1140,630,0.236844,-15.935509,0.999996,0.000243,-0.003200,0.006684,-0.001910,0.007041,-0.003556,-79.435226,0.007041,
1890,990,-4.228753,-10.395832,0.999996,0.000255,-0.004034,0.008225,-0.000160,0.008227,-0.004036,-89.254259,0.008228,
1020,260,0.378577,-18.483627,0.999997,0.000184,-0.002178,0.007643,0.000175,0.007646,-0.002181,88.977323,0.007878,
1710,1690,-1.553930,-3.162838,0.999995,0.000246,-0.004596,0.009900,0.000089,0.009900,-0.004596,89.650076,0.009909,
1880,1280,-3.687767,-7.849256,0.999994,0.000282,-0.004757,0.009623,0.000269,0.009628,-0.004762,88.928102,0.009628,
1360,1950,-0.069333,-0.533085,0.999998,0.000144,-0.000570,0.006451,0.000359,0.006469,-0.000588,87.080122,0.007154,
970,920,2.235597,-11.515307,0.999996,0.000239,-0.005957,0.013480,0.000940,0.013526,-0.006003,87.238467,0.013554,
1100,1630,0.329916,-2.828040,0.999996,0.000231,-0.002718,0.007554,0.000562,0.007585,-0.002749,86.879799,0.007680,
790,60,0.190015,-19.863553,0.999997,0.000234,-0.001154,0.007447,0.002044,0.007908,-0.001615,77.290530,0.008356,
950,220,0.457062,-18.720538,0.999997,0.000204,-0.002384,0.007865,0.000502,0.007890,-0.002408,87.199923,0.008087,
640,200,1.428483,-18.319169,0.999995,0.000263,-0.004650,0.010269,0.000845,0.010317,-0.004697,86.769739,0.010331,
970,1670,0.705766,-2.781383,0.999997,0.000212,-0.003682,0.008660,0.000480,0.008678,-0.003701,87.776033,0.008710,
1110,1480,0.341572,-3.942279,0.999996,0.000237,-0.003566,0.007447,0.001720,0.007709,-0.003829,81.324327,0.007709,
1590,190,-0.555372,-18.879515,0.999996,0.000230,-0.002688,0.008297,-0.000988,0.008385,-0.002776,-84.900690,0.008544,
1780,710,-2.958075,-13.220780,0.999997,0.000222,-0.005275,0.010309,-0.000575,0.010330,-0.005296,-87.889521,0.010331,
1360,1420,-0.369593,-4.427015,0.999996,0.000245,-0.003865,0.007618,-0.002331,0.008073,-0.004320,-78.952431,0.008080,
1880,470,-2.706770,-15.386018,0.999994,0.000291,-0.004937,0.010108,0.000042,0.010108,-0.004937,89.839136,0.010109,
1430,440,-0.551244,-17.065123,0.999996,0.000260,-0.003331,0.008194,0.000744,0.008241,-0.003378,86.322191,0.008286,
1260,820,-0.120789,-15.369017,0.999994,0.000291,-0.004309,0.002520,0.001091,0.002690,-0.004479,81.140472,0.004509,
770,190,0.849659,-18.739389,0.999997,0.000183,-0.003327,0.009296,0.001436,0.009457,-0.003489,83.592336,0.009565,
1760,540,-2.300197,-15.051775,0.999995,0.000277,-0.005237,0.010298,0.000107,0.010299,-0.005238,89.607232,0.010299,
890,490,1.209736,-16.180332,0.999996,0.000241,-0.004866,0.009792,-0.000738,0.009829,-0.004904,-87.123504,0.009829,
1720,1390,-2.471662,-6.304484,0.999996,0.000282,-0.005626,0.010654,0.000332,0.010661,-0.005633,88.832948,0.010667,
1790,1570,-2.296188,-4.639839,0.999996,0.000225,-0.005137,0.010206,-0.000142,0.010208,-0.005138,-89.470572,0.010208,
1660,1860,-0.759928,-1.413813,0.999997,0.000229,-0.003278,0.009005,0.001243,0.009130,-0.003403,84.279702,0.009228,
1210,1770,0.039497,-1.718448,0.999998,0.000180,-0.001776,0.006985,0.000071,0.006985,-0.001776,89.535504,0.007261,
1840,1220,-3.694475,-8.319060,0.999996,0.000225,-0.004684,0.009460,0.000621,0.009487,-0.004711,87.492366,0.009487,
1020,770,0.998455,-13.873086,0.999995,0.000232,-0.007432,0.011764,-0.002470,0.012077,-0.007745,-82.783493,0.012236,
1530,640,-1.261167,-14.811028,0.999997,0.000242,-0.006037,0.010717,0.001205,0.010804,-0.006123,85.906808,0.010836,
1540,30,-0.029432,-20.087198,0.999998,0.000000,0.000037,0.006609,-0.001194,0.006819,-0.000173,-80.018474,0.007776,
690,1920,0.833103,-1.049264,0.999998,0.000199,-0.003732,0.009645,-0.002163,0.009986,-0.004073,-81.039309,0.010043,
1540,580,-1.206156,-15.395427,0.999996,0.000244,-0.005440,0.010212,0.001086,0.010287,-0.005515,86.049468,0.010296,
900,1670,0.966580,-2.951987,0.999996,0.000251,-0.004069,0.009177,0.000279,0.009183,-0.004075,88.792115,0.009202,
1580,210,-0.589891,-18.724131,0.999996,0.000235,-0.002809,0.008331,-0.000810,0.008390,-0.002868,-85.862568,0.008528,
1600,30,-0.044958,-20.084337,0.999997,0.000000,-0.000200,0.006695,-0.001523,0.007016,-0.000522,-78.084827,0.007818,
1410,910,-1.616238,-12.423490,0.999986,0.000403,-0.006324,0.013578,0.003921,0.014322,-0.007069,79.247314,0.014323,
710,1760,1.526848,-2.590831,0.999994,0.000305,-0.004796,0.010054,-0.000291,0.010059,-0.004802,-88.879670,0.010063,
1870,1070,-4.142997,-9.716637,0.999996,0.000227,-0.004161,0.008470,0.000140,0.008472,-0.004163,89.363493,0.008472,
1790,1160,-3.640608,-8.824973,0.999994,0.000264,-0.004662,0.009606,0.000759,0.009646,-0.004702,86.965263,0.009647,
850,210,0.687226,-18.674802,0.999997,0.000219,-0.002777,0.008617,0.001038,0.008710,-0.002870,84.837399,0.008877,
1050,620,0.595055,-15.591144,0.999995,0.000271,-0.004647,0.008710,-0.002201,0.009063,-0.005000,-80.880906,0.009079,
670,230,1.446471,-18.100365,0.999996,0.000245,-0.004570,0.010106,0.000890,0.010160,-0.004624,86.540793,0.010173,
1280,510,-0.122185,-16.840464,0.999998,0.000179,-0.002565,0.006852,0.000422,0.006871,-0.002584,87.436370,0.006942,
940,1870,0.395014,-1.173711,0.999998,0.000167,-0.001916,0.007705,-0.000785,0.007768,-0.001979,-85.362831,0.008074,
1110,310,0.236307,-18.207325,0.999997,0.000193,-0.002138,0.007346,-0.000139,0.007348,-0.002140,-89.157677,0.007559,
1890,70,-0.769523,-19.430356,0.999996,0.000248,-0.003827,0.012711,-0.003812,0.013547,-0.004663,-77.624905,0.013764,
1460,1080,-2.391335,-9.266288,0.999991,0.000333,-0.005454,0.014926,-0.000159,0.014928,-0.005455,-89.552003,0.015107,
1710,1670,-1.614382,-3.364121,0.999996,0.000240,-0.004737,0.009986,-0.000058,0.009987,-0.004737,-89.773730,0.009991,
1500,1220,-1.738114,-7.538184,0.999994,0.000312,-0.007540,0.013218,-0.000041,0.013218,-0.007540,-89.888117,0.013262,
760,1750,1.340012,-2.552734,0.999996,0.000252,-0.004290,0.009735,-0.000359,0.009744,-0.004299,-88.534468,0.009766,
1660,890,-2.991451,-11.515684,0.999996,0.000252,-0.005088,0.010774,-0.001264,0.010874,-0.005188,-85.472660,0.010878,
1160,1360,0.166804,-4.542102,0.999997,0.000209,-0.002966,0.005677,0.002404,0.006301,-0.003589,75.455487,0.006321,
1880,990,-4.187852,-10.399158,0.999996,0.000254,-0.004075,0.008371,-0.000146,0.008373,-0.004077,-89.329463,0.008374,
1020,240,0.347703,-18.639580,0.999998,0.000189,-0.002004,0.007608,0.000302,0.007617,-0.002013,88.203007,0.007894,
1870,1280,-3.638825,-7.819595,0.999994,0.000285,-0.004800,0.009685,0.000350,0.009693,-0.004808,88.615493,0.009693,
620,2010,0.329508,-0.306056,0.999995,0.000284,-0.004013,0.009392,-0.003106,0.010077,-0.004698,-77.566145,0.010084,
590,1760,2.105740,-3.006702,0.999996,0.000237,-0.004781,0.009809,0.000004,0.009809,-0.004781,89.984450,0.009810,
800,1230,2.751362,-7.932188,0.999996,0.000252,-0.005662,0.011081,-0.001175,0.011163,-0.005745,-86.005566,0.011165,
670,1480,2.577620,-5.573442,0.999994,0.000292,-0.005218,0.010324,0.000012,0.010324,-0.005218,89.956436,0.010324,
1540,1950,-0.212966,-0.584591,0.999997,0.000196,-0.000895,0.007209,0.001174,0.007376,-0.001062,81.922419,0.007975,
1610,1590,-1.341108,-3.855933,0.999996,0.000245,-0.004863,0.009876,-0.000490,0.009892,-0.004879,-88.096570,0.009892,
970,1650,0.735532,-2.956772,0.999997,0.000199,-0.003752,0.008714,0.000570,0.008740,-0.003778,87.388617,0.008767,
1140,210,0.114414,-18.940687,0.999998,0.000168,-0.001400,0.006811,0.000102,0.006812,-0.001402,89.287355,0.007195,
710,610,2.473856,-14.343885,0.999995,0.000252,-0.005390,0.010458,0.000108,0.010458,-0.005390,89.611119,0.010460,
1260,800,-0.083196,-15.415520,0.999996,0.000253,-0.003125,0.002428,0.001588,0.002850,-0.003547,75.119152,0.003759,
630,120,0.952317,-19.111757,0.999996,0.000228,-0.004586,0.010598,0.001671,0.010779,-0.004768,83.794205,0.010803,
1760,520,-2.242206,-15.256307,0.999995,0.000258,-0.005212,0.010265,0.000120,0.010266,-0.005213,89.554601,0.010266,
1840,1200,-3.757109,-8.510752,0.999996,0.000208,-0.004652,0.009514,0.000664,0.009545,-0.004683,87.321676,0.009546,
1000,730,1.029603,-14.183434,0.999993,0.000317,-0.006947,0.011289,-0.002159,0.011541,-0.007199,-83.340410,0.011658,
1530,2020,-0.042685,-0.106713,0.999999,0.000000,-0.000101,0.006458,0.000991,0.006604,-0.000247,81.593331,0.007487,
720,1630,1.890903,-3.873548,0.999996,0.000254,-0.004944,0.010090,0.000189,0.010092,-0.004946,89.281035,0.010093,
1510,640,-1.142864,-14.902960,0.999997,0.000244,-0.005964,0.010472,0.001444,0.010598,-0.006090,85.015559,0.010637,
1800,60,-0.340254,-19.809855,0.999996,0.000256,-0.001107,0.009236,-0.003915,0.010551,-0.002422,-71.435516,0.011053,
1080,1670,0.361471,-2.553665,0.999997,0.000196,-0.002655,0.007719,0.000384,0.007733,-0.002669,87.885735,0.007856,
890,470,1.171734,-16.376031,0.999996,0.000232,-0.004657,0.009673,-0.000648,0.009703,-0.004686,-87.415278,0.009704,
1690,1940,-0.487247,-0.748545,0.999995,0.000257,-0.002075,0.008580,0.002224,0.009026,-0.002520,78.672404,0.009315,
1870,70,-0.680416,-19.501442,0.999997,0.000244,-0.004160,0.011791,-0.003174,0.012400,-0.004768,-79.151092,0.012509,
1590,170,-0.493418,-19.041996,0.999997,0.000212,-0.002410,0.008017,-0.001088,0.008129,-0.002522,-84.103244,0.008322,
1360,1400,-0.369860,-4.572524,0.999995,0.000260,-0.004051,0.007633,-0.002601,0.008185,-0.004604,-78.001219,0.008206,
670,210,1.349242,-18.302563,0.999995,0.000273,-0.004462,0.010195,0.001154,0.010285,-0.004552,85.525079,0.010308,
1210,1750,0.039721,-1.857828,0.999998,0.000186,-0.001885,0.006992,0.000120,0.006993,-0.001887,89.225756,0.007236,
1630,700,-2.059933,-13.737108,0.999994,0.000308,-0.006226,0.011320,-0.000109,0.011321,-0.006226,-89.642774,0.011339,
1870,990,-4.146963,-10.402045,0.999997,0.000213,-0.004143,0.008533,-0.000160,0.008535,-0.004145,-89.275519,0.008536,
1140,610,0.241713,-16.068730,0.999997,0.000217,-0.003111,0.006796,-0.001650,0.007064,-0.003378,-80.789687,0.007066,
1740,1070,-3.586165,-9.666308,0.999996,0.000226,-0.004317,0.009649,0.000334,0.009657,-0.004325,88.632599,0.009675,
850,190,0.611545,-18.851004,0.999997,0.000208,-0.002521,0.008490,0.001145,0.008608,-0.002639,84.126276,0.008820,
1690,1160,-3.157105,-8.727845,0.999997,0.000234,-0.004942,0.010544,0.001267,0.010647,-0.005045,85.353307,0.010652,
1850,1280,-3.543208,-7.765762,0.999995,0.000245,-0.004845,0.009804,0.000484,0.009820,-0.004861,88.110622,0.009821,
1710,1650,-1.669600,-3.564599,0.999997,0.000222,-0.004851,0.010061,-0.000149,0.010063,-0.004852,-89.428545,0.010065,
1660,1840,-0.838921,-1.593224,0.999997,0.000223,-0.003487,0.009048,0.001033,0.009132,-0.003572,85.320781,0.009204,
1110,290,0.225974,-18.351244,0.999997,0.000199,-0.001985,0.007284,-0.000055,0.007285,-0.001985,-89.661259,0.007532,
1460,1060,-2.471076,-9.571167,0.999990,0.000362,-0.005226,0.015789,-0.000113,0.015790,-0.005226,-89.690667,0.016087,
1650,1860,-0.728243,-1.396960,0.999997,0.000216,-0.002957,0.008908,0.001278,0.009044,-0.003093,83.920569,0.009193,
1050,600,0.587162,-15.764928,0.999995,0.000258,-0.004494,0.008651,-0.002035,0.008959,-0.004802,-81.400105,0.008967,
1700,890,-3.189400,-11.475429,0.999996,0.000229,-0.004935,0.010477,-0.001222,0.010573,-0.005031,-85.494939,0.010577,
1590,2020,-0.055281,-0.109751,0.999998,0.000000,-0.000621,0.006776,0.001342,0.007012,-0.000857,80.032254,0.007650,
770,170,0.765390,-18.918061,0.999996,0.000224,-0.003041,0.009048,0.001679,0.009276,-0.003270,82.240255,0.009410,
1410,890,-1.445242,-12.712249,0.999990,0.000345,-0.006782,0.013160,0.003168,0.013651,-0.007273,81.185376,0.013661,
740,1230,3.078696,-8.027588,0.999997,0.000214,-0.005262,0.010539,-0.001110,0.010617,-0.005340,-85.999852,0.010617,
1530,30,-0.029841,-20.088002,0.999997,0.000000,0.000005,0.006552,-0.001088,0.006728,-0.000171,-80.810535,0.007672,
1750,1880,-0.973985,-1.383327,0.999998,0.000185,-0.004168,0.009714,0.001434,0.009860,-0.004315,84.165207,0.009886,
1260,780,-0.067262,-15.464411,0.999996,0.000231,-0.002501,0.002703,0.001697,0.003207,-0.003005,73.443899,0.003592,
1760,500,-2.184954,-15.464775,0.999995,0.000257,-0.005143,0.010281,0.000175,0.010283,-0.005145,89.349354,0.010283,
580,1760,2.154152,-3.045105,0.999996,0.000243,-0.004553,0.009805,0.000071,0.009806,-0.004553,89.715997,0.009814,
1500,1640,-0.777148,-3.062477,0.999997,0.000222,-0.003766,0.008767,-0.000590,0.008795,-0.003794,-87.312117,0.008823,
760,1730,1.403622,-2.749576,0.999995,0.000257,-0.004401,0.009848,-0.000216,0.009851,-0.004404,-89.131587,0.009870,
1550,90,-0.183867,-19.678241,0.999998,0.000179,-0.000753,0.007037,-0.001225,0.007225,-0.000941,-81.269373,0.007856,
1160,1340,0.163627,-4.650661,0.999996,0.000239,-0.003054,0.005407,0.002743,0.006218,-0.003866,73.521177,0.006279,
1840,1180,-3.819150,-8.701080,0.999995,0.000259,-0.004563,0.009282,0.000568,0.009305,-0.004586,87.654223,0.009306,
600,120,1.098084,-18.963035,0.999996,0.000230,-0.004778,0.010715,0.001550,0.010869,-0.004931,84.342479,0.010885,
820,610,1.858248,-14.689683,0.999996,0.000230,-0.005735,0.010722,-0.000296,0.010727,-0.005740,-88.968491,0.010736,
1020,220,0.313651,-18.789563,0.999997,0.000205,-0.001789,0.007419,0.000319,0.007430,-0.001800,88.017767,0.007751,
700,1630,1.989654,-3.938113,0.999998,0.000173,-0.004965,0.010105,0.000185,0.010107,-0.004967,89.296858,0.010108,
650,1480,2.680483,-5.636700,0.999996,0.000236,-0.005115,0.010269,0.000002,0.010269,-0.005115,89.993966,0.010269,
840,390,1.229900,-17.000121,0.999997,0.000252,-0.004329,0.009535,-0.000139,0.009536,-0.004330,-89.425415,0.009550,
1790,1990,-0.363596,-0.392252,0.999996,0.000262,-0.001241,0.009375,0.003904,0.010657,-0.002522,71.833118,0.011138,
610,120,1.049256,-19.012863,0.999996,0.000221,-0.004819,0.010671,0.001488,0.010812,-0.004960,84.561413,0.010825,
980,730,1.167279,-14.054003,0.999993,0.000311,-0.006988,0.011570,-0.001675,0.011720,-0.007138,-84.884716,0.011812,
1890,270,-2.088367,-17.327271,0.999997,0.000206,-0.004827,0.009697,-0.000037,0.009697,-0.004828,-89.852974,0.009697,
760,1670,1.582952,-3.344787,0.999997,0.000165,-0.004704,0.009967,0.000019,0.009967,-0.004704,89.923974,0.009973,
670,190,1.242328,-18.510682,0.999996,0.000248,-0.004267,0.010139,0.001409,0.010275,-0.004404,84.467181,0.010310,
1130,2000,0.020592,-0.214802,0.999998,0.000159,-0.000302,0.006064,-0.000228,0.006072,-0.000310,-87.949481,0.006840,
1210,1730,0.044990,-2.000844,0.999998,0.000178,-0.001967,0.007018,0.000130,0.007020,-0.001969,89.172816,0.007242,
890,450,1.136457,-16.567592,0.999997,0.000226,-0.004484,0.009550,-0.000553,0.009572,-0.004506,-87.747595,0.009577,
1710,1630,-1.728017,-3.767854,0.999997,0.000218,-0.004942,0.010091,-0.000197,0.010093,-0.004944,-89.247729,0.010094,
1630,680,-1.992755,-13.964585,0.999994,0.000263,-0.006152,0.011163,0.000032,0.011163,-0.006152,89.894993,0.011183,
1660,1820,-0.916878,-1.777001,0.999997,0.000212,-0.003658,0.009251,0.000861,0.009308,-0.003715,86.201193,0.009371,
1150,660,0.202264,-15.780543,0.999998,0.000196,-0.003084,0.006261,-0.002090,0.006707,-0.003530,-77.951994,0.006710,
600,1050,4.130855,-9.882397,0.999998,0.000188,-0.004131,0.008651,-0.000249,0.008656,-0.004135,-88.886190,0.008659,
1100,1940,0.082170,-0.599317,0.999998,0.000193,-0.000639,0.006504,-0.000391,0.006525,-0.000660,-86.877556,0.007184,
1610,1570,-1.382329,-4.054687,0.999996,0.000248,-0.004940,0.009945,-0.000534,0.009964,-0.004959,-87.946264,0.009964,
710,590,2.411556,-14.552420,0.999995,0.000264,-0.005381,0.010441,0.000034,0.010441,-0.005381,89.875567,0.010443,
1670,1280,-2.588676,-7.384910,0.999993,0.000299,-0.005912,0.011163,0.000904,0.011210,-0.005959,86.977010,0.011218,
1590,150,-0.425197,-19.204187,0.999996,0.000231,-0.002169,0.007975,-0.001249,0.008126,-0.002321,-83.080770,0.008372,
1680,890,-3.092434,-11.495939,0.999996,0.000269,-0.004975,0.010610,-0.001243,0.010708,-0.005073,-85.468022,0.010713,
1520,2020,-0.042166,-0.104314,0.999999,0.000000,-0.000275,0.006408,0.000905,0.006528,-0.000396,82.427017,0.007321,
970,1630,0.763982,-3.132238,0.999997,0.000196,-0.003837,0.008794,0.000669,0.008830,-0.003872,86.974591,0.008852,
1410,870,-1.287067,-12.985552,0.999993,0.000302,-0.007165,0.012897,0.002933,0.013318,-0.007585,81.850068,0.013360,
780,1190,3.019166,-8.403069,0.999997,0.000238,-0.005172,0.010739,-0.001224,0.010832,-0.005266,-85.626558,0.010834,
850,610,1.685886,-14.795157,0.999995,0.000241,-0.005880,0.010687,-0.000530,0.010704,-0.005897,-88.169873,0.010723,
1720,1070,-3.501666,-9.662016,0.999998,0.000210,-0.004291,0.009757,0.000328,0.009765,-0.004298,88.664793,0.009788,
1630,1860,-0.676021,-1.370535,0.999997,0.000200,-0.002516,0.008733,0.001276,0.008876,-0.002659,83.608587,0.009111,
1070,420,0.415178,-17.314348,0.999997,0.000201,-0.003155,0.007894,-0.000758,0.007946,-0.003206,-86.094512,0.007995,
1770,1780,-1.532817,-2.442876,0.999996,0.000256,-0.004757,0.010073,0.000404,0.010084,-0.004768,88.439335,0.010089,
1460,1040,-2.518414,-9.890332,0.999989,0.000421,-0.005173,0.015851,-0.000106,0.015852,-0.005173,-89.711955,0.016168,
1500,1660,-0.747982,-2.886310,0.999997,0.000221,-0.003718,0.008724,-0.000489,0.008743,-0.003737,-87.754774,0.008774,
1160,1320,0.164601,-4.755114,0.999996,0.000230,-0.003172,0.005123,0.003047,0.006122,-0.004171,71.849248,0.006255,
1670,1200,-2.912090,-8.274324,0.999996,0.000258,-0.005352,0.010985,0.001286,0.011085,-0.005453,85.525089,0.011086,
1750,1690,-1.747944,-3.287219,0.999995,0.000272,-0.004883,0.010087,-0.000025,0.010087,-0.004883,-89.902499,0.010089,
1750,1900,-0.864496,-1.188983,0.999996,0.000213,-0.003971,0.009648,0.001715,0.009860,-0.004184,82.931367,0.009898,
600,140,1.251715,-18.749084,0.999995,0.000281,-0.004875,0.010463,0.001160,0.010550,-0.004962,85.699677,0.010556,
1260,760,-0.058257,-15.521727,0.999997,0.000196,-0.002245,0.003131,0.001568,0.003555,-0.002669,74.868495,0.003701,
1840,1160,-3.864426,-8.883958,0.999995,0.000257,-0.004467,0.009048,0.000468,0.009065,-0.004484,88.019910,0.009065,
840,370,1.180532,-17.189187,0.999998,0.000219,-0.004098,0.009477,0.000052,0.009477,-0.004098,89.780931,0.009506,
700,1610,2.044366,-4.143660,0.999995,0.000260,-0.005008,0.010155,0.000199,0.010157,-0.005011,89.247644,0.010158,
1790,1970,-0.548549,-0.599895,0.999994,0.000278,-0.002086,0.009544,0.003559,0.010546,-0.003089,74.264500,0.010844,
1590,30,-0.040812,-20.082741,0.999998,0.000000,-0.000361,0.006650,-0.001387,0.006915,-0.000626,-79.209631,0.007649,
800,610,1.974406,-14.623541,0.999996,0.000219,-0.005701,0.010719,-0.000189,0.010722,-0.005703,-89.341248,0.010729,
1360,1380,-0.369389,-4.728785,0.999995,0.000278,-0.004267,0.007631,-0.002911,0.008305,-0.004942,-76.962075,0.008355,
890,430,1.098504,-16.755721,0.999997,0.000220,-0.004372,0.009441,-0.000471,0.009457,-0.004388,-88.049254,0.009465,
980,550,0.870456,-15.922049,0.999997,0.000211,-0.004834,0.009413,-0.001405,0.009550,-0.004971,-84.421957,0.009552,
1890,410,-2.576016,-15.957044,0.999996,0.000259,-0.004902,0.009797,0.000086,0.009797,-0.004902,89.665321,0.009797,
1890,260,-2.045720,-17.425406,0.999997,0.000201,-0.004830,0.009731,-0.000070,0.009732,-0.004830,-89.724767,0.009732,
1880,1450,-3.115473,-6.150662,0.999996,0.000284,-0.004999,0.010164,0.000047,0.010164,-0.004999,89.821950,0.010165,
790,1940,0.447983,-0.736834,0.999996,0.000240,-0.002183,0.008349,-0.001977,0.008707,-0.002542,-79.712633,0.008955,
670,170,1.130985,-18.708897,0.999996,0.000238,-0.004068,0.010196,0.001757,0.010409,-0.004281,83.081517,0.010464,
770,150,0.662333,-19.106999,0.999996,0.000211,-0.002738,0.008894,0.001855,0.009182,-0.003027,81.155771,0.009358,
740,1670,1.677066,-3.402568,0.999997,0.000234,-0.004824,0.010091,0.000043,0.010091,-0.004824,89.834617,0.010094,
1640,710,-2.155810,-13.591055,0.999996,0.000355,-0.006186,0.011306,-0.000258,0.011309,-0.006190,-89.154752,0.011326,
1170,660,0.145242,-15.849241,0.999998,0.000204,-0.002737,0.005751,-0.001755,0.006100,-0.003086,-78.765467,0.006100,
1710,1610,-1.783084,-3.972687,0.999996,0.000233,-0.005007,0.010129,-0.000239,0.010132,-0.005011,-89.097404,0.010133,
1210,1710,0.043886,-2.139969,0.999998,0.000166,-0.002065,0.007042,0.000177,0.007046,-0.002068,88.889456,0.007243,
1660,1800,-0.987091,-1.963158,0.999997,0.000230,-0.003843,0.009302,0.000688,0.009338,-0.003879,87.010881,0.009382,
850,630,1.738564,-14.581550,0.999996,0.000240,-0.006009,0.010889,-0.000462,0.010902,-0.006021,-88.433546,0.010922,
1860,990,-4.105463,-10.409449,0.999998,0.000170,-0.004191,0.008657,-0.000188,0.008660,-0.004194,-89.160906,0.008661,
1860,1070,-4.101544,-9.708177,0.999996,0.000232,-0.004189,0.008614,0.000147,0.008616,-0.004191,89.342580,0.008617,
1110,270,0.206337,-18.500433,0.999998,0.000187,-0.001842,0.007204,0.000008,0.007204,-0.001842,89.947000,0.007485,
1520,30,-0.029659,-20.089247,0.999998,0.000000,-0.000072,0.006477,-0.000978,0.006620,-0.000215,-81.681845,0.007523,
660,1190,3.613151,-8.547992,0.999995,0.000261,-0.004772,0.009765,-0.000872,0.009817,-0.004824,-86.580245,0.009818,
910,920,2.571848,-11.323070,0.999995,0.000270,-0.005246,0.012032,0.001453,0.012153,-0.005367,85.225867,0.012180,
1410,850,-1.132546,-13.240958,0.999993,0.000313,-0.007444,0.012285,0.002837,0.012685,-0.007844,81.978346,0.012803,
1590,130,-0.358118,-19.360334,0.999996,0.000221,-0.001847,0.007744,-0.001289,0.007915,-0.002018,-82.475200,0.008226,
1020,200,0.284731,-18.937754,0.999997,0.000209,-0.001633,0.007332,0.000439,0.007353,-0.001654,87.204281,0.007715,
780,990,3.347523,-10.458575,0.999994,0.000285,-0.004197,0.010024,0.000384,0.010034,-0.004208,88.454653,0.010077,
1570,1280,-1.950438,-7.096367,0.999994,0.000275,-0.006845,0.012106,0.000261,0.012109,-0.006848,89.211731,0.012144,
1460,1020,-2.520681,-10.192054,0.999988,0.000426,-0.005152,0.015644,0.000073,0.015645,-0.005152,89.798638,0.015946,
1160,1300,0.173039,-4.860649,0.999996,0.000238,-0.003338,0.004945,0.003350,0.006130,-0.004524,70.514459,0.006357,
1500,1680,-0.717877,-2.713101,0.999997,0.000200,-0.003660,0.008656,-0.000439,0.008671,-0.003675,-87.962200,0.008705,
590,1800,1.939965,-2.612724,0.999997,0.000205,-0.004826,0.009811,-0.000124,0.009812,-0.004827,-89.514703,0.009813,
1650,1200,-2.803708,-8.245782,0.999996,0.000289,-0.005554,0.011180,0.001311,0.011282,-0.005656,85.548131,0.011282,
600,160,1.382848,-18.545603,0.999995,0.000271,-0.004908,0.010258,0.000822,0.010302,-0.004952,86.908370,0.010305,
1870,1680,-2.368718,-3.790160,0.999997,0.000197,-0.004951,0.009883,-0.000072,0.009883,-0.004951,-89.723820,0.009883,
1260,740,-0.055321,-15.587106,0.999997,0.000192,-0.002155,0.003611,0.001455,0.003957,-0.002502,76.607515,0.004003,
1760,480,-2.128392,-15.671312,0.999996,0.000240,-0.005088,0.010238,0.000188,0.010241,-0.005090,89.298612,0.010241,
670,150,1.003822,-18.921251,0.999996,0.000234,-0.003791,0.010093,0.002085,0.010400,-0.004097,81.640543,0.010477,
1690,220,-0.970834,-18.460699,0.999997,0.000195,-0.003665,0.009370,-0.001076,0.009458,-0.003753,-85.313463,0.009525,
1890,250,-2.001124,-17.522691,0.999996,0.000226,-0.004845,0.009685,-0.000105,0.009686,-0.004846,-89.587469,0.009686,
1560,1490,-1.285401,-4.689492,0.999996,0.000254,-0.005358,0.010223,-0.000944,0.010280,-0.005415,-86.544047,0.010285,
650,520,2.514768,-15.088237,0.999995,0.000280,-0.005158,0.010200,-0.000099,0.010201,-0.005159,-89.631830,0.010201,
1280,210,-0.062571,-18.951760,0.999998,0.000182,-0.001175,0.006708,-0.000091,0.006709,-0.001176,-89.342293,0.007165,
1400,1330,-0.609652,-5.444058,0.999996,0.000233,-0.005954,0.009598,-0.003344,0.010287,-0.006643,-78.366133,0.010431,
1880,410,-2.527202,-15.988893,0.999995,0.000276,-0.004925,0.009863,0.000083,0.009864,-0.004926,89.677419,0.009864,
1440,570,-0.688204,-15.914491,0.999996,0.000221,-0.004508,0.008886,0.001668,0.009090,-0.004713,83.008714,0.009092,
1840,1140,-3.909526,-9.067593,0.999996,0.000228,-0.004422,0.009099,0.000524,0.009120,-0.004443,87.784158,0.009121,
1290,300,-0.108614,-18.324564,0.999998,0.000180,-0.001752,0.007061,-0.000004,0.007061,-0.001752,-89.973950,0.007354,
1080,1630,0.386300,-2.863072,0.999998,0.000192,-0.003042,0.007788,0.000719,0.007836,-0.003089,86.219681,0.007894,
1060,840,1.008227,-13.446038,0.999993,0.000305,-0.007468,0.011801,-0.003052,0.012273,-0.007939,-81.210321,0.012448,
640,180,1.315153,-18.526408,0.999995,0.000259,-0.004601,0.010355,0.001140,0.010441,-0.004687,85.666591,0.010459,
1550,70,-0.126500,-19.820554,0.999998,0.000170,-0.000479,0.006910,-0.001236,0.007112,-0.000680,-80.748871,0.007848,
1790,1950,-0.681213,-0.777423,0.999995,0.000268,-0.002863,0.009744,0.002904,0.010380,-0.003500,77.633751,0.010562,
1790,1920,-0.897759,-1.087934,0.999995,0.000251,-0.003572,0.009929,0.002365,0.010331,-0.003974,80.347527,0.010422,
970,1610,0.790818,-3.309888,0.999997,0.000211,-0.003921,0.008861,0.000746,0.008904,-0.003964,86.673019,0.008922,
740,1650,1.737586,-3.607659,0.999995,0.000262,-0.004891,0.010125,0.000134,0.010126,-0.004892,89.489038,0.010128,
1510,2020,-0.038380,-0.103442,0.999998,0.000000,-0.000352,0.006412,0.000812,0.006508,-0.000448,83.249577,0.007270,
890,800,2.082513,-12.745229,0.999995,0.000298,-0.006761,0.012216,0.000578,0.012233,-0.006779,88.256469,0.012257,
1870,1450,-3.065368,-6.119689,0.999997,0.000235,-0.005028,0.010166,0.000041,0.010166,-0.005028,89.845162,0.010167,
890,410,1.058327,-16.946248,0.999997,0.000205,-0.004295,0.009358,-0.000400,0.009369,-0.004307,-88.324723,0.009380,
1710,1590,-1.835269,-4.174758,0.999996,0.000236,-0.005062,0.010150,-0.000269,0.010154,-0.005067,-88.985512,0.010154,
1110,1760,0.228727,-1.844641,0.999997,0.000183,-0.002030,0.007280,0.000088,0.007281,-0.002031,89.458806,0.007515,
690,60,0.305309,-19.818400,0.999995,0.000275,-0.001433,0.008946,0.003508,0.010021,-0.002507,72.969122,0.010429,
740,910,3.366085,-11.246831,0.999995,0.000241,-0.004695,0.010101,0.000982,0.010165,-0.004760,86.219717,0.010172,
1580,2020,-0.048249,-0.107316,0.999998,0.000000,-0.000542,0.006717,0.001301,0.006943,-0.000768,80.143208,0.007612,
850,650,1.793803,-14.357456,0.999996,0.000214,-0.006105,0.011129,-0.000328,0.011135,-0.006112,-88.910530,0.011153,
1110,230,0.172808,-18.786730,0.999998,0.000182,-0.001580,0.007015,0.000111,0.007017,-0.001582,89.261951,0.007361,
970,1100,2.449057,-9.117222,0.999994,0.000297,-0.005031,0.013340,-0.001013,0.013396,-0.005087,-86.854414,0.013524,
1290,500,-0.146845,-16.901561,0.999997,0.000190,-0.002640,0.006958,0.000512,0.006985,-0.002667,86.953812,0.007050,
1460,1000,-2.488574,-10.514018,0.999986,0.000435,-0.005213,0.015968,0.000131,0.015968,-0.005214,89.644711,0.016286,
1210,1690,0.048069,-2.281779,0.999998,0.000160,-0.002156,0.007070,0.000182,0.007073,-0.002159,88.868763,0.007250,
1840,990,-4.021638,-10.415632,0.999998,0.000237,-0.004254,0.008883,-0.000237,0.008888,-0.004258,-88.968465,0.008890,
710,570,2.350075,-14.761851,0.999995,0.000254,-0.005321,0.010362,-0.000046,0.010362,-0.005321,-89.831110,0.010363,
1610,1550,-1.425403,-4.254655,0.999996,0.000279,-0.005082,0.010053,-0.000573,0.010075,-0.005104,-87.833530,0.010075,
1670,70,-0.233545,-19.785545,0.999997,0.000214,-0.001290,0.007614,-0.002037,0.008058,-0.001734,-77.705610,0.008483,
1650,960,-3.157082,-10.776600,0.999994,0.000265,-0.004306,0.010447,-0.000985,0.010512,-0.004371,-86.198524,0.010562,
780,1230,2.862396,-7.965064,0.999996,0.000255,-0.005538,0.010856,-0.001151,0.010937,-0.005619,-86.003351,0.010938,
640,1190,3.708913,-8.577895,0.999996,0.000265,-0.004695,0.009593,-0.000778,0.009635,-0.004737,-86.893065,0.009635,
1260,720,-0.055594,-15.661119,0.999997,0.000200,-0.002150,0.004088,0.001278,0.004340,-0.002402,78.856410,0.004348,
780,1310,2.547967,-7.080964,0.999995,0.000268,-0.005894,0.011012,-0.000725,0.011043,-0.005925,-87.550179,0.011052,
1790,80,-0.501518,-19.613210,0.999995,0.000277,-0.001944,0.009678,-0.003733,0.010773,-0.003040,-73.639563,0.011109,
1260,210,-0.038657,-18.955387,0.999998,0.000186,-0.001258,0.006680,0.000004,0.006680,-0.001258,89.970268,0.007100,
1760,440,-2.016870,-16.078529,0.999997,0.000205,-0.005024,0.010130,0.000172,0.010132,-0.005026,89.349619,0.010132,
1650,1920,-0.481009,-0.879517,0.999995,0.000269,-0.002118,0.008215,0.001666,0.008477,-0.002380,81.066007,0.008745,
1410,830,-0.999555,-13.475950,0.999994,0.000303,-0.007678,0.012060,0.002973,0.012498,-0.008116,81.616962,0.012683,
1050,440,0.495822,-17.104513,0.999997,0.000208,-0.003295,0.008061,-0.000817,0.008119,-0.003354,-85.903879,0.008160,
1500,1850,-0.396721,-1.308708,0.999998,0.000204,-0.002221,0.007712,0.000559,0.007743,-0.002252,86.791302,0.007966,
1840,1120,-3.953460,-9.249103,0.999996,0.000224,-0.004387,0.009159,0.000556,0.009182,-0.004410,87.651877,0.009185,
670,130,0.876873,-19.114765,0.999994,0.000281,-0.003486,0.010042,0.002528,0.010499,-0.003943,79.754778,0.010606,
1530,700,-1.408853,-14.140318,0.999997,0.000242,-0.006712,0.011477,0.001027,0.011535,-0.006770,86.779856,0.011593,
1060,1630,0.452174,-2.910306,0.999997,0.000202,-0.003272,0.008005,0.000809,0.008063,-0.003330,85.915123,0.008103,
1790,1930,-0.831606,-0.990493,0.999994,0.000267,-0.003434,0.010055,0.002593,0.010537,-0.003915,79.485411,0.010652,
1860,1450,-3.013609,-6.087615,0.999996,0.000247,-0.005066,0.010168,0.000059,0.010169,-0.005066,89.778269,0.010169,
1790,560,-2.515753,-14.750109,0.999995,0.000272,-0.005224,0.010300,0.000028,0.010300,-0.005224,89.896030,0.010300,
1440,550,-0.675075,-16.089393,0.999995,0.000244,-0.004335,0.008825,0.001552,0.009006,-0.004516,83.362864,0.009006,
1710,1570,-1.886311,-4.378892,0.999996,0.000236,-0.005127,0.010212,-0.000268,0.010216,-0.005131,-88.998964,0.010216,
1790,1810,-1.498798,-2.202741,0.999996,0.000259,-0.004685,0.010129,0.000731,0.010165,-0.004721,87.182022,0.010174,
720,1670,1.774275,-3.467773,0.999997,0.000240,-0.004894,0.010141,0.000091,0.010141,-0.004894,89.653576,0.010143,
1290,520,-0.148991,-16.763727,0.999998,0.000169,-0.002687,0.006896,0.000630,0.006937,-0.002728,86.252000,0.006990,
1420,710,-0.706773,-14.710116,0.999995,0.000261,-0.006067,0.009960,0.002912,0.010473,-0.006580,80.013326,0.010587,
1210,1670,0.047647,-2.424267,0.999998,0.000173,-0.002248,0.007092,0.000208,0.007097,-0.002252,88.723539,0.007253,
1790,1900,-1.023084,-1.285030,0.999996,0.000232,-0.003894,0.010142,0.001984,0.010418,-0.004169,82.106879,0.010486,
590,1050,4.171663,-9.886536,0.999998,0.000189,-0.004046,0.008526,-0.000249,0.008531,-0.004051,-88.864936,0.008535,
890,390,1.018827,-17.133656,0.999997,0.000218,-0.004212,0.009307,-0.000305,0.009314,-0.004219,-88.707205,0.009328,
850,670,1.854218,-14.134208,0.999998,0.000181,-0.006180,0.011134,-0.000214,0.011137,-0.006183,-89.291623,0.011160,
760,1230,2.972966,-7.997605,0.999996,0.000225,-0.005392,0.010673,-0.001141,0.010753,-0.005472,-85.958919,0.010754,
1020,180,0.250161,-19.083345,0.999997,0.000210,-0.001429,0.007132,0.000499,0.007161,-0.001459,86.673413,0.007569,
1460,980,-2.414971,-10.818784,0.999993,0.000342,-0.005365,0.015024,0.000158,0.015026,-0.005366,89.557232,0.015229,
1780,900,-3.606825,-11.297388,0.999995,0.000244,-0.004684,0.009667,-0.000773,0.009709,-0.004726,-86.925157,0.009710,
910,1100,2.729371,-9.252453,0.999994,0.000294,-0.004443,0.011648,-0.001251,0.011745,-0.004540,-85.579913,0.011845,
1260,700,-0.057293,-15.745911,0.999998,0.000167,-0.002189,0.004509,0.001103,0.004686,-0.002366,80.886755,0.004686,
1360,1360,-0.377290,-4.884422,0.999996,0.000276,-0.004510,0.007703,-0.003194,0.008487,-0.005295,-76.195239,0.008574,
620,1190,3.802796,-8.610963,0.999996,0.000272,-0.004584,0.009414,-0.000614,0.009441,-0.004611,-87.495267,0.009442,
1110,210,0.161396,-18.922778,0.999998,0.000179,-0.001413,0.006931,0.000166,0.006934,-0.001416,88.864156,0.007327,
1760,810,-3.218412,-12.228661,0.999995,0.000292,-0.005139,0.010304,-0.001000,0.010368,-0.005203,-86.308629,0.010368,
760,1310,2.663850,-7.127738,0.999997,0.000200,-0.005726,0.010817,-0.000770,0.010852,-0.005762,-87.341708,0.010859,
1410,1470,-0.565277,-4.251044,0.999995,0.000255,-0.004400,0.008542,-0.001958,0.008832,-0.004690,-81.582187,0.008837,
580,170,1.544554,-18.344100,0.999997,0.000241,-0.005496,0.009840,0.000803,0.009882,-0.005538,87.009351,0.009906,
1760,420,-1.961803,-16.281787,0.999996,0.000222,-0.004969,0.010115,0.000144,0.010116,-0.004970,89.452340,0.010117,
1530,680,-1.353155,-14.368199,0.999996,0.000251,-0.006526,0.011239,0.001131,0.011311,-0.006598,86.371585,0.011363,
670,350,1.905697,-16.885322,0.999997,0.000205,-0.004890,0.010042,0.000023,0.010042,-0.004890,89.910303,0.010043,
1720,1710,-1.538852,-2.992197,0.999996,0.000247,-0.004651,0.009932,0.000167,0.009934,-0.004653,89.345151,0.009941,
700,1670,1.873506,-3.533427,0.999996,0.000221,-0.004904,0.010119,0.000082,0.010120,-0.004905,89.685633,0.010121,
1790,1770,-1.668535,-2.609147,0.999997,0.000199,-0.004796,0.010119,0.000350,0.010127,-0.004805,88.658194,0.010131,
1790,1910,-0.960077,-1.182295,0.999996,0.000234,-0.003722,0.009966,0.002158,0.010298,-0.004054,81.249586,0.010375,
1440,530,-0.661025,-16.267040,0.999996,0.000227,-0.004260,0.008757,0.001444,0.008915,-0.004418,83.744716,0.008915,
600,180,1.511257,-18.336822,0.999995,0.000266,-0.004883,0.010191,0.000673,0.010221,-0.004913,87.450185,0.010223,
930,1730,0.739016,-2.346123,0.999998,0.000204,-0.003157,0.008779,-0.000070,0.008779,-0.003157,-89.665566,0.008894,
580,1800,1.989758,-2.655696,0.999997,0.000187,-0.004774,0.009705,-0.000091,0.009705,-0.004774,-89.638330,0.009706,
1090,1760,0.269027,-1.863408,0.999998,0.000189,-0.001984,0.007371,-0.000004,0.007371,-0.001984,-89.973806,0.007628,
580,1050,4.212099,-9.888713,0.999998,0.000178,-0.003890,0.008305,-0.000234,0.008309,-0.003894,-88.902562,0.008315,
1580,30,-0.034845,-20.084960,0.999999,0.000000,-0.000422,0.006637,-0.001286,0.006864,-0.000650,-79.988455,0.007579,
1590,110,-0.292404,-19.515706,0.999997,0.000196,-0.001604,0.007635,-0.001392,0.007840,-0.001809,-81.617665,0.008210,
1710,1550,-1.941930,-4.586742,0.999997,0.000219,-0.005199,0.010303,-0.000247,0.010306,-0.005203,-89.088360,0.010307,
1160,1280,0.188182,-4.957696,0.999996,0.000230,-0.003606,0.004717,0.003577,0.006043,-0.004932,69.660741,0.006433,
1320,680,-0.220552,-15.623168,0.999997,0.000220,-0.003342,0.006306,0.002611,0.006967,-0.004003,75.788071,0.006993,
1790,1880,-1.146936,-1.492742,0.999995,0.000259,-0.004144,0.010128,0.001646,0.010315,-0.004331,83.504072,0.010359,
860,90,0.242350,-19.659004,0.999997,0.000217,-0.001167,0.007356,0.001517,0.007618,-0.001429,80.205504,0.008099,
1370,620,-0.407513,-15.807724,0.999996,0.000231,-0.003943,0.007823,0.002174,0.008212,-0.004332,79.861346,0.008216,
590,860,3.923051,-11.536715,0.999996,0.000215,-0.004427,0.009114,0.000345,0.009123,-0.004436,88.540748,0.009124,
1670,580,-1.928138,-14.921381,0.999996,0.000229,-0.005521,0.010512,0.000253,0.010516,-0.005525,89.094531,0.010520,
1490,760,-1.313385,-13.647235,0.999991,0.000392,-0.007396,0.012177,0.001309,0.012264,-0.007483,86.191436,0.012363,
1760,400,-1.901776,-16.486138,0.999996,0.000232,-0.004948,0.010143,0.000108,0.010144,-0.004949,89.591463,0.010145,
770,130,0.574838,-19.277772,0.999997,0.000206,-0.002293,0.008613,0.002030,0.008978,-0.002658,79.790951,0.009224,
1500,1700,-0.684511,-2.539370,0.999997,0.000217,-0.003549,0.008527,-0.000359,0.008538,-0.003560,-88.297046,0.008577,
1560,1470,-1.322165,-4.896057,0.999993,0.000298,-0.005587,0.010357,-0.000946,0.010413,-0.005643,-86.617511,0.010425,
1840,1100,-3.993367,-9.433969,0.999996,0.000221,-0.004304,0.008974,0.000292,0.008981,-0.004311,88.740917,0.008983,
1460,960,-2.307922,-11.114100,0.999989,0.000381,-0.005614,0.015056,0.000138,0.015057,-0.005615,89.618840,0.015219,
1880,1350,-3.447761,-7.162989,0.999994,0.000280,-0.004952,0.009904,0.000193,0.009907,-0.004955,89.255577,0.009907,
890,370,0.975992,-17.321133,0.999996,0.000217,-0.004141,0.009212,-0.000241,0.009216,-0.004146,-88.967233,0.009232,
1690,1840,-0.951916,-1.654989,0.999997,0.000203,-0.003608,0.009377,0.001148,0.009477,-0.003708,84.986070,0.009552,
820,1450,1.845074,-5.416669,0.999995,0.000255,-0.005739,0.010701,0.000319,0.010707,-0.005745,88.887734,0.010716,
940,210,0.461459,-18.785062,0.999996,0.000249,-0.002209,0.007909,0.000649,0.007951,-0.002250,86.345621,0.008196,
1210,1650,0.050922,-2.565946,0.999998,0.000197,-0.002311,0.007084,0.000232,0.007090,-0.002317,88.587627,0.007230,
810,390,1.364455,-16.914606,0.999995,0.000265,-0.004614,0.009801,-0.000138,0.009803,-0.004616,-89.453326,0.009808,
850,1110,2.960559,-9.202179,0.999997,0.000229,-0.004459,0.010833,-0.001130,0.010916,-0.004542,-85.797302,0.010967,
980,1630,0.726176,-3.103666,0.999997,0.000185,-0.003842,0.008741,0.000713,0.008781,-0.003882,86.766065,0.008801,
770,80,0.313658,-19.693285,0.999996,0.000229,-0.001309,0.007864,0.002216,0.008371,-0.001816,77.107089,0.008807,
1610,1530,-1.466764,-4.457453,0.999994,0.000296,-0.005277,0.010209,-0.000608,0.010233,-0.005301,-87.756095,0.010235,
710,550,2.291711,-14.968016,0.999995,0.000237,-0.005278,0.010301,-0.000099,0.010301,-0.005279,-89.637648,0.010302,
1460,1570,-0.703815,-3.565090,0.999995,0.000258,-0.004095,0.008800,-0.001110,0.008895,-0.004190,-85.114407,0.008899,
600,1190,3.893620,-8.649718,0.999996,0.000222,-0.004448,0.009160,-0.000421,0.009173,-0.004461,-88.228107,0.009174,
1360,1340,-0.384835,-5.040428,0.999995,0.000271,-0.004764,0.007818,-0.003511,0.008731,-0.005677,-75.419045,0.008862,
1790,1750,-1.742311,-2.812820,0.999997,0.000193,-0.004811,0.010039,0.000230,0.010042,-0.004814,89.114691,0.010045,
1260,680,-0.060518,-15.836034,0.999998,0.000162,-0.002233,0.004866,0.000946,0.004990,-0.002357,82.541495,0.004993,
1670,330,-1.273971,-17.449700,0.999996,0.000238,-0.004437,0.009791,-0.000127,0.009792,-0.004438,-89.488313,0.009806,
590,170,1.494392,-18.392676,0.999996,0.000262,-0.005014,0.010107,0.000749,0.010144,-0.005051,87.170892,0.010144,
850,1100,2.986456,-9.308406,0.999997,0.000214,-0.004301,0.010773,-0.001060,0.010847,-0.004375,-85.997927,0.010914,
690,50,0.236499,-19.903309,0.999998,0.000197,-0.001033,0.008509,0.003443,0.009622,-0.002146,72.092380,0.010102,
1020,160,0.219040,-19.224252,0.999997,0.000194,-0.001279,0.007107,0.000585,0.007148,-0.001320,86.029140,0.007607,
930,1690,0.819356,-2.702912,0.999997,0.000218,-0.003364,0.008760,0.000125,0.008761,-0.003365,89.407394,0.008839,
1750,1200,-3.322226,-8.377304,0.999996,0.000257,-0.004953,0.010103,0.001031,0.010173,-0.005023,86.100692,0.010173,
1700,1390,-2.359291,-6.247059,0.999995,0.000268,-0.005746,0.010758,0.000251,0.010762,-0.005750,89.128198,0.010771,
600,620,3.076772,-13.909684,0.999996,0.000257,-0.005010,0.010150,0.000073,0.010150,-0.005010,89.725363,0.010150,
1410,1490,-0.552446,-4.077370,0.999996,0.000241,-0.004232,0.008464,-0.001783,0.008710,-0.004478,-82.156873,0.008711,
1230,1760,0.002514,-1.782277,0.999998,0.000188,-0.001860,0.006958,-0.000003,0.006958,-0.001860,-89.981866,0.007205,
570,1050,4.251285,-9.890832,0.999940,0.000901,-0.003808,0.008081,-0.000226,0.008085,-0.003812,-88.912192,0.008089,
610,640,3.092095,-13.736716,0.999997,0.000220,-0.005028,0.010132,0.000166,0.010134,-0.005030,89.372100,0.010134,
1570,2020,-0.043394,-0.105483,0.999998,0.000000,-0.000318,0.006665,0.001274,0.006891,-0.000543,79.975782,0.007662,
600,1310,3.502252,-7.504855,0.999997,0.000232,-0.004905,0.009821,-0.000334,0.009829,-0.004913,-88.702320,0.009829,
1400,350,-0.375945,-17.853592,0.999996,0.000224,-0.002665,0.007695,0.000306,0.007704,-0.002674,88.310100,0.007823,
1160,1260,0.214628,-5.046706,0.999995,0.000247,-0.003865,0.004498,0.003681,0.005887,-0.005254,69.323145,0.006464,
1870,1350,-3.398488,-7.132260,0.999996,0.000263,-0.004948,0.009948,0.000226,0.009951,-0.004951,89.130186,0.009952,
1060,820,0.893209,-13.677889,0.999993,0.000310,-0.007509,0.011659,-0.003328,0.012220,-0.008070,-80.426467,0.012428,
580,860,3.967665,-11.512232,0.999997,0.000193,-0.004367,0.008966,0.000216,0.008970,-0.004371,89.070438,0.008971,
760,990,3.432966,-10.452585,0.999995,0.000281,-0.004294,0.009891,0.000338,0.009899,-0.004302,88.636876,0.009927,
1510,1780,-0.567999,-1.881815,0.999996,0.000231,-0.002927,0.008244,0.000217,0.008248,-0.002931,88.885263,0.008362,
640,160,1.187481,-18.738784,0.999995,0.000283,-0.004466,0.010408,0.001372,0.010533,-0.004591,84.774063,0.010562,
760,1300,2.702998,-7.235587,0.999996,0.000239,-0.005707,0.010851,-0.000822,0.010892,-0.005748,-87.164284,0.010897,
1460,940,-2.174910,-11.419295,0.999990,0.000364,-0.005962,0.014700,0.000072,0.014700,-0.005962,89.800898,0.014787,
640,910,3.824309,-11.159145,0.999996,0.000242,-0.004463,0.009195,0.000551,0.009218,-0.004486,87.695603,0.009219,
1690,580,-2.039228,-14.854778,0.999995,0.000265,-0.005516,0.010521,0.000182,0.010523,-0.005518,89.348942,0.010527,
630,1900,1.205057,-1.416656,0.999997,0.000225,-0.004782,0.010434,-0.001114,0.010515,-0.004864,-85.834815,0.010525,
1510,210,-0.431241,-18.799480,0.999997,0.000212,-0.002277,0.007762,-0.000547,0.007792,-0.002307,-86.888525,0.008005,
1210,1630,0.049904,-2.708113,0.999998,0.000186,-0.002380,0.007043,0.000239,0.007049,-0.002386,88.548289,0.007171,
810,1540,1.670603,-4.502154,0.999997,0.000191,-0.005215,0.010269,0.000419,0.010280,-0.005226,88.451551,0.010280,
1760,380,-1.844673,-16.690714,0.999996,0.000234,-0.004877,0.010107,0.000080,0.010107,-0.004877,89.692327,0.010109,
1840,1080,-4.009738,-9.610978,0.999997,0.000231,-0.004229,0.008804,0.000123,0.008805,-0.004230,89.460004,0.008807,
930,160,0.352725,-19.167680,0.999997,0.000195,-0.001642,0.007625,0.001011,0.007734,-0.001751,83.846118,0.008110,
1710,1530,-1.995200,-4.793073,0.999996,0.000226,-0.005251,0.010329,-0.000231,0.010332,-0.005254,-89.152324,0.010332,
1590,90,-0.224362,-19.666045,0.999998,0.000184,-0.001286,0.007246,-0.001392,0.007467,-0.001507,-80.963634,0.007897,
1790,1860,-1.256056,-1.692797,0.999996,0.000248,-0.004357,0.010137,0.001305,0.010254,-0.004473,84.897645,0.010281,
1540,730,-1.565325,-13.741030,0.999998,0.000251,-0.006973,0.011844,0.000643,0.011866,-0.006995,88.043681,0.011930,
1320,660,-0.224975,-15.753115,0.999997,0.000222,-0.003260,0.006450,0.002289,0.006962,-0.003773,77.380892,0.006970,
820,1430,1.900459,-5.632829,0.999996,0.000249,-0.005839,0.010813,0.000221,0.010816,-0.005842,89.241166,0.010827,
1510,1820,-0.482895,-1.556089,0.999997,0.000206,-0.002558,0.008055,0.000431,0.008073,-0.002575,87.677643,0.008247,
890,350,0.930390,-17.506185,0.999997,0.000203,-0.004037,0.009112,-0.000151,0.009114,-0.004039,-89.340974,0.009133,
1540,370,-0.851962,-17.398495,0.999996,0.000237,-0.003475,0.008844,0.000116,0.008845,-0.003477,89.459396,0.008913,
1790,1730,-1.811788,-3.011772,0.999997,0.000223,-0.004834,0.010031,0.000049,0.010031,-0.004834,89.811345,0.010033,
920,210,0.503402,-18.766157,0.999997,0.000224,-0.002130,0.008055,0.000805,0.008119,-0.002193,85.506338,0.008400,
740,330,1.505909,-17.309950,0.999996,0.000247,-0.004559,0.009935,0.000192,0.009937,-0.004561,89.239971,0.009949,
1650,1600,-1.510479,-3.881598,0.999997,0.000216,-0.004856,0.009975,-0.000365,0.009984,-0.004865,-88.591747,0.009985,
850,1090,3.012763,-9.416359,0.999997,0.000227,-0.004153,0.010764,-0.001018,0.010834,-0.004222,-86.112458,0.010921,
1670,370,-1.389016,-17.061561,0.999995,0.000248,-0.004602,0.009719,0.000067,0.009720,-0.004603,89.730720,0.009724,
960,1630,0.802980,-3.159735,0.999996,0.000224,-0.003814,0.008840,0.000613,0.008870,-0.003844,87.234601,0.008896,
690,40,0.169412,-19.986356,0.999997,0.000220,-0.000724,0.008246,0.003395,0.009386,-0.001864,71.438476,0.009938,
1260,660,-0.061403,-15.936477,0.999998,0.000175,-0.002291,0.005220,0.000826,0.005310,-0.002380,83.799817,0.005319,
600,170,1.446292,-18.442329,0.999996,0.000256,-0.004900,0.010253,0.000756,0.010291,-0.004938,87.150807,0.010294,
760,1190,3.121872,-8.425874,0.999997,0.000212,-0.005095,0.010519,-0.001160,0.010605,-0.005181,-85.773785,0.010606,
1540,1980,-0.135578,-0.374622,0.999998,0.000189,-0.000554,0.006936,0.001186,0.007120,-0.000738,81.211389,0.007830,
1570,30,-0.030789,-20.087648,0.999998,0.000000,-0.000290,0.006627,-0.001232,0.006840,-0.000503,-80.193951,0.007625,
1020,140,0.182657,-19.369700,0.999997,0.000173,-0.001095,0.006955,0.000605,0.007000,-0.001141,85.729579,0.007512,
1860,1350,-3.348911,-7.101730,0.999995,0.000273,-0.004970,0.009985,0.000279,0.009990,-0.004976,88.933298,0.009990,
630,1760,1.911641,-2.855204,0.999997,0.000204,-0.004828,0.010030,-0.000087,0.010030,-0.004828,-89.664517,0.010033,
930,1670,0.851867,-2.877408,0.999996,0.000231,-0.003606,0.008862,0.000274,0.008868,-0.003612,88.741354,0.008918,
700,1730,1.681845,-2.925101,0.999997,0.000216,-0.004844,0.010006,-0.000061,0.010006,-0.004844,-89.762748,0.010008,
600,600,3.013893,-14.113560,0.999997,0.000216,-0.005034,0.010148,0.000042,0.010148,-0.005034,89.839855,0.010148,
690,1060,3.737210,-9.771452,0.999997,0.000195,-0.004348,0.009476,-0.000293,0.009482,-0.004354,-88.785686,0.009492,
770,110,0.459771,-19.451309,0.999996,0.000245,-0.001892,0.008564,0.002250,0.009027,-0.002356,78.354730,0.009365,
1840,1070,-4.017160,-9.700291,0.999996,0.000236,-0.004209,0.008845,0.000173,0.008848,-0.004211,89.240672,0.008851,
610,620,3.027454,-13.940139,0.999996,0.000259,-0.005031,0.010154,0.000095,0.010155,-0.005031,89.643395,0.010155,
1410,1510,-0.543577,-3.905383,0.999996,0.000236,-0.004007,0.008350,-0.001566,0.008545,-0.004202,-82.888047,0.008546,
1440,610,-0.717268,-15.550565,0.999996,0.000243,-0.005015,0.009258,0.002047,0.009546,-0.005303,81.995951,0.009565,
670,110,0.726124,-19.326368,0.999995,0.000242,-0.002994,0.009920,0.002856,0.010523,-0.003597,78.071559,0.010697,
570,860,4.012085,-11.486760,0.999996,0.000233,-0.004344,0.008802,0.000139,0.008803,-0.004345,89.392556,0.008804,
1210,1610,0.053226,-2.849114,0.999997,0.000197,-0.002427,0.007019,0.000256,0.007026,-0.002434,88.448698,0.007136,
1130,300,0.189005,-18.299158,0.999997,0.000193,-0.002113,0.007211,-0.000188,0.007215,-0.002117,-88.845825,0.007417,
1160,1240,0.280217,-5.131350,0.999995,0.000253,-0.004232,0.004250,0.003446,0.005474,-0.005456,70.451581,0.006311,
810,370,1.309498,-17.110623,0.999996,0.000225,-0.004568,0.009713,-0.000064,0.009713,-0.004569,-89.741628,0.009719,
1460,920,-2.030433,-11.713672,0.999992,0.000328,-0.006482,0.014305,0.000015,0.014305,-0.006482,89.960029,0.014326,
1590,1280,-2.085053,-7.166578,0.999995,0.000239,-0.006658,0.011935,0.000483,0.011948,-0.006670,88.511863,0.011975,
570,1230,3.905473,-8.351289,0.999994,0.000272,-0.004640,0.009208,-0.000147,0.009210,-0.004642,-89.391704,0.009210,
1840,1280,-3.494490,-7.740728,0.999995,0.000251,-0.004887,0.009857,0.000548,0.009877,-0.004908,87.874150,0.009877,
790,1540,1.773719,-4.569541,0.999998,0.000162,-0.005213,0.010308,0.000364,0.010317,-0.005222,88.655963,0.010317,
900,1810,0.640205,-1.706398,0.999996,0.000237,-0.002738,0.008496,-0.000648,0.008534,-0.002776,-86.707475,0.008706,
1690,1820,-1.031703,-1.842127,0.999998,0.000168,-0.003836,0.009520,0.000935,0.009585,-0.003901,86.016215,0.009640,
890,330,0.885983,-17.688374,0.999997,0.000201,-0.003833,0.009055,-0.000037,0.009056,-0.003834,-89.835472,0.009091,
1760,360,-1.781720,-16.891419,0.999995,0.000254,-0.004816,0.010038,0.000001,0.010038,-0.004816,89.996937,0.010041,
1790,1710,-1.876767,-3.215638,0.999997,0.000209,-0.004868,0.010056,0.000005,0.010056,-0.004868,89.981503,0.010058,
1590,510,-1.335960,-15.922311,0.999995,0.000250,-0.005035,0.010017,0.000667,0.010046,-0.005064,87.469113,0.010046,
1710,1510,-2.048314,-5.001275,0.999996,0.000245,-0.005325,0.010368,-0.000196,0.010370,-0.005328,-89.284145,0.010372,
1560,1670,-0.953679,-2.943682,0.999997,0.000192,-0.004032,0.009147,-0.000277,0.009153,-0.004037,-88.797157,0.009174,
1320,640,-0.225584,-15.881977,0.999996,0.000241,-0.003166,0.006559,0.001979,0.006946,-0.003553,78.928326,0.006947,
1650,180,-0.670999,-18.895597,0.999996,0.000224,-0.002762,0.008693,-0.001390,0.008859,-0.002928,-83.180969,0.009027,
1670,810,-2.732186,-12.380509,0.999995,0.000280,-0.005746,0.011157,-0.001120,0.011231,-0.005820,-86.225566,0.011233,
1370,680,-0.419517,-15.327467,0.999996,0.000248,-0.004602,0.008005,0.003036,0.008699,-0.005295,77.140685,0.008767,
1560,2020,-0.041991,-0.105578,0.999999,0.000000,-0.000089,0.006619,0.001252,0.006845,-0.000315,79.768481,0.007728,
670,1060,3.823548,-9.773440,0.999998,0.000161,-0.004366,0.009350,-0.000291,0.009356,-0.004372,-88.783333,0.009362,
710,460,2.038565,-15.897504,0.999996,0.000218,-0.005043,0.010154,-0.000201,0.010156,-0.005046,-89.241808,0.010156,
810,1940,0.402272,-0.718462,0.999995,0.000274,-0.001814,0.008142,-0.001826,0.008466,-0.002138,-79.927154,0.008805,
570,60,0.700264,-19.568619,0.999813,0.001606,-0.003904,0.013446,0.005491,0.015038,-0.005496,73.833427,0.015219,
1080,210,0.199378,-18.908051,0.999999,0.000145,-0.001358,0.007041,0.000294,0.007051,-0.001369,87.995018,0.007478,
1420,1610,-0.522923,-3.112081,0.999997,0.000226,-0.003311,0.008114,-0.000798,0.008169,-0.003366,-86.024314,0.008211,
610,1380,3.209305,-6.779372,0.999997,0.000212,-0.005034,0.010067,-0.000256,0.010071,-0.005039,-89.029564,0.010071,
610,1760,2.007056,-2.930141,0.999996,0.000247,-0.004842,0.009904,-0.000017,0.009904,-0.004842,-89.935709,0.009905,
1620,1430,-1.767202,-5.550095,0.999996,0.000241,-0.005938,0.010828,-0.000444,0.010840,-0.005950,-88.483047,0.010857,
930,1650,0.884165,-3.054801,0.999996,0.000238,-0.003835,0.008989,0.000411,0.009002,-0.003848,88.166619,0.009034,
1020,120,0.153276,-19.503141,0.999997,0.000201,-0.000933,0.006842,0.000673,0.006899,-0.000991,85.085404,0.007461,
740,1190,3.222865,-8.447937,0.999996,0.000276,-0.005031,0.010305,-0.001102,0.010384,-0.005109,-85.911856,0.010385,
850,1070,3.061956,-9.634517,0.999997,0.000228,-0.003992,0.010587,-0.000682,0.010618,-0.004024,-87.326732,0.010722,
770,70,0.258780,-19.777495,0.999997,0.000212,-0.001144,0.007760,0.002248,0.008296,-0.001679,76.604096,0.008772,
1210,1590,0.054514,-2.989518,0.999997,0.000198,-0.002480,0.006930,0.000297,0.006940,-0.002490,88.196339,0.007031,
1510,700,-1.271629,-14.242228,0.999995,0.000263,-0.006740,0.011410,0.001352,0.011511,-0.006841,85.762268,0.011579,
1260,640,-0.064991,-16.040123,0.999998,0.000161,-0.002349,0.005519,0.000721,0.005584,-0.002415,84.808275,0.005601,
1610,1280,-2.217314,-7.230813,0.999991,0.000337,-0.006466,0.011756,0.000660,0.011780,-0.006490,87.928027,0.011801,
1640,1070,-3.169057,-9.640882,0.999997,0.000210,-0.004067,0.010342,0.000600,0.010367,-0.004092,87.619204,0.010443,
1410,1530,-0.533843,-3.739962,0.999996,0.000228,-0.003762,0.008272,-0.001338,0.008419,-0.003909,-83.730293,0.008426,
600,580,2.951943,-14.317467,0.999997,0.000204,-0.005073,0.010170,0.000027,0.010170,-0.005073,89.899304,0.010170,
1780,70,-0.394453,-19.720525,0.999997,0.000237,-0.001749,0.009397,-0.003671,0.010497,-0.002850,-73.312896,0.010857,
1690,1200,-3.018410,-8.303350,0.999997,0.000197,-0.005254,0.010747,0.001227,0.010841,-0.005348,85.641612,0.010841,
1840,710,-3.266488,-13.065543,0.999997,0.000208,-0.005021,0.010018,-0.000382,0.010028,-0.005030,-88.546277,0.010028,
970,1590,0.814615,-3.488555,0.999997,0.000217,-0.004041,0.008952,0.000825,0.009004,-0.004094,86.382303,0.009016,
1460,900,-1.877902,-12.005347,0.999992,0.000325,-0.007027,0.014168,0.000124,0.014169,-0.007027,89.664263,0.014169,
1390,1680,-0.371576,-2.486950,0.999997,0.000200,-0.002690,0.007798,-0.000369,0.007811,-0.002703,-87.984887,0.007933,
720,210,1.120443,-18.451103,0.999997,0.000199,-0.004193,0.009852,0.001089,0.009936,-0.004277,85.593482,0.009968,
1430,1540,-0.606116,-3.723925,0.999996,0.000251,-0.004016,0.008568,-0.001371,0.008716,-0.004163,-83.853347,0.008719,
1840,540,-2.713111,-14.798882,0.999996,0.000236,-0.005097,0.010187,0.000049,0.010188,-0.005097,89.817776,0.010188,
890,310,0.837122,-17.870297,0.999998,0.000184,-0.003619,0.008909,0.000137,0.008911,-0.003621,89.372690,0.008963,
1370,740,-0.454357,-14.834251,0.999995,0.000291,-0.005426,0.008433,0.003844,0.009428,-0.006421,75.491114,0.009632,
1710,1490,-2.106919,-5.209454,0.999995,0.000257,-0.005408,0.010443,-0.000158,0.010445,-0.005410,-89.429997,0.010447,
1590,530,-1.373905,-15.718727,0.999994,0.000256,-0.005189,0.010136,0.000708,0.010169,-0.005222,87.360594,0.010170,
770,60,0.207656,-19.854758,0.999997,0.000228,-0.000921,0.007580,0.002239,0.008134,-0.001475,76.109341,0.008667,
1760,340,-1.715419,-17.093155,0.999995,0.000244,-0.004789,0.010055,-0.000052,0.010055,-0.004789,-89.800719,0.010059,
1220,490,0.029976,-17.005223,0.999998,0.000161,-0.002526,0.006817,-0.000213,0.006822,-0.002531,-88.694514,0.006897,
1320,620,-0.230070,-16.012584,0.999996,0.000219,-0.003078,0.006668,0.001711,0.006959,-0.003370,80.325094,0.006961,
1790,1690,-1.940434,-3.417816,0.999997,0.000191,-0.004872,0.010068,-0.000008,0.010068,-0.004872,-89.968155,0.010070,
1780,1350,-2.940664,-6.886202,0.999995,0.000259,-0.005282,0.010276,0.000555,0.010296,-0.005302,87.960281,0.010297,
1160,1220,0.372650,-5.214323,0.999991,0.000322,-0.004454,0.004014,0.002386,0.004640,-0.005080,75.296090,0.005629,
1440,590,-0.700970,-15.734412,0.999995,0.000265,-0.004741,0.009088,0.001847,0.009331,-0.004983,82.521008,0.009338,
930,1630,0.916214,-3.236394,0.999996,0.000215,-0.004075,0.009165,0.000584,0.009191,-0.004101,87.477725,0.009208,
1470,860,-1.661272,-12.482480,0.999989,0.000406,-0.007672,0.013700,0.000448,0.013710,-0.007682,88.800063,0.013743,
1250,1760,-0.034195,-1.787409,0.999998,0.000163,-0.001831,0.006968,-0.000104,0.006969,-0.001832,-89.323318,0.007226,
1530,1160,-2.303384,-8.463409,0.999995,0.000267,-0.006113,0.012710,0.001298,0.012799,-0.006202,86.072781,0.012801,
840,1810,0.830763,-1.808084,0.999998,0.000171,-0.003131,0.009007,-0.000874,0.009069,-0.003194,-85.903268,0.009200,
1880,1840,-1.786728,-2.249337,0.999997,0.000223,-0.004848,0.009806,0.000333,0.009813,-0.004856,88.697401,0.009814,
1690,1920,-0.584560,-0.922893,0.999997,0.000186,-0.002479,0.008614,0.001911,0.008934,-0.002799,80.495063,0.009139,
1800,50,-0.264038,-19.896164,0.999997,0.000224,-0.000859,0.008746,-0.003862,0.010106,-0.002219,-70.599723,0.010623,
600,560,2.888652,-14.521812,0.999996,0.000226,-0.005056,0.010229,-0.000003,0.010229,-0.005056,-89.990241,0.010229,
600,310,2.113561,-17.042112,0.999997,0.000205,-0.004849,0.009938,-0.000046,0.009938,-0.004849,-89.820690,0.009939,
1620,1070,-3.087744,-9.635082,0.999996,0.000259,-0.004021,0.010513,0.000669,0.010544,-0.004051,87.369422,0.010637,
1150,300,0.147468,-18.316681,0.999998,0.000150,-0.001918,0.007125,-0.000070,0.007126,-0.001919,-89.555816,0.007374,
1820,710,-3.165297,-13.119623,0.999997,0.000204,-0.005073,0.010116,-0.000456,0.010130,-0.005087,-88.282554,0.010130,
1110,190,0.138470,-19.065902,0.999998,0.000172,-0.001257,0.006819,0.000204,0.006824,-0.001262,88.554056,0.007262,
1610,1510,-1.513880,-4.668133,0.999994,0.000289,-0.005393,0.010345,-0.000597,0.010368,-0.005416,-87.830828,0.010371,
710,530,2.232804,-15.175110,0.999996,0.000231,-0.005265,0.010336,-0.000152,0.010338,-0.005267,-89.443086,0.010339,
1670,790,-2.650505,-12.608445,0.999995,0.000280,-0.005857,0.011187,-0.001022,0.011248,-0.005918,-86.580269,0.011253,
810,350,1.254817,-17.307202,0.999996,0.000221,-0.004494,0.009614,-0.000005,0.009614,-0.004494,-89.980923,0.009621,
670,1600,2.225843,-4.340343,0.999996,0.000250,-0.005062,0.010168,0.000179,0.010170,-0.005064,89.325650,0.010170,
1490,700,-1.140509,-14.353961,0.999997,0.000272,-0.006670,0.011227,0.001707,0.011388,-0.006831,84.600839,0.011464,
1020,100,0.117342,-19.642781,0.999998,0.000179,-0.000730,0.006662,0.000625,0.006715,-0.000782,85.203143,0.007343,
1460,880,-1.726449,-12.290386,0.999992,0.000341,-0.007472,0.014039,0.000401,0.014046,-0.007480,88.933374,0.014056,
970,1570,0.837361,-3.666256,0.999996,0.000229,-0.004219,0.009112,0.000964,0.009181,-0.004288,85.885503,0.009188,
1590,550,-1.414765,-15.515316,0.999994,0.000270,-0.005385,0.010270,0.000728,0.010304,-0.005419,87.342438,0.010309,
670,70,0.411236,-19.716260,0.999996,0.000235,-0.001409,0.009635,0.003984,0.010922,-0.002696,72.095458,0.011380,
1620,1390,-1.882965,-5.993581,0.999997,0.000194,-0.006161,0.011105,-0.000200,0.011108,-0.006163,-89.334927,0.011130,
1450,880,-1.650697,-12.376159,0.999992,0.000333,-0.007504,0.014026,0.000751,0.014052,-0.007530,88.003458,0.014064,
1110,1380,0.341857,-4.688206,0.999996,0.000246,-0.004074,0.007430,0.002849,0.008097,-0.004741,76.825322,0.008137,
1620,90,-0.263845,-19.649641,0.999997,0.000212,-0.001022,0.007480,-0.001675,0.007798,-0.001340,-79.247935,0.008339,
1120,410,0.270484,-17.474765,0.999997,0.000227,-0.002661,0.007404,-0.000577,0.007437,-0.002693,-86.731241,0.007531,
1320,600,-0.234026,-16.143738,0.999997,0.000212,-0.003005,0.006821,0.001509,0.007048,-0.003231,81.461972,0.007056,
1840,520,-2.653282,-15.001852,0.999995,0.000260,-0.005083,0.010130,0.000078,0.010130,-0.005084,89.704530,0.010130,
1210,1760,0.039838,-1.788078,0.999998,0.000187,-0.001830,0.006983,0.000099,0.006984,-0.001831,89.358933,0.007242,
1760,320,-1.650386,-17.294438,0.999996,0.000241,-0.004818,0.010050,-0.000091,0.010051,-0.004818,-89.650257,0.010054,
1200,490,0.079962,-16.990976,0.999997,0.000196,-0.002499,0.006870,-0.000336,0.006882,-0.002512,-87.946628,0.006965,
1410,1970,-0.075315,-0.412604,0.999998,0.000195,-0.000624,0.006440,0.000507,0.006476,-0.000660,85.916317,0.007127,
1870,1540,-2.790189,-5.199441,0.999997,0.000225,-0.005051,0.010175,-0.000049,0.010175,-0.005051,-89.813981,0.010175,
1480,50,-0.052929,-19.964268,0.999999,0.000123,-0.000325,0.006352,-0.000788,0.006443,-0.000416,-83.360658,0.007212,
1710,1470,-2.164910,-5.421386,0.999996,0.000244,-0.005482,0.010557,-0.000101,0.010558,-0.005483,-89.638208,0.010560,
890,530,1.289938,-15.777546,0.999996,0.000246,-0.005163,0.010043,-0.000814,0.010087,-0.005206,-86.945833,0.010089,
1440,450,-0.592235,-16.959721,0.999996,0.000219,-0.003529,0.008375,0.000837,0.008433,-0.003587,85.998853,0.008465,
820,1810,0.892456,-1.838579,0.999996,0.000250,-0.003288,0.009177,-0.000894,0.009241,-0.003352,-85.918603,0.009356,
1160,840,0.414752,-14.929176,0.999991,0.000336,-0.004600,0.003833,-0.001961,0.004267,-0.005034,-77.527312,0.005424,
930,460,0.975656,-16.595407,0.999998,0.000188,-0.004463,0.009373,-0.000775,0.009417,-0.004506,-86.805307,0.009420,
1630,1960,-0.292228,-0.548810,0.999998,0.000189,-0.001093,0.007624,0.001750,0.007962,-0.001431,79.061335,0.008489,
1290,820,-0.248598,-15.141346,0.999997,0.000204,-0.004155,0.003416,0.002596,0.004220,-0.004960,72.781301,0.005351,
1800,40,-0.179933,-19.981286,0.999997,0.000199,-0.000479,0.008477,-0.003910,0.009944,-0.001946,-69.437371,0.010540,
930,1610,0.951039,-3.421883,0.999997,0.000221,-0.004294,0.009276,0.000710,0.009313,-0.004331,87.014247,0.009320,
600,290,2.038048,-17.240731,0.999997,0.000228,-0.004833,0.009832,0.000027,0.009832,-0.004833,89.892769,0.009832,
1540,1070,-2.776012,-9.586945,0.999997,0.000240,-0.003909,0.011764,0.000890,0.011815,-0.003959,86.758666,0.012027,
1810,1480,-2.665213,-5.627160,0.999996,0.000261,-0.005139,0.010282,0.000019,0.010282,-0.005139,89.928957,0.010282,
710,750,2.960295,-12.867983,0.999995,0.000267,-0.005396,0.010484,0.000768,0.010521,-0.005433,87.239433,0.010523,
1210,1570,0.054411,-3.127322,0.999998,0.000171,-0.002505,0.006877,0.000339,0.006889,-0.002517,87.934039,0.006972,
1610,1490,-1.560113,-4.876130,0.999995,0.000257,-0.005495,0.010405,-0.000592,0.010427,-0.005517,-87.868876,0.010433,
1600,830,-2.397611,-12.302967,0.999994,0.000266,-0.006253,0.011873,-0.001098,0.011939,-0.006319,-86.544991,0.011946,
1870,1840,-1.737235,-2.202848,0.999997,0.000247,-0.004885,0.009919,0.000354,0.009927,-0.004893,88.632290,0.009928,
1260,620,-0.067422,-16.154465,0.999998,0.000155,-0.002405,0.005788,0.000634,0.005837,-0.002454,85.599283,0.005862,
1110,170,0.126088,-19.196794,0.999998,0.000171,-0.001091,0.006694,0.000236,0.006701,-0.001098,88.262124,0.007188,
1510,1160,-2.178292,-8.388500,0.999994,0.000288,-0.006334,0.013150,0.001042,0.013205,-0.006390,86.946458,0.013207,
600,540,2.828440,-14.727432,0.999996,0.000221,-0.005046,0.010193,-0.000018,0.010193,-0.005046,-89.931060,0.010194,
980,1310,1.212491,-6.283775,0.999994,0.000326,-0.007216,0.011850,0.001599,0.011983,-0.007350,85.237810,0.012085,
600,1230,3.768766,-8.274215,0.999996,0.000235,-0.004600,0.009318,-0.000408,0.009330,-0.004612,-88.321886,0.009330,
1360,1320,-0.395242,-5.198897,0.999996,0.000277,-0.005047,0.007953,-0.003777,0.008970,-0.006064,-74.919704,0.009154,
1060,210,0.227304,-18.896896,0.999998,0.000175,-0.001658,0.007121,0.000276,0.007129,-0.001667,88.198730,0.007459,
1880,1600,-2.661239,-4.621408,0.999996,0.000256,-0.004974,0.010058,-0.000069,0.010059,-0.004974,-89.737787,0.010059,
850,1050,3.082490,-9.843221,0.999997,0.000228,-0.003835,0.010437,-0.000399,0.010448,-0.003846,-88.400052,0.010569,
1810,440,-2.267352,-15.916169,0.999997,0.000252,-0.005034,0.010097,0.000142,0.010098,-0.005035,89.461179,0.010098,
1320,580,-0.235237,-16.281881,0.999998,0.000190,-0.002968,0.006914,0.001347,0.007094,-0.003148,82.376404,0.007109,
970,1550,0.859142,-3.850835,0.999996,0.000250,-0.004474,0.009246,0.001099,0.009333,-0.004561,85.448526,0.009334,
1840,500,-2.594996,-15.208023,0.999995,0.000267,-0.005073,0.010172,0.000098,0.010173,-0.005073,89.632223,0.010173,
1020,80,0.092449,-19.771249,0.999998,0.000181,-0.000554,0.006534,0.000674,0.006598,-0.000617,84.617671,0.007288,
1150,1700,0.172641,-2.238762,0.999998,0.000180,-0.002236,0.007254,0.000190,0.007258,-0.002240,88.856253,0.007433,
1760,300,-1.579056,-17.497350,0.999995,0.000256,-0.004818,0.010036,-0.000226,0.010039,-0.004821,-89.130130,0.010042,
1280,490,-0.122340,-16.977830,0.999998,0.000158,-0.002517,0.006927,0.000367,0.006941,-0.002531,87.780512,0.007025,
1050,880,1.384848,-12.811600,0.999992,0.000340,-0.007064,0.013293,-0.002846,0.013684,-0.007454,-82.190535,0.013702,
1060,800,0.807180,-13.908270,0.999992,0.000335,-0.007391,0.011143,-0.003467,0.011770,-0.008018,-79.744405,0.012025,
810,330,1.197163,-17.499858,0.999997,0.000210,-0.004325,0.009619,0.000100,0.009620,-0.004326,89.587215,0.009636,
1410,1950,-0.100383,-0.542957,0.999998,0.000196,-0.000820,0.006617,0.000517,0.006653,-0.000855,86.045898,0.007239,
1410,1760,-0.344376,-1.899850,0.999996,0.000272,-0.002448,0.007567,-0.000079,0.007568,-0.002448,-89.549298,0.007723,
1110,150,0.103433,-19.333670,0.999998,0.000158,-0.000950,0.006696,0.000303,0.006708,-0.000962,87.734586,0.007255,
1210,1550,0.054368,-3.265594,0.999998,0.000173,-0.002525,0.006789,0.000363,0.006804,-0.002539,87.773508,0.006876,
1100,410,0.325105,-17.444386,0.999997,0.000208,-0.002659,0.007519,-0.000500,0.007544,-0.002684,-87.192928,0.007648,
1440,490,-0.626383,-16.616171,0.999996,0.000210,-0.003955,0.008604,0.001202,0.008718,-0.004069,84.580544,0.008724,
870,600,1.545198,-14.977668,0.999992,0.000324,-0.005722,0.010559,-0.000672,0.010587,-0.005750,-87.639016,0.010600,
1590,570,-1.461669,-15.305062,0.999995,0.000275,-0.005553,0.010452,0.000735,0.010486,-0.005587,87.375402,0.010493,
1630,1920,-0.448872,-0.867335,0.999996,0.000228,-0.001715,0.008026,0.001630,0.008292,-0.001981,80.746035,0.008660,
1360,1300,-0.413680,-5.356015,0.999994,0.000303,-0.005351,0.008144,-0.004055,0.009269,-0.006476,-74.497757,0.009509,
660,1980,0.473086,-0.499688,0.999995,0.000267,-0.001737,0.009946,-0.003952,0.011157,-0.002949,-72.961346,0.011563,
1430,1420,-0.687035,-4.789571,0.999994,0.000286,-0.005159,0.009166,-0.002293,0.009524,-0.005517,-81.124260,0.009564,
820,1370,2.087221,-6.293463,0.999994,0.000322,-0.006103,0.011170,-0.000100,0.011171,-0.006103,-89.668869,0.011187,
1480,90,-0.124204,-19.700499,0.999997,0.000185,-0.000698,0.006749,-0.000814,0.006837,-0.000786,-83.835308,0.007483,
850,1030,3.102054,-10.053135,0.999996,0.000267,-0.003789,0.010496,-0.000063,0.010496,-0.003789,-89.746625,0.010631,
620,230,1.682113,-17.921423,0.999997,0.000219,-0.004867,0.010067,0.000327,0.010075,-0.004874,88.748145,0.010076,
680,1190,3.517630,-8.520402,0.999995,0.000300,-0.004857,0.009892,-0.000952,0.009953,-0.004918,-86.320148,0.009953,
1670,770,-2.568584,-12.830240,0.999994,0.000299,-0.005930,0.011110,-0.000866,0.011154,-0.005974,-87.096501,0.011163,
1360,1890,-0.127710,-0.931004,0.999998,0.000160,-0.001042,0.006709,0.000290,0.006720,-0.001053,87.859542,0.007228,
1540,1960,-0.190033,-0.513893,0.999997,0.000189,-0.000765,0.007067,0.001148,0.007231,-0.000930,81.830899,0.007868,
1160,1570,0.180873,-3.169628,0.999998,0.000165,-0.002767,0.007073,0.000661,0.007117,-0.002812,86.172111,0.007169,
570,760,3.701238,-12.414192,0.999808,0.001436,-0.005601,0.009679,-0.000067,0.009679,-0.005602,-89.748858,0.009719,
1340,880,-1.027366,-14.172293,0.999996,0.000251,-0.002544,0.005104,0.003995,0.006810,-0.004250,66.873399,0.006879,
600,520,2.769636,-14.931544,0.999996,0.000239,-0.005050,0.010132,-0.000037,0.010132,-0.005050,-89.861585,0.010132,
1260,600,-0.068832,-16.271834,0.999998,0.000178,-0.002445,0.006034,0.000550,0.006069,-0.002480,86.305766,0.006103,
970,1530,0.887270,-4.039026,0.999996,0.000249,-0.004697,0.009333,0.001242,0.009442,-0.004806,84.978519,0.009442,
1160,820,0.300666,-15.010173,0.999995,0.000282,-0.004294,0.004214,-0.003250,0.005313,-0.005393,-71.308515,0.006182,
1630,1940,-0.368017,-0.706512,0.999996,0.000214,-0.001431,0.007966,0.001733,0.008275,-0.001741,79.876469,0.008726,
890,290,0.788842,-18.046393,0.999997,0.000200,-0.003430,0.008789,0.000297,0.008796,-0.003437,88.607688,0.008866,
1710,1450,-2.222710,-5.635027,0.999996,0.000251,-0.005553,0.010606,-0.000032,0.010606,-0.005554,-89.886653,0.010610,
1460,860,-1.582712,-12.566518,0.999991,0.000354,-0.007779,0.013806,0.000808,0.013836,-0.007809,87.858041,0.013874,
1580,830,-2.271706,-12.356730,0.999995,0.000232,-0.006495,0.012136,-0.000987,0.012188,-0.006547,-86.976686,0.012200,
1320,560,-0.236387,-16.418929,0.999997,0.000185,-0.002952,0.007011,0.001213,0.007156,-0.003097,83.159370,0.007178,
930,1590,0.984497,-3.612849,0.999997,0.000234,-0.004454,0.009397,0.000820,0.009445,-0.004503,86.625762,0.009448,
1040,1810,0.313776,-1.541099,0.999996,0.000238,-0.002141,0.007479,-0.000152,0.007481,-0.002143,-89.096261,0.007705,
1810,420,-2.208098,-16.119239,0.999997,0.000208,-0.005015,0.010106,0.000153,0.010108,-0.005017,89.418475,0.010108,
1020,60,0.055567,-19.905202,0.999998,0.000169,-0.000341,0.006409,0.000677,0.006476,-0.000409,84.328154,0.007254,
1210,1700,0.045992,-2.212188,0.999998,0.000146,-0.002117,0.007059,0.000176,0.007063,-0.002120,88.899081,0.007248,
1610,1470,-1.605241,-5.084013,0.999995,0.000254,-0.005624,0.010571,-0.000590,0.010593,-0.005645,-87.916765,0.010600,
1760,280,-1.506590,-17.698178,0.999995,0.000254,-0.004795,0.010030,-0.000361,0.010038,-0.004804,-88.607222,0.010042,
1410,1280,-0.771231,-6.043961,0.999995,0.000257,-0.007075,0.010881,-0.003378,0.011495,-0.007690,-79.690269,0.011712,
1790,1890,-1.088746,-1.391807,0.999996,0.000231,-0.004034,0.010204,0.001829,0.010435,-0.004265,82.797023,0.010493,
1890,1600,-2.711447,-4.654014,0.999996,0.000255,-0.004977,0.010049,-0.000067,0.010049,-0.004977,-89.743839,0.010049,
1790,1670,-2.006479,-3.618535,0.999997,0.000203,-0.004922,0.010111,-0.000075,0.010111,-0.004923,-89.713181,0.010112,
1110,130,0.089399,-19.463485,0.999998,0.000147,-0.000786,0.006552,0.000302,0.006565,-0.000798,87.649971,0.007164,
1720,1030,-3.531789,-10.054894,0.999995,0.000237,-0.004249,0.009820,0.000078,0.009820,-0.004249,89.683248,0.009850,
1590,1010,-3.001967,-10.269660,0.999997,0.000229,-0.003738,0.010729,-0.000360,0.010738,-0.003747,-88.575430,0.010900,
1210,1530,0.054826,-3.400538,0.999998,0.000184,-0.002540,0.006679,0.000394,0.006696,-0.002556,87.558037,0.006758,
1060,780,0.736597,-14.127594,0.999994,0.000293,-0.007026,0.010716,-0.003537,0.011396,-0.007705,-79.131085,0.011629,
1470,50,-0.050568,-19.965268,0.999998,0.000141,-0.000222,0.006307,-0.000764,0.006395,-0.000310,-83.414394,0.007212,
620,910,3.911821,-11.134162,0.999997,0.000208,-0.004377,0.009020,0.000475,0.009037,-0.004393,87.972599,0.009038,
740,710,2.646333,-13.362331,0.999994,0.000342,-0.005648,0.010772,0.000575,0.010792,-0.005668,87.998541,0.010796,
1560,1350,-1.622782,-6.216536,0.999995,0.000263,-0.006671,0.011562,-0.000557,0.011579,-0.006688,-88.251528,0.011625,
890,250,0.681653,-18.394787,0.999997,0.000204,-0.003082,0.008610,0.000558,0.008636,-0.003109,87.275004,0.008749,
1260,750,-0.056611,-15.551746,0.999997,0.000203,-0.002188,0.003376,0.001513,0.003761,-0.002572,75.733727,0.003845,
1360,1280,-0.451322,-5.526457,0.999995,0.000296,-0.005685,0.008376,-0.004337,0.009606,-0.006915,-74.164806,0.009911,
1430,1760,-0.398526,-1.929692,0.999996,0.000243,-0.002529,0.007697,-0.000048,0.007697,-0.002530,-89.733027,0.007846,
1670,750,-2.490004,-13.055376,0.999995,0.000295,-0.005962,0.011151,-0.000719,0.011181,-0.005992,-87.597211,0.011190,
1600,1390,-1.759537,-5.922352,0.999997,0.000191,-0.006248,0.011142,-0.000377,0.011150,-0.006256,-88.759798,0.011178,
930,440,0.942766,-16.783145,0.999998,0.000181,-0.004287,0.009220,-0.000692,0.009256,-0.004322,-87.074115,0.009263,
1440,470,-0.608445,-16.791746,0.999997,0.000217,-0.003738,0.008503,0.001032,0.008590,-0.003824,85.215740,0.008607,
680,1490,2.495331,-5.439820,0.999994,0.000272,-0.005262,0.010312,0.000024,0.010312,-0.005262,89.912233,0.010313,
760,1980,0.298817,-0.429209,0.999997,0.000213,-0.001186,0.007882,-0.002383,0.008470,-0.001774,-76.137979,0.008933,
1750,1780,-1.437845,-2.379280,0.999996,0.000260,-0.004687,0.010028,0.000436,0.010041,-0.004700,88.305984,0.010048,
1740,630,-2.468026,-14.171101,0.999995,0.000249,-0.005479,0.010526,-0.000163,0.010528,-0.005480,-89.417916,0.010531,
990,1180,1.788039,-7.907504,0.999991,0.000351,-0.007381,0.013794,0.000090,0.013794,-0.007381,89.755324,0.013806,
1710,700,-2.538190,-13.505685,0.999995,0.000292,-0.005720,0.010821,-0.000492,0.010836,-0.005735,-88.296637,0.010842,
1730,60,-0.241072,-19.840385,0.999996,0.000228,-0.001109,0.008009,-0.002690,0.008743,-0.001844,-74.729834,0.009217,
1830,1910,-1.123326,-1.297230,0.999996,0.000254,-0.004640,0.010430,0.001336,0.010547,-0.004758,84.971085,0.010564,
1510,190,-0.381442,-18.958542,0.999997,0.000186,-0.002106,0.007684,-0.000673,0.007730,-0.002152,-86.083527,0.007979,
1320,540,-0.236123,-16.561547,0.999997,0.000198,-0.002942,0.007100,0.001109,0.007221,-0.003063,83.769638,0.007249,
1860,1890,-1.399959,-1.651681,0.999997,0.000218,-0.004886,0.010284,0.000810,0.010327,-0.004929,86.951092,0.010331,
1410,1930,-0.126261,-0.677517,0.999998,0.000165,-0.000987,0.006701,0.000466,0.006729,-0.001015,86.542119,0.007255,
1890,1830,-1.887789,-2.394202,0.999997,0.000216,-0.004860,0.009738,0.000252,0.009743,-0.004864,89.010777,0.009743,
1400,90,-0.075720,-19.716939,0.999999,0.000150,-0.000597,0.006427,-0.000480,0.006460,-0.000629,-86.105373,0.007124,
610,1320,3.417786,-7.379054,0.999997,0.000207,-0.004944,0.009843,-0.000400,0.009854,-0.004955,-88.453205,0.009854,
1460,840,-1.457522,-12.836485,0.999991,0.000361,-0.007886,0.013384,0.001207,0.013452,-0.007954,86.762708,0.013527,
1340,870,-0.905315,-14.222902,0.999994,0.000324,-0.003186,0.005239,0.003509,0.006510,-0.004456,70.102592,0.006656,
600,500,2.710533,-15.134256,0.999996,0.000239,-0.005055,0.010093,-0.000053,0.010093,-0.005055,-89.800416,0.010093,
1790,1870,-1.203177,-1.590804,0.999996,0.000254,-0.004242,0.010092,0.001461,0.010239,-0.004389,84.238368,0.010274,
1540,1940,-0.241206,-0.658155,0.999997,0.000204,-0.001031,0.007335,0.001197,0.007503,-0.001199,82.016899,0.008061,
1790,1560,-2.325684,-4.741815,0.999996,0.000240,-0.005137,0.010193,-0.000146,0.010194,-0.005139,-89.454574,0.010194,
970,1510,0.913454,-4.231449,0.999997,0.000193,-0.004841,0.009502,0.001332,0.009624,-0.004963,84.737133,0.009626,
1790,1650,-2.065076,-3.822711,0.999995,0.000257,-0.004971,0.010132,-0.000152,0.010134,-0.004972,-89.423055,0.010134,
1210,1510,0.053503,-3.532932,0.999997,0.000207,-0.002533,0.006542,0.000429,0.006562,-0.002553,87.299595,0.006616,
1590,990,-2.982333,-10.483000,0.999997,0.000212,-0.003901,0.010767,-0.000656,0.010797,-0.003930,-87.446179,0.010929,
660,1960,0.650206,-0.704296,0.999996,0.000268,-0.002469,0.009872,-0.003376,0.010735,-0.003332,-75.659187,0.010990,
1060,760,0.688604,-14.338498,0.999994,0.000282,-0.006691,0.010327,-0.003525,0.011029,-0.007392,-78.749141,0.011240,
1160,800,0.226366,-15.087639,0.999994,0.000291,-0.003993,0.004434,-0.003602,0.005764,-0.005322,-69.737821,0.006416,
1460,50,-0.049276,-19.965961,0.999998,0.000168,-0.000190,0.006270,-0.000726,0.006351,-0.000271,-83.667719,0.007182,
1670,730,-2.415345,-13.278072,0.999995,0.000301,-0.006018,0.011148,-0.000589,0.011168,-0.006038,-88.036498,0.011180,
1240,750,-0.017057,-15.589631,0.999999,0.000135,-0.002037,0.003038,0.000434,0.003075,-0.002074,85.148513,0.003136,
1800,1350,-3.044888,-6.937677,0.999996,0.000217,-0.005192,0.010163,0.000511,0.010180,-0.005209,88.096782,0.010181,
1710,1430,-2.284175,-5.847468,0.999995,0.000266,-0.005601,0.010616,0.000074,0.010616,-0.005602,89.739092,0.010621,
890,230,0.626167,-18.567781,0.999997,0.000219,-0.002891,0.008468,0.000680,0.008509,-0.002932,86.587006,0.008645,
820,1470,1.792704,-5.202553,0.999993,0.000292,-0.005649,0.010617,0.000375,0.010625,-0.005658,88.681590,0.010633,
1070,1760,0.306850,-1.878651,0.999997,0.000203,-0.002143,0.007482,0.000020,0.007482,-0.002143,89.883046,0.007706,
1170,1420,0.150335,-4.159717,0.999997,0.000186,-0.002791,0.006063,0.001554,0.006328,-0.003056,80.329920,0.006329,
720,910,3.458653,-11.231387,0.999997,0.000237,-0.004712,0.009907,0.000871,0.009959,-0.004763,86.602728,0.009962,
1730,1780,-1.347077,-2.320695,0.999996,0.000257,-0.004301,0.009913,0.000635,0.009941,-0.004329,87.446958,0.009969,
1440,430,-0.576163,-17.124860,0.999996,0.000214,-0.003323,0.008258,0.000665,0.008296,-0.003361,86.722357,0.008346,
760,1960,0.401716,-0.589357,0.999996,0.000225,-0.001521,0.008187,-0.002311,0.008709,-0.002043,-77.269849,0.009109,
1440,770,-0.974903,-13.897429,0.999996,0.000256,-0.007376,0.011667,0.002543,0.012001,-0.007710,82.522398,0.012163,
1730,700,-2.650995,-13.453235,0.999993,0.000317,-0.005596,0.010695,-0.000509,0.010711,-0.005612,-88.211502,0.010715,
1360,1700,-0.284594,-2.293858,0.999997,0.000234,-0.002373,0.007460,-0.000289,0.007469,-0.002382,-88.318014,0.007630,
1760,260,-1.424314,-17.900755,0.999996,0.000268,-0.004750,0.009993,-0.000535,0.010012,-0.004769,-87.924984,0.010016,
610,780,3.575160,-12.337117,0.999996,0.000240,-0.004826,0.009761,0.000481,0.009776,-0.004841,88.112318,0.009777,
1320,520,-0.234645,-16.704636,0.999996,0.000213,-0.002928,0.007187,0.000998,0.007285,-0.003026,84.420132,0.007320,
710,500,2.147846,-15.487763,0.999997,0.000205,-0.005153,0.010266,-0.000190,0.010269,-0.005156,-89.294578,0.010269,
590,1190,3.937353,-8.670724,0.999996,0.000217,-0.004366,0.009040,-0.000300,0.009046,-0.004373,-88.719543,0.009048,
1110,110,0.069976,-19.597267,0.999998,0.000166,-0.000658,0.006472,0.000350,0.006489,-0.000675,87.197922,0.007136,
1740,1030,-3.617166,-10.055990,0.999996,0.000238,-0.004308,0.009710,0.000054,0.009711,-0.004309,89.780400,0.009731,
1890,1900,-1.484615,-1.699397,0.999996,0.000269,-0.004924,0.010200,0.000902,0.010254,-0.004977,86.599652,0.010255,
1080,1890,0.149817,-0.939168,0.999997,0.000212,-0.000989,0.006825,-0.000395,0.006845,-0.001008,-87.113803,0.007391,
1790,1850,-1.309372,-1.796985,0.999995,0.000267,-0.004455,0.010174,0.001191,0.010270,-0.004551,85.374139,0.010293,
590,1320,3.516469,-7.436596,0.999997,0.000231,-0.004909,0.009777,-0.000198,0.009779,-0.004912,-89.225824,0.009779,
600,480,2.649186,-15.337807,0.999995,0.000276,-0.005031,0.010124,-0.000061,0.010124,-0.005032,-89.770838,0.010124,
1460,820,-1.345193,-13.099201,0.999991,0.000345,-0.007849,0.012933,0.001397,0.013027,-0.007943,86.171378,0.013131,
1540,1920,-0.299015,-0.808267,0.999998,0.000191,-0.001289,0.007433,0.001085,0.007566,-0.001422,83.014872,0.008042,
1410,1910,-0.152221,-0.812351,0.999997,0.000170,-0.001158,0.006835,0.000445,0.006860,-0.001182,86.824670,0.007334,
1830,1890,-1.251140,-1.508042,0.999994,0.000282,-0.004698,0.010432,0.001099,0.010512,-0.004777,85.865752,0.010526,
1790,1580,-2.267294,-4.536317,0.999995,0.000251,-0.005119,0.010198,-0.000158,0.010200,-0.005121,-89.409195,0.010200,
1590,970,-2.933124,-10.700988,0.999997,0.000208,-0.004136,0.010951,-0.001014,0.011019,-0.004204,-86.173894,0.011122,
890,1100,2.816756,-9.276171,0.999994,0.000291,-0.004418,0.011282,-0.001168,0.011369,-0.004505,-85.767887,0.011450,
1060,740,0.645658,-14.547650,0.999993,0.000287,-0.006302,0.009925,-0.003442,0.010624,-0.007002,-78.505298,0.010802,
1510,170,-0.337899,-19.107942,0.999998,0.000186,-0.001851,0.007507,-0.000745,0.007566,-0.001910,-85.478547,0.007869,
1790,1630,-2.122233,-4.026949,0.999995,0.000244,-0.004996,0.010126,-0.000173,0.010128,-0.004998,-89.344975,0.010128,
610,1900,1.303669,-1.514409,0.999997,0.000207,-0.004900,0.010353,-0.000889,0.010404,-0.004951,-86.677185,0.010408,
1210,1490,0.052293,-3.662724,0.999998,0.000201,-0.002513,0.006369,0.000450,0.006392,-0.002536,87.105738,0.006437,
970,1490,0.937818,-4.423390,0.999997,0.000206,-0.004952,0.009665,0.001399,0.009798,-0.005084,84.581452,0.009800,
1180,50,0.011150,-19.976706,0.999998,0.000175,-0.000124,0.006026,0.000122,0.006029,-0.000127,88.866249,0.006890,
1720,850,-3.156424,-11.870590,0.999995,0.000293,-0.005170,0.010406,-0.001123,0.010487,-0.005250,-85.898034,0.010487,
790,140,0.561655,-19.215111,0.999995,0.000258,-0.002734,0.008520,0.001715,0.008776,-0.002989,81.523503,0.008923,
1360,1720,-0.272783,-2.148282,0.999997,0.000214,-0.002250,0.007448,-0.000197,0.007452,-0.002254,-88.838427,0.007643,
1670,710,-2.337010,-13.504077,0.999996,0.000282,-0.006030,0.011112,-0.000438,0.011123,-0.006041,-88.536143,0.011137,
1730,1760,-1.419215,-2.521666,0.999996,0.000232,-0.004406,0.009962,0.000456,0.009977,-0.004421,88.183533,0.009998,
1160,780,0.194785,-15.179214,0.999995,0.000264,-0.003663,0.004734,-0.003667,0.006110,-0.005038,-69.433600,0.006525,
1320,500,-0.231772,-16.848989,0.999997,0.000197,-0.002880,0.007240,0.000878,0.007315,-0.002956,85.076441,0.007360,
1380,490,-0.413585,-16.788703,0.999996,0.000228,-0.003431,0.007872,0.001214,0.008001,-0.003560,83.938354,0.008017,
1710,1410,-2.347895,-6.061512,0.999995,0.000280,-0.005614,0.010660,0.000189,0.010662,-0.005616,89.335052,0.010667,
1620,30,-0.042765,-20.084166,0.999998,0.000000,0.000074,0.006862,-0.001780,0.007300,-0.000365,-76.163624,0.008227,
970,760,1.336309,-13.631735,0.999992,0.000323,-0.007375,0.012189,-0.001236,0.012266,-0.007453,-86.399460,0.012361,
1760,1350,-2.832728,-6.837699,0.999997,0.000207,-0.005375,0.010410,0.000559,0.010429,-0.005394,87.974393,0.010432,
910,1500,1.230045,-4.561347,0.999995,0.000283,-0.005290,0.010140,0.000973,0.010201,-0.005351,86.405113,0.010205,
1820,1030,-3.961858,-10.056155,0.999996,0.000222,-0.004292,0.009143,0.000036,0.009143,-0.004292,89.848509,0.009149,
1570,160,-0.412290,-19.141457,0.999997,0.000218,-0.002014,0.007849,-0.001127,0.007976,-0.002141,-83.563500,0.008256,
890,210,0.568849,-18.733327,0.999997,0.000205,-0.002651,0.008279,0.000805,0.008338,-0.002710,85.811424,0.008506,
1110,90,0.055773,-19.724822,0.999998,0.000168,-0.000471,0.006289,0.000313,0.006304,-0.000485,87.354598,0.007015,
580,1320,3.564419,-7.466568,0.999997,0.000247,-0.005640,0.009828,0.000046,0.009828,-0.005641,89.829537,0.009864,
1790,1830,-1.410364,-1.998896,0.999995,0.000268,-0.004561,0.010095,0.000924,0.010153,-0.004619,86.404661,0.010166,
710,480,2.093944,-15.692712,0.999998,0.000186,-0.005073,0.010220,-0.000212,0.010222,-0.005076,-89.204613,0.010223,
1150,1420,0.207262,-4.223077,0.999997,0.000207,-0.003008,0.006466,0.001785,0.006791,-0.003333,79.677962,0.006791,
1760,460,-2.073942,-15.874304,0.999996,0.000242,-0.005053,0.010142,0.000191,0.010145,-0.005055,89.280454,0.010145,
930,1570,1.015615,-3.804466,0.999996,0.000222,-0.004551,0.009461,0.000860,0.009513,-0.004604,86.499596,0.009515,
1260,490,-0.071520,-16.993026,0.999998,0.000170,-0.002505,0.006848,0.000348,0.006861,-0.002518,87.870289,0.006942,
760,1940,0.508307,-0.760299,0.999996,0.000226,-0.001945,0.008699,-0.002389,0.009211,-0.002457,-77.912424,0.009539,
860,790,2.235595,-12.771699,0.999996,0.000283,-0.006508,0.011870,0.000750,0.011901,-0.006539,87.668193,0.011920,
1880,1900,-1.435340,-1.649743,0.999996,0.000274,-0.004908,0.010220,0.000896,0.010273,-0.004961,86.620984,0.010275,
1540,1900,-0.346755,-0.958376,0.999997,0.000206,-0.001539,0.007614,0.001042,0.007731,-0.001656,83.584066,0.008141,
1480,1890,-0.272966,-0.989830,0.999998,0.000185,-0.001452,0.007257,0.000700,0.007313,-0.001508,85.432633,0.007722,
1570,460,-1.141059,-16.480112,0.999996,0.000238,-0.004501,0.009610,0.000586,0.009635,-0.004525,87.624446,0.009641,
620,1230,3.675659,-8.229279,0.999995,0.000250,-0.004686,0.009419,-0.000575,0.009442,-0.004710,-87.669094,0.009442,
1060,720,0.621142,-14.740084,0.999995,0.000254,-0.005947,0.009613,-0.003247,0.010263,-0.006597,-78.673111,0.010402,
990,1760,0.501614,-1.986661,0.999996,0.000220,-0.002530,0.008027,-0.000139,0.008029,-0.002532,-89.247323,0.008209,
600,460,2.592588,-15.541444,0.999995,0.000263,-0.005006,0.010096,-0.000098,0.010096,-0.005006,-89.626859,0.010097,
660,1940,0.796131,-0.900423,0.999997,0.000234,-0.003182,0.010168,-0.002828,0.010742,-0.003757,-78.520728,0.010903,
1590,950,-2.872596,-10.922853,0.999996,0.000253,-0.004464,0.011071,-0.001162,0.011157,-0.004550,-85.746692,0.011220,
870,580,1.499618,-15.188267,0.999993,0.000283,-0.005611,0.010497,-0.000693,0.010526,-0.005640,-87.540304,0.010535,
810,310,1.137080,-17.692952,0.999997,0.000231,-0.004109,0.009490,0.000273,0.009496,-0.004114,88.849291,0.009524,
1440,410,-0.558103,-17.287996,0.999996,0.000235,-0.003177,0.008190,0.000548,0.008217,-0.003203,87.246171,0.008283,
1460,800,-1.241353,-13.360020,0.999993,0.000319,-0.007761,0.012612,0.001652,0.012745,-0.007894,85.393326,0.012865,
600,1890,1.414447,-1.665906,0.999996,0.000235,-0.004878,0.010278,-0.000771,0.010317,-0.004917,-87.096957,0.010321,
1520,1610,-0.894556,-3.382752,0.999998,0.000191,-0.004127,0.009129,-0.000701,0.009166,-0.004164,-86.980399,0.009179,
1360,1740,-0.255772,-1.994126,0.999997,0.000201,-0.002137,0.007373,-0.000124,0.007375,-0.002139,-89.253830,0.007589,
1830,1830,-1.593393,-2.132004,0.999996,0.000248,-0.004770,0.010164,0.000514,0.010182,-0.004788,88.029623,0.010188,
1210,1470,0.052421,-3.789309,0.999998,0.000185,-0.002473,0.006193,0.000496,0.006221,-0.002501,86.735184,0.006261,
870,1100,2.901941,-9.294557,0.999996,0.000238,-0.004342,0.010988,-0.001108,0.011068,-0.004422,-85.885978,0.011142,
1410,1890,-0.181503,-0.951369,0.999998,0.000174,-0.001329,0.006887,0.000380,0.006905,-0.001347,87.359073,0.007320,
820,40,0.081355,-20.014958,0.999998,0.000180,-0.000369,0.007015,0.001849,0.007452,-0.000806,76.698958,0.008180,
710,510,2.177066,-15.384614,0.999996,0.000235,-0.005197,0.010302,-0.000179,0.010304,-0.005199,-89.339679,0.010304,
970,740,1.269024,-13.873365,0.999993,0.000295,-0.007154,0.011822,-0.001418,0.011927,-0.007259,-85.751092,0.012021,
1640,890,-2.891441,-11.536721,0.999996,0.000231,-0.005161,0.010984,-0.001305,0.011089,-0.005266,-85.407051,0.011094,
1380,470,-0.402455,-16.948603,0.999996,0.000220,-0.003315,0.007854,0.001040,0.007951,-0.003411,84.723595,0.007977,
780,1710,1.375191,-2.893670,0.999995,0.000246,-0.004450,0.009750,-0.000100,0.009750,-0.004450,-89.598454,0.009763,
1710,1390,-2.416602,-6.275920,0.999996,0.000281,-0.005677,0.010702,0.000288,0.010707,-0.005683,88.993140,0.010714,
1550,160,-0.377833,-19.156613,0.999997,0.000204,-0.001591,0.007725,-0.001070,0.007846,-0.001713,-83.529733,0.008251,
1320,480,-0.227885,-16.996415,0.999998,0.000184,-0.002824,0.007238,0.000823,0.007305,-0.002891,85.356289,0.007358,
1510,150,-0.289156,-19.259942,0.999997,0.000188,-0.001659,0.007400,-0.000820,0.007474,-0.001732,-84.867787,0.007824,
1830,1870,-1.381668,-1.718269,0.999995,0.000265,-0.004731,0.010295,0.000882,0.010347,-0.004782,86.651513,0.010356,
1750,650,-2.587983,-13.930596,0.999994,0.000280,-0.005482,0.010479,-0.000287,0.010484,-0.005487,-88.971522,0.010488,
1740,1290,-2.946420,-7.423030,0.999996,0.000282,-0.005392,0.010624,0.000865,0.010670,-0.005439,86.915950,0.010671,
890,190,0.509099,-18.901381,0.999996,0.000232,-0.002414,0.008146,0.000942,0.008230,-0.002498,84.943701,0.008439,
1740,1350,-2.724855,-6.787171,0.999995,0.000284,-0.005526,0.010605,0.000542,0.010623,-0.005544,88.079413,0.010627,
1230,1420,0.002234,-4.066374,0.999998,0.000171,-0.002281,0.005488,0.000052,0.005488,-0.002282,89.618828,0.005514,
1840,1010,-4.038711,-10.237715,0.999997,0.000205,-0.004265,0.008959,-0.000275,0.008964,-0.004270,-88.809854,0.008968,
1460,1890,-0.249512,-0.979297,0.999998,0.000168,-0.001252,0.007157,0.000651,0.007207,-0.001302,85.602331,0.007682,
1730,50,-0.184815,-19.917942,0.999997,0.000208,-0.000864,0.007892,-0.002756,0.008687,-0.001659,-73.903895,0.009224,
760,1920,0.619759,-0.938292,0.999996,0.000240,-0.002309,0.008748,-0.002121,0.009140,-0.002702,-79.505570,0.009392,
1670,690,-2.269125,-13.726175,0.999995,0.000261,-0.006022,0.011012,-0.000274,0.011016,-0.006026,-89.079198,0.011032,
1800,1470,-2.644401,-5.699381,0.999995,0.000266,-0.005192,0.010285,0.000051,0.010285,-0.005192,89.812805,0.010285,
970,1470,0.963025,-4.615164,0.999996,0.000242,-0.005160,0.009827,0.001483,0.009972,-0.005306,84.401891,0.009979,
1540,1880,-0.405554,-1.113244,0.999997,0.000224,-0.001763,0.007692,0.000921,0.007781,-0.001852,84.490050,0.008129,
600,440,2.533083,-15.742511,0.999995,0.000263,-0.004969,0.010015,-0.000102,0.010015,-0.004969,-89.610816,0.010015,
1800,100,-0.680967,-19.411934,0.999996,0.000254,-0.002585,0.009868,-0.003218,0.010650,-0.003367,-76.335556,0.010888,
1000,750,1.081942,-13.951993,0.999994,0.000284,-0.007255,0.011722,-0.002057,0.011943,-0.007475,-83.884488,0.012068,
1060,1380,0.576251,-4.999007,0.999995,0.000273,-0.005229,0.008992,0.002817,0.009530,-0.005767,79.192005,0.009600,
1870,1900,-1.386645,-1.599300,0.999994,0.000295,-0.004898,0.010241,0.000890,0.010293,-0.004951,86.645653,0.010296,
1590,930,-2.799930,-11.146528,0.999996,0.000265,-0.004780,0.011329,-0.001400,0.011450,-0.004901,-85.071095,0.011490,
1740,2010,-0.160911,-0.204540,0.999998,0.000188,-0.000985,0.008014,0.002927,0.008882,-0.001853,73.475997,0.009371,
660,1920,0.946098,-1.112750,0.999997,0.000236,-0.003581,0.010203,-0.002433,0.010619,-0.003998,-80.277879,0.010727,
1170,1640,0.144048,-2.660805,0.999998,0.000172,-0.002375,0.007171,0.000237,0.007177,-0.002381,88.580753,0.007312,
1210,1450,0.050921,-3.910633,0.999998,0.000170,-0.002417,0.005919,0.000530,0.005952,-0.002450,86.376094,0.005983,
1360,1760,-0.244517,-1.852814,0.999997,0.000208,-0.001995,0.007284,-0.000039,0.007284,-0.001995,-89.759108,0.007528,
1830,1810,-1.690376,-2.333743,0.999997,0.000238,-0.004768,0.010143,0.000332,0.010150,-0.004775,88.726996,0.010156,
1580,190,-0.528543,-18.891958,0.999997,0.000230,-0.002589,0.008208,-0.000945,0.008290,-0.002671,-85.034595,0.008463,
1110,70,0.036605,-19.849113,0.999998,0.000169,-0.000339,0.006243,0.000360,0.006262,-0.000359,86.880237,0.007033,
1520,830,-1.857646,-12.585277,0.999993,0.000319,-0.007245,0.012963,-0.000321,0.012968,-0.007250,-89.090506,0.012999,
1260,410,-0.066450,-17.554261,0.999997,0.000207,-0.002338,0.007092,0.000234,0.007098,-0.002344,88.580982,0.007233,
1510,130,-0.242712,-19.405941,0.999997,0.000198,-0.001383,0.007196,-0.000865,0.007282,-0.001469,-84.299460,0.007702,
760,1710,1.463330,-2.946708,0.999996,0.000208,-0.004446,0.009860,-0.000172,0.009862,-0.004448,-89.309776,0.009878,
770,120,0.519761,-19.363014,0.999996,0.000230,-0.002089,0.008680,0.002177,0.009104,-0.002513,78.991617,0.009403,
1320,460,-0.226274,-17.140276,0.999998,0.000167,-0.002783,0.007285,0.000742,0.007339,-0.002838,85.807808,0.007402,
1710,1370,-2.485033,-6.491640,0.999996,0.000280,-0.005722,0.010794,0.000412,0.010804,-0.005732,88.572541,0.010811,
1000,650,0.881849,-15.043714,0.999996,0.000244,-0.005739,0.010009,-0.002043,0.010270,-0.005999,-82.728720,0.010318,
710,1100,3.606529,-9.378367,0.999996,0.000269,-0.004508,0.009798,-0.000680,0.009830,-0.004540,-87.286538,0.009839,
890,170,0.446632,-19.059415,0.999997,0.000227,-0.002153,0.007912,0.001051,0.008020,-0.002262,84.104167,0.008271,
950,800,1.652932,-13.010543,0.999992,0.000345,-0.007501,0.012752,-0.000309,0.012756,-0.007506,-89.125060,0.012823,
1410,1870,-0.205539,-1.086580,0.999998,0.000173,-0.001541,0.007020,0.000340,0.007033,-0.001554,87.730111,0.007389,
1750,1670,-1.808864,-3.489850,0.999996,0.000268,-0.004913,0.010132,-0.000083,0.010132,-0.004914,-89.682516,0.010134,
1830,1850,-1.487438,-1.924645,0.999995,0.000272,-0.004753,0.010245,0.000629,0.010271,-0.004780,87.602971,0.010279,
760,1900,0.715871,-1.114366,0.999996,0.000218,-0.002718,0.009078,-0.001957,0.009394,-0.003034,-80.823256,0.009589,
1460,1220,-1.425989,-7.258067,0.999992,0.000336,-0.007848,0.013260,-0.001262,0.013336,-0.007924,-86.589692,0.013414,
910,50,0.080243,-19.954935,0.999998,0.000172,-0.000293,0.006684,0.001222,0.006892,-0.000500,80.346704,0.007686,
1160,760,0.173508,-15.275078,0.999997,0.000194,-0.003349,0.004882,-0.003417,0.006115,-0.004582,-70.149821,0.006364,
1800,1730,-1.860622,-3.045379,0.999996,0.000254,-0.004857,0.010044,0.000062,0.010044,-0.004857,89.761424,0.010046,
1540,1860,-0.454218,-1.266469,0.999997,0.000235,-0.001949,0.007986,0.000882,0.008064,-0.002027,84.966216,0.008389,
1670,670,-2.200808,-13.945999,0.999996,0.000250,-0.005947,0.010939,-0.000162,0.010940,-0.005949,-89.449358,0.010954,
1060,1400,0.563725,-4.817612,0.999995,0.000268,-0.004907,0.008821,0.002592,0.009294,-0.005381,79.656032,0.009333,
1590,910,-2.713680,-11.377040,0.999996,0.000249,-0.005166,0.011465,-0.001409,0.011584,-0.005284,-85.191252,0.011599,
1460,1350,-0.951638,-5.676855,0.999995,0.000300,-0.006516,0.010848,-0.002251,0.011135,-0.006803,-82.731743,0.011226,
840,1450,1.731075,-5.346849,0.999996,0.000244,-0.005771,0.010687,0.000483,0.010701,-0.005785,88.319304,0.010713,
1730,40,-0.124714,-19.996842,0.999997,0.000227,-0.000569,0.007823,-0.002828,0.008687,-0.001434,-73.010460,0.009314,
690,1320,3.012083,-7.180571,0.999998,0.000226,-0.005297,0.010370,-0.000684,0.010399,-0.005327,-87.505343,0.010401,
690,780,3.175537,-12.512931,0.999997,0.000223,-0.005199,0.010219,0.000861,0.010267,-0.005247,86.814424,0.010268,
1830,1970,-0.636694,-0.660197,0.999994,0.000280,-0.004064,0.010542,0.002753,0.011043,-0.004566,79.670795,0.011098,
1380,1890,-0.146841,-0.939005,0.999998,0.000165,-0.001002,0.006790,0.000375,0.006808,-0.001020,87.250674,0.007344,
970,1450,0.986822,-4.814400,0.999996,0.000228,-0.005449,0.009961,0.001583,0.010122,-0.005610,84.193332,0.010142,
1860,1690,-2.284914,-3.654847,0.999995,0.000269,-0.004916,0.009938,-0.000080,0.009939,-0.004917,-89.689739,0.009939,
1090,1420,0.421423,-4.488452,0.999996,0.000206,-0.004146,0.007929,0.002415,0.008394,-0.004611,79.100589,0.008408,
1100,1570,0.353541,-3.283846,0.999997,0.000199,-0.003111,0.007650,0.001002,0.007743,-0.003203,84.724812,0.007781,
1210,1870,0.024921,-1.036034,0.999998,0.000155,-0.001115,0.006585,-0.000005,0.006585,-0.001115,-89.961549,0.007049,
1150,1640,0.193719,-2.676699,0.999998,0.000164,-0.002572,0.007304,0.000468,0.007326,-0.002594,87.295736,0.007429,
1580,1030,-2.978446,-10.052435,0.999996,0.000267,-0.003659,0.010891,0.000069,0.010891,-0.003659,89.726679,0.011085,
660,1900,1.076049,-1.313670,0.999998,0.000217,-0.003847,0.010305,-0.002027,0.010589,-0.004132,-82.005790,0.010674,
1520,850,-1.971032,-12.321803,0.999996,0.000263,-0.007047,0.013020,-0.000642,0.013041,-0.007068,-88.170122,0.013056,
1370,270,-0.237276,-18.487667,0.999997,0.000185,-0.001783,0.007267,-0.000085,0.007268,-0.001783,-89.464316,0.007575,
1830,1790,-1.775175,-2.539896,0.999997,0.000216,-0.004791,0.010129,0.000266,0.010134,-0.004796,88.979185,0.010138,
890,150,0.388827,-19.219180,0.999997,0.000217,-0.001899,0.007823,0.001151,0.007957,-0.002033,83.337669,0.008268,
610,1100,4.046682,-9.443818,0.999997,0.000213,-0.004280,0.008807,-0.000206,0.008810,-0.004284,-89.098108,0.008811,
1580,170,-0.467048,-19.052976,0.999997,0.000228,-0.002361,0.007939,-0.001054,0.008045,-0.002468,-84.215438,0.008243,
760,1880,0.819308,-1.299850,0.999996,0.000215,-0.003032,0.009223,-0.001711,0.009457,-0.003266,-82.199172,0.009607,
1320,440,-0.218218,-17.288868,0.999998,0.000169,-0.002740,0.007304,0.000635,0.007344,-0.002780,86.394580,0.007416,
980,650,0.999824,-14.936987,0.999994,0.000274,-0.005927,0.010333,-0.001810,0.010532,-0.006126,-83.724502,0.010579,
620,2000,0.417673,-0.395871,0.999996,0.000262,-0.004233,0.009879,-0.002942,0.010468,-0.004822,-78.683118,0.010479,
1500,90,-0.140657,-19.694498,0.999998,0.000169,-0.000909,0.006816,-0.000869,0.006913,-0.001006,-83.659750,0.007469,
940,1810,0.541265,-1.656576,0.999997,0.000217,-0.002608,0.008214,-0.000488,0.008236,-0.002630,-87.423360,0.008414,
950,780,1.562799,-13.265698,0.999991,0.000325,-0.007453,0.012581,-0.000605,0.012600,-0.007471,-88.271663,0.012672,
850,1010,3.090142,-10.264202,0.999997,0.000232,-0.003803,0.010505,0.000334,0.010513,-0.003810,88.665395,0.010645,
1610,1450,-1.656108,-5.298557,0.999996,0.000236,-0.005824,0.010667,-0.000562,0.010686,-0.005843,-88.050508,0.010702,
840,1430,1.785172,-5.562109,0.999994,0.000294,-0.005902,0.010848,0.000399,0.010857,-0.005912,88.635471,0.010871,
1590,890,-2.626708,-11.608695,0.999995,0.000287,-0.005513,0.011711,-0.001463,0.011835,-0.005637,-85.179109,0.011839,
1670,650,-2.134199,-14.163456,0.999996,0.000214,-0.005869,0.010841,-0.000052,0.010841,-0.005869,-89.822052,0.010853,
1110,40,0.017248,-20.033943,0.999998,0.000182,-0.000178,0.006027,0.000277,0.006039,-0.000191,87.453375,0.006866,
1060,1420,0.556585,-4.648126,0.999996,0.000225,-0.004688,0.008624,0.002400,0.009043,-0.005108,80.084016,0.009068,
1440,1350,-0.826145,-5.543452,0.999996,0.000255,-0.006290,0.010443,-0.002619,0.010844,-0.006690,-81.308193,0.010942,
670,1320,3.116713,-7.228134,0.999997,0.000209,-0.005153,0.010245,-0.000645,0.010272,-0.005180,-87.606611,0.010272,
1010,1990,0.066930,-0.288615,0.999998,0.000154,-0.000350,0.006510,-0.000744,0.006590,-0.000430,-83.883215,0.007374,
1590,1220,-2.358578,-7.890799,0.999994,0.000317,-0.006320,0.011989,0.001128,0.012058,-0.006389,86.486193,0.012065,
1010,220,0.333714,-18.780055,0.999998,0.000209,-0.001757,0.007472,0.000384,0.007488,-0.001773,87.621055,0.007826,
1240,410,-0.020396,-17.566251,0.999998,0.000177,-0.002307,0.007062,0.000133,0.007064,-0.002309,89.184411,0.007204,
1100,1980,0.046474,-0.342949,0.999998,0.000160,-0.000345,0.006308,-0.000400,0.006332,-0.000369,-86.570708,0.007108,
810,1760,1.093094,-2.325236,0.999997,0.000193,-0.003970,0.009460,-0.000425,0.009474,-0.003983,-88.190332,0.009513,
1710,1350,-2.556374,-6.709679,0.999995,0.000310,-0.005739,0.010820,0.000523,0.010837,-0.005755,88.193236,0.010844,
1510,110,-0.197371,-19.550146,0.999998,0.000188,-0.001168,0.007154,-0.000973,0.007266,-0.001280,-83.421027,0.007757,
1840,280,-1.888292,-17.430135,0.999996,0.000247,-0.004858,0.010024,-0.000109,0.010025,-0.004859,-89.578670,0.010027,
1370,310,-0.273662,-18.190457,0.999997,0.000205,-0.002082,0.007415,0.000056,0.007415,-0.002082,89.659551,0.007649,
710,420,1.924704,-16.304889,0.999998,0.000197,-0.004915,0.010120,-0.000159,0.010121,-0.004917,-89.394940,0.010123,
910,640,1.401703,-14.708518,0.999993,0.000309,-0.006115,0.010887,-0.000948,0.010940,-0.006168,-86.818290,0.010969,
1750,1630,-1.924259,-3.896939,0.999997,0.000213,-0.004941,0.010100,-0.000160,0.010102,-0.004942,-89.391026,0.010103,
1410,1850,-0.234136,-1.232443,0.999998,0.000190,-0.001706,0.007167,0.000296,0.007177,-0.001716,88.094291,0.007495,
980,1890,0.277779,-0.991058,0.999997,0.000208,-0.001534,0.007317,-0.000693,0.007371,-0.001588,-85.548507,0.007758,
1460,1240,-1.316348,-6.994002,0.999992,0.000347,-0.007815,0.012802,-0.001462,0.012905,-0.007918,-85.963435,0.013015,
1870,830,-3.816912,-11.823404,0.999996,0.000222,-0.004585,0.009275,-0.000364,0.009284,-0.004595,-88.496065,0.009285,
1320,1570,-0.228476,-3.201266,0.999997,0.000206,-0.002894,0.007267,-0.000847,0.007337,-0.002964,-85.270395,0.007382,
1740,2000,-0.222345,-0.283146,0.999998,0.000193,-0.001347,0.008171,0.002851,0.008960,-0.002136,74.538426,0.009360,
970,1430,1.019111,-5.019815,0.999996,0.000225,-0.005734,0.010140,0.001657,0.010312,-0.005905,84.104459,0.010348,
1210,1890,0.022670,-0.906794,0.999998,0.000160,-0.000961,0.006520,0.000001,0.006520,-0.000961,89.990712,0.007040,
1160,740,0.165206,-15.376877,0.999996,0.000253,-0.003196,0.005050,-0.003158,0.006120,-0.004266,-71.277040,0.006277,
1340,1950,-0.057742,-0.528982,0.999998,0.000168,-0.000677,0.006392,0.000273,0.006403,-0.000687,87.792804,0.007030,
890,130,0.323983,-19.372871,0.999997,0.000200,-0.001656,0.007627,0.001224,0.007785,-0.001815,82.615434,0.008147,
1370,250,-0.221953,-18.629452,0.999997,0.000199,-0.001654,0.007197,-0.000133,0.007199,-0.001656,-89.137040,0.007540,
1290,1400,-0.138923,-4.269622,0.999997,0.000253,-0.002701,0.005802,-0.001690,0.006126,-0.003024,-79.161970,0.006126,
1830,1770,-1.857096,-2.742758,0.999997,0.000199,-0.004807,0.010054,0.000142,0.010055,-0.004808,89.453517,0.010058,
1230,1640,0.003241,-2.628029,0.999997,0.000190,-0.002367,0.007050,0.000015,0.007050,-0.002367,89.908717,0.007175,
1540,890,-2.335263,-11.727338,0.999994,0.000321,-0.006086,0.012567,-0.001341,0.012663,-0.006182,-85.907765,0.012664,
710,470,2.067180,-15.794778,0.999997,0.000200,-0.005054,0.010185,-0.000211,0.010188,-0.005057,-89.207677,0.010188,
1320,420,-0.212676,-17.437412,0.999998,0.000181,-0.002679,0.007325,0.000573,0.007358,-0.002712,86.733190,0.007442,
790,1060,3.311818,-9.751747,0.999997,0.000203,-0.004131,0.010072,-0.000366,0.010082,-0.004140,-88.525457,0.010135,
760,1860,0.906307,-1.485680,0.999996,0.000226,-0.003332,0.009445,-0.001497,0.009618,-0.003505,-83.406774,0.009735,
1660,450,-1.547410,-16.296687,0.999997,0.000246,-0.004889,0.010013,0.000306,0.010019,-0.004895,88.822487,0.010020,
820,770,2.405428,-12.896131,0.999995,0.000260,-0.006196,0.011411,0.000756,0.011444,-0.006228,87.547215,0.011459,
810,290,1.075866,-17.882968,0.999997,0.000220,-0.003928,0.009424,0.000458,0.009439,-0.003944,88.038880,0.009482,
660,1880,1.201800,-1.526043,0.999996,0.000266,-0.004127,0.010285,-0.001651,0.010472,-0.004314,-83.549239,0.010526,
1610,1430,-1.707013,-5.512530,0.999996,0.000246,-0.005991,0.010846,-0.000508,0.010861,-0.006006,-88.273762,0.010881,
1590,870,-2.527854,-11.848597,0.999993,0.000306,-0.005869,0.011820,-0.001354,0.011923,-0.005972,-85.646907,0.011923,
600,420,2.473317,-15.942492,0.999996,0.000258,-0.004963,0.009978,-0.000105,0.009979,-0.004964,-89.598095,0.009979,
730,80,0.360589,-19.674636,0.999994,0.000261,-0.001830,0.008140,0.002502,0.008733,-0.002423,76.675557,0.009017,
1670,630,-2.072928,-14.381692,0.999997,0.000199,-0.005772,0.010841,0.000061,0.010842,-0.005772,89.788075,0.010849,
650,1320,3.218224,-7.276662,0.999997,0.000206,-0.005066,0.010107,-0.000552,0.010127,-0.005086,-87.919640,0.010127,
650,1380,3.006982,-6.665400,0.999996,0.000227,-0.005146,0.010197,-0.000390,0.010207,-0.005156,-88.543822,0.010207,
980,630,0.969000,-15.140429,0.999995,0.000272,-0.005694,0.010046,-0.001792,0.010248,-0.005895,-83.585484,0.010286,
1420,1410,-0.644156,-4.825936,0.999995,0.000255,-0.005108,0.009085,-0.002424,0.009488,-0.005511,-80.570999,0.009529,
1060,1440,0.546724,-4.478133,0.999996,0.000230,-0.004518,0.008578,0.002277,0.008962,-0.004902,80.414137,0.008976,
1110,250,0.193341,-18.641791,0.999998,0.000171,-0.001718,0.007152,0.000064,0.007152,-0.001719,89.583925,0.007467,
920,1810,0.592398,-1.681624,0.999997,0.000216,-0.002522,0.008358,-0.000637,0.008395,-0.002559,-86.662753,0.008605,
690,420,2.023593,-16.239536,0.999998,0.000187,-0.004961,0.010127,-0.000156,0.010129,-0.004963,-89.409080,0.010130,
1840,240,-1.714705,-17.835921,0.999996,0.000234,-0.004849,0.010043,-0.000259,0.010047,-0.004853,-89.005202,0.010049,
1750,1090,-3.611424,-9.475949,0.999995,0.000264,-0.004433,0.009713,0.000567,0.009736,-0.004455,87.709393,0.009747,
1890,1540,-2.890700,-5.261158,0.999997,0.000195,-0.005024,0.010134,-0.000037,0.010134,-0.005024,-89.859004,0.010134,
1320,400,-0.207077,-17.586059,0.999998,0.000167,-0.002576,0.007294,0.000494,0.007319,-0.002601,87.140925,0.007420,
1420,770,-0.832721,-14.074503,0.999995,0.000244,-0.007147,0.011112,0.003072,0.011615,-0.007650,80.701627,0.011808,
1460,1260,-1.221420,-6.737379,0.999994,0.000299,-0.007738,0.012497,-0.001715,0.012642,-0.007883,-85.190717,0.012769,
1600,1030,-3.050189,-10.053211,0.999996,0.000246,-0.003742,0.010662,0.000065,0.010663,-0.003742,89.740557,0.010819,
1730,2010,-0.154337,-0.202117,0.999997,0.000194,-0.000646,0.007847,0.002838,0.008708,-0.001507,73.121181,0.009308,
640,140,1.052960,-18.945891,0.999995,0.000261,-0.004326,0.010398,0.001707,0.010594,-0.004521,83.472554,0.010631,
970,1410,1.052011,-5.225776,0.999996,0.000241,-0.005956,0.010383,0.001700,0.010558,-0.006131,84.124082,0.010604,
1600,90,-0.238820,-19.660292,0.999997,0.000201,-0.001213,0.007316,-0.001469,0.007562,-0.001459,-80.494056,0.008023,
1830,1750,-1.934170,-2.944080,0.999997,0.000205,-0.004834,0.010058,0.000068,0.010058,-0.004834,89.737784,0.010061,
790,260,1.058457,-18.117257,0.999996,0.000243,-0.004081,0.009379,0.000632,0.009409,-0.004111,87.317866,0.009434,
1210,1640,0.050297,-2.636961,0.999997,0.000208,-0.002343,0.007051,0.000235,0.007057,-0.002348,88.570498,0.007188,
1370,230,-0.199948,-18.776259,0.999997,0.000195,-0.001506,0.007101,-0.000183,0.007105,-0.001510,-88.780412,0.007487,
1370,70,-0.042293,-19.849535,0.999998,0.000169,-0.000276,0.006280,-0.000416,0.006306,-0.000302,-86.379325,0.007114,
1220,410,0.026006,-17.564367,0.999998,0.000201,-0.002354,0.007070,-0.000167,0.007073,-0.002357,-88.986588,0.007203,
770,1320,2.568468,-6.994030,0.999995,0.000260,-0.005808,0.010931,-0.000683,0.010959,-0.005836,-87.666022,0.010966,
910,1760,0.737833,-2.123346,0.999996,0.000232,-0.003043,0.008655,-0.000340,0.008664,-0.003053,-88.337678,0.008789,
890,110,0.262708,-19.526108,0.999997,0.000202,-0.001394,0.007491,0.001295,0.007676,-0.001579,81.875143,0.008107,
1160,720,0.166361,-15.482303,0.999996,0.000231,-0.003073,0.005372,-0.002822,0.006228,-0.003929,-73.125396,0.006299,
760,1840,0.999680,-1.679211,0.999997,0.000221,-0.003540,0.009483,-0.001265,0.009605,-0.003662,-84.500874,0.009695,
1420,1390,-0.661090,-5.015300,0.999994,0.000287,-0.005375,0.009333,-0.002599,0.009779,-0.005820,-80.268523,0.009838,
780,610,2.087232,-14.559218,0.999996,0.000255,-0.005665,0.010689,-0.000109,0.010690,-0.005665,-89.619804,0.010696,
980,390,0.677555,-17.360539,0.999996,0.000239,-0.003630,0.008636,-0.000520,0.008658,-0.003652,-87.577262,0.008693,
700,350,1.762585,-16.983963,0.999996,0.000224,-0.004807,0.010002,0.000031,0.010002,-0.004807,89.881744,0.010005,
820,1970,0.263975,-0.476366,0.999998,0.000169,-0.001080,0.007650,-0.001888,0.008040,-0.001470,-78.305223,0.008563,
640,1000,3.956901,-10.334326,0.999997,0.000209,-0.004319,0.009093,0.000268,0.009099,-0.004324,88.854467,0.009102,
710,450,2.010674,-15.999986,0.999996,0.000224,-0.005010,0.010137,-0.000193,0.010139,-0.005012,-89.270932,0.010140,
570,1190,4.023704,-8.718075,0.999995,0.000278,-0.004179,0.008775,-0.000080,0.008775,-0.004180,-89.645968,0.008779,
1210,1910,0.018714,-0.774528,0.999998,0.000174,-0.000845,0.006430,-0.000023,0.006430,-0.000845,-89.821209,0.006988,
1530,1080,-2.702001,-9.456579,0.999994,0.000278,-0.004146,0.012014,0.000986,0.012074,-0.004206,86.521457,0.012257,
1260,580,-0.069431,-16.395376,0.999998,0.000190,-0.002479,0.006293,0.000507,0.006323,-0.002508,86.706012,0.006367,
1340,1890,-0.106373,-0.923240,0.999998,0.000159,-0.001120,0.006631,0.000205,0.006636,-0.001126,88.483670,0.007103,
950,1440,1.117064,-5.010579,0.999995,0.000254,-0.005661,0.010263,0.001374,0.010381,-0.005779,85.104739,0.010403,
1320,380,-0.198724,-17.731303,0.999998,0.000160,-0.002474,0.007311,0.000390,0.007327,-0.002489,87.722005,0.007451,
1880,1540,-2.839879,-5.230339,0.999997,0.000203,-0.005042,0.010157,-0.000043,0.010157,-0.005042,-89.839180,0.010157,
1670,350,-1.332477,-17.254586,0.999996,0.000221,-0.004537,0.009706,-0.000016,0.009706,-0.004538,-89.935380,0.009713,
960,1810,0.488489,-1.629403,0.999997,0.000209,-0.002621,0.008046,-0.000385,0.008060,-0.002635,-87.936840,0.008220,
1210,300,0.040892,-18.336216,0.999998,0.000160,-0.001870,0.006967,-0.000107,0.006969,-0.001871,-89.305047,0.007213,
580,1240,3.828107,-8.231199,0.999997,0.000208,-0.004724,0.009199,-0.000168,0.009201,-0.004726,-89.309929,0.009202,
1540,1840,-0.510130,-1.433012,0.999997,0.000225,-0.002174,0.008087,0.000750,0.008141,-0.002228,85.842172,0.008415,
1720,310,-1.430663,-17.514723,0.999995,0.000281,-0.004379,0.009893,-0.000369,0.009902,-0.004388,-88.520379,0.009924,
600,380,2.351910,-16.345539,0.999997,0.000220,-0.004925,0.009937,-0.000101,0.009938,-0.004925,-89.611271,0.009938,
1790,580,-2.576573,-14.544666,0.999995,0.000242,-0.005215,0.010306,-0.000009,0.010306,-0.005215,-89.967943,0.010307,
1060,1880,0.181965,-1.014677,0.999998,0.000188,-0.001310,0.006915,-0.000363,0.006931,-0.001326,-87.477664,0.007358,
1710,1330,-2.630403,-6.926894,0.999994,0.000322,-0.005713,0.010798,0.000637,0.010822,-0.005737,87.794785,0.010829,
1750,1070,-3.629569,-9.667902,0.999996,0.000236,-0.004347,0.009597,0.000317,0.009604,-0.004354,88.696317,0.009618,
800,930,3.141862,-11.083006,0.999997,0.000230,-0.004593,0.010434,0.001069,0.010510,-0.004669,85.950669,0.010532,
1680,1670,-1.475213,-3.275517,0.999995,0.000245,-0.004617,0.009832,-0.000080,0.009832,-0.004617,-89.680987,0.009838,
1410,1830,-0.258715,-1.375232,0.999998,0.000191,-0.001892,0.007266,0.000171,0.007270,-0.001895,88.928146,0.007542,
660,1860,1.313090,-1.729758,0.999994,0.000281,-0.004332,0.010247,-0.001315,0.010364,-0.004450,-84.887407,0.010399,
1510,90,-0.149920,-19.692438,0.999998,0.000180,-0.000900,0.006851,-0.000920,0.006959,-0.001007,-83.321937,0.007522,
870,160,0.466632,-19.118164,0.999996,0.000259,-0.002297,0.008067,0.001206,0.008206,-0.002436,83.451108,0.008428,
1010,800,1.189439,-13.417617,0.999994,0.000302,-0.007778,0.012493,-0.001892,0.012668,-0.007953,-84.712926,0.012805,
1830,1730,-2.007121,-3.147554,0.999997,0.000206,-0.004854,0.009998,-0.000021,0.009998,-0.004854,-89.917587,0.009999,
850,260,0.846120,-18.233691,0.999996,0.000229,-0.003310,0.008907,0.000630,0.008940,-0.003343,87.057196,0.009034,
1830,1510,-2.676733,-5.380126,0.999994,0.000272,-0.005105,0.010189,-0.000059,0.010190,-0.005105,-89.777963,0.010190,
1720,2010,-0.152952,-0.202976,0.999997,0.000185,-0.000321,0.007699,0.002656,0.008499,-0.001121,73.241647,0.009235,
1370,210,-0.183380,-18.914280,0.999998,0.000178,-0.001362,0.006985,-0.000253,0.006993,-0.001370,-88.264375,0.007412,
640,120,0.902751,-19.161667,0.999995,0.000272,-0.004106,0.010505,0.002064,0.010791,-0.004392,82.112518,0.010853,
1830,240,-1.665566,-17.875793,0.999996,0.000270,-0.004810,0.010116,-0.000377,0.010126,-0.004820,-88.554307,0.010130,
1890,1840,-1.835478,-2.296498,0.999998,0.000205,-0.004857,0.009694,0.000327,0.009701,-0.004865,88.713719,0.009701,
710,430,1.953784,-16.204120,0.999997,0.000222,-0.004948,0.010127,-0.000166,0.010129,-0.004950,-89.370258,0.010130,
1200,410,0.073761,-17.553412,0.999998,0.000228,-0.002370,0.007113,-0.000233,0.007119,-0.002376,-88.595186,0.007249,
640,980,3.941531,-10.515326,0.999997,0.000212,-0.004317,0.009027,0.000170,0.009029,-0.004319,89.271374,0.009032,
1290,1640,-0.136509,-2.657829,0.999997,0.000214,-0.002326,0.007156,-0.000192,0.007160,-0.002329,-88.841260,0.007304,
1000,670,0.912449,-14.835561,0.999996,0.000230,-0.006040,0.010355,-0.002140,0.010630,-0.006315,-82.683243,0.010692,
750,1320,2.682052,-7.042965,0.999995,0.000263,-0.005684,0.010729,-0.000723,0.010761,-0.005716,-87.483733,0.010768,
850,990,3.068648,-10.474055,0.999997,0.000229,-0.003944,0.010556,0.000584,0.010579,-0.003967,87.698332,0.010689,
750,1500,2.092900,-5.114634,0.999995,0.000305,-0.005374,0.010367,0.000158,0.010368,-0.005376,89.424526,0.010371,
760,1820,1.080084,-1.867434,0.999997,0.000188,-0.003756,0.009609,-0.001036,0.009689,-0.003836,-85.593366,0.009759,
1630,1160,-2.858122,-8.666135,0.999996,0.000249,-0.005161,0.011071,0.001346,0.011182,-0.005272,85.290171,0.011188,
890,90,0.201496,-19.673353,0.999998,0.000184,-0.001148,0.007141,0.001296,0.007339,-0.001346,81.318256,0.007814,
970,1830,0.418802,-1.453429,0.999996,0.000213,-0.002348,0.007790,-0.000433,0.007808,-0.002366,-87.560384,0.008007,
1840,220,-1.616745,-18.035248,0.999995,0.000252,-0.004856,0.010162,-0.000423,0.010174,-0.004868,-88.386889,0.010177,
960,1790,0.526952,-1.787796,0.999996,0.000231,-0.002842,0.008087,-0.000245,0.008093,-0.002847,-88.716528,0.008210,
1320,360,-0.189368,-17.878801,0.999997,0.000187,-0.002353,0.007301,0.000296,0.007310,-0.002362,88.243250,0.007461,
1190,300,0.078021,-18.330421,0.999998,0.000156,-0.001775,0.006995,-0.000044,0.006996,-0.001775,-89.714292,0.007273,
1300,1390,-0.164337,-4.363997,0.999997,0.000243,-0.002796,0.005895,-0.001924,0.006302,-0.003203,-78.057403,0.006302,
1610,1960,-0.267250,-0.540776,0.999998,0.000191,-0.001196,0.007476,0.001527,0.007737,-0.001457,80.301276,0.008223,
1610,1410,-1.761092,-5.735793,0.999996,0.000239,-0.006111,0.011051,-0.000385,0.011060,-0.006120,-88.715896,0.011081,
1580,90,-0.210265,-19.669405,0.999998,0.000164,-0.001243,0.007183,-0.001337,0.007391,-0.001450,-81.194084,0.007832,
1550,1080,-2.783030,-9.479773,0.999996,0.000268,-0.004078,0.011546,0.001033,0.011614,-0.004146,86.233983,0.011771,
1210,1930,0.017241,-0.647638,0.999998,0.000180,-0.000713,0.006327,-0.000028,0.006327,-0.000713,-89.774793,0.006931,
1300,1570,-0.172762,-3.164312,0.999997,0.000197,-0.002717,0.007084,-0.000620,0.007123,-0.002756,-86.395413,0.007184,
1160,700,0.164974,-15.589783,0.999997,0.000219,-0.002981,0.005602,-0.002479,0.006267,-0.003646,-74.991806,0.006295,
1260,560,-0.071746,-16.524071,0.999998,0.000190,-0.002508,0.006450,0.000468,0.006474,-0.002532,87.020162,0.006525,
1360,1960,-0.062514,-0.468472,0.999998,0.000156,-0.000475,0.006370,0.000346,0.006387,-0.000493,87.116835,0.007108,
570,1240,3.875297,-8.258341,0.999993,0.000304,-0.004792,0.009144,-0.000091,0.009144,-0.004793,-89.626345,0.009148,
1540,1820,-0.557215,-1.591745,0.999997,0.000209,-0.002384,0.008242,0.000650,0.008282,-0.002424,86.513372,0.008516,
1670,610,-2.015107,-14.601690,0.999997,0.000186,-0.005686,0.010736,0.000145,0.010737,-0.005688,89.493782,0.010743,
1770,580,-2.472164,-14.604324,0.999995,0.000243,-0.005279,0.010325,-0.000025,0.010325,-0.005279,-89.907040,0.010326,
710,920,3.527926,-11.126096,0.999995,0.000261,-0.004615,0.009744,0.000777,0.009786,-0.004657,86.911231,0.009790,
1460,1280,-1.143906,-6.488872,0.999994,0.000290,-0.007557,0.012190,-0.001932,0.012377,-0.007744,-84.464776,0.012507,
1830,1930,-0.973967,-1.084341,0.999996,0.000232,-0.004513,0.010578,0.001669,0.010760,-0.004695,83.762928,0.010790,
1060,1860,0.206287,-1.154300,0.999998,0.000200,-0.001478,0.007082,-0.000326,0.007094,-0.001490,-87.824456,0.007481,
1370,190,-0.159989,-19.056670,0.999998,0.000177,-0.001185,0.006909,-0.000303,0.006920,-0.001196,-87.862258,0.007398,
820,790,2.489044,-12.666657,0.999994,0.000288,-0.006110,0.011416,0.000926,0.011465,-0.006159,86.984294,0.011476,
600,360,2.283239,-16.544669,0.999996,0.000230,-0.004903,0.009938,-0.000107,0.009939,-0.004904,-89.586135,0.009940,
970,160,0.283187,-19.197662,0.999997,0.000192,-0.001642,0.007380,0.000747,0.007441,-0.001703,85.297169,0.007797,
890,70,0.142892,-19.813034,0.999998,0.000178,-0.000825,0.007038,0.001342,0.007261,-0.001047,80.579572,0.007850,
850,240,0.782707,-18.414118,0.999995,0.000286,-0.003126,0.008925,0.000803,0.008979,-0.003179,86.203263,0.009105,
1830,220,-1.566778,-18.079863,0.999994,0.000300,-0.004792,0.010200,-0.000564,0.010221,-0.004813,-87.847575,0.010227,
1780,1290,-3.157521,-7.507231,0.999996,0.000234,-0.005188,0.010238,0.000790,0.010278,-0.005228,87.076072,0.010279,
640,960,3.925835,-10.695509,0.999997,0.000229,-0.004393,0.009107,0.000319,0.009114,-0.004400,88.645285,0.009116,
860,1930,0.366803,-0.771331,0.999998,0.000201,-0.001699,0.007781,-0.001446,0.007997,-0.001914,-81.520213,0.008351,
1830,1490,-2.736064,-5.585864,0.999995,0.000253,-0.005105,0.010228,-0.000007,0.010228,-0.005105,-89.972537,0.010228,
770,90,0.362518,-19.616635,0.999996,0.000224,-0.001462,0.008000,0.002178,0.008477,-0.001939,77.640615,0.008883,
1010,1970,0.104307,-0.422549,0.999998,0.000176,-0.000539,0.006614,-0.000736,0.006689,-0.000614,-84.184921,0.007394,
980,670,1.032256,-14.723174,0.999997,0.000195,-0.006155,0.010672,-0.001843,0.010872,-0.006354,-83.823605,0.010923,
730,1500,2.200447,-5.179336,0.999995,0.000280,-0.005354,0.010350,0.000140,0.010352,-0.005355,89.488030,0.010354,
1320,340,-0.180977,-18.024281,0.999997,0.000193,-0.002245,0.007194,0.000223,0.007200,-0.002250,88.645468,0.007366,
1840,200,-1.511955,-18.242263,0.999995,0.000263,-0.004866,0.010195,-0.000523,0.010214,-0.004885,-88.012967,0.010217,
1350,740,-0.353024,-15.007418,0.999997,0.000256,-0.004825,0.007483,0.003869,0.008598,-0.005940,73.922278,0.008804,
1170,1820,0.086290,-1.381778,0.999998,0.000160,-0.001338,0.006865,-0.000119,0.006867,-0.001340,-89.170466,0.007280,
740,990,3.518762,-10.448272,0.999997,0.000227,-0.004286,0.009749,0.000330,0.009757,-0.004294,88.655292,0.009780,
1510,70,-0.108802,-19.827367,0.999998,0.000164,-0.000697,0.006725,-0.000972,0.006850,-0.000822,-82.663850,0.007480,
1610,1390,-1.820804,-5.957204,0.999997,0.000192,-0.006206,0.011127,-0.000283,0.011131,-0.006211,-89.065371,0.011156,
1890,1160,-4.080568,-8.964589,0.999997,0.000206,-0.004264,0.008451,0.000187,0.008453,-0.004267,89.156850,0.008454,
660,1840,1.418062,-1.937363,0.999995,0.000263,-0.004485,0.010185,-0.001079,0.010263,-0.004564,-85.814486,0.010284,
1680,1650,-1.530393,-3.474323,0.999997,0.000213,-0.004697,0.009927,-0.000131,0.009928,-0.004698,-89.487112,0.009933,
1510,1800,-0.527724,-1.719212,0.999997,0.000227,-0.002722,0.008050,0.000320,0.008059,-0.002732,88.298481,0.008198,
860,1990,0.152693,-0.316750,0.999997,0.000194,-0.000754,0.007211,-0.001607,0.007523,-0.001066,-79.011522,0.008141,
1260,540,-0.071903,-16.653243,0.999997,0.000200,-0.002528,0.006597,0.000427,0.006617,-0.002548,87.323788,0.006675,
1410,1810,-0.285850,-1.524341,0.999997,0.000199,-0.002051,0.007389,0.000116,0.007390,-0.002052,89.298122,0.007630,
1540,1800,-0.610965,-1.764109,0.999996,0.000239,-0.002579,0.008293,0.000530,0.008319,-0.002605,87.217886,0.008510,
1220,420,0.027064,-17.493798,0.999998,0.000186,-0.002385,0.007066,-0.000163,0.007069,-0.002387,-89.009331,0.007192,
1830,1080,-3.967519,-9.604593,0.999997,0.000236,-0.004261,0.008931,0.000150,0.008933,-0.004263,89.350408,0.008936,
590,130,1.224214,-18.806694,0.999994,0.000302,-0.004788,0.010694,0.001426,0.010824,-0.004918,84.781498,0.010839,
810,490,1.609586,-15.914343,0.999996,0.000220,-0.005120,0.010122,-0.000401,0.010133,-0.005130,-88.492282,0.010133,
1280,1570,-0.121216,-3.146023,0.999998,0.000169,-0.002518,0.006975,-0.000318,0.006985,-0.002529,-88.083141,0.007074,
910,620,1.356501,-14.925455,0.999995,0.000257,-0.005951,0.010622,-0.000988,0.010681,-0.006010,-86.599252,0.010709,
1270,1640,-0.090304,-2.646994,0.999998,0.000210,-0.002321,0.007088,-0.000190,0.007091,-0.002325,-88.844063,0.007230,
1190,1700,0.087188,-2.220929,0.999998,0.000161,-0.002101,0.007082,0.000146,0.007085,-0.002103,89.090165,0.007277,
1890,230,-1.911716,-17.716577,0.999997,0.000199,-0.004871,0.009682,-0.000219,0.009685,-0.004874,-89.136630,0.009685,
1670,570,-1.902711,-15.024461,0.999996,0.000249,-0.005481,0.010482,0.000284,0.010487,-0.005486,88.981303,0.010490,
730,360,1.649758,-16.977041,0.999994,0.000284,-0.004847,0.010015,0.000034,0.010015,-0.004847,89.868718,0.010017,
1460,1720,-0.530076,-2.295308,0.999996,0.000216,-0.002729,0.008128,-0.000098,0.008129,-0.002730,-89.481223,0.008274,
1830,1710,-2.074678,-3.346906,0.999996,0.000242,-0.004882,0.010006,-0.000049,0.010006,-0.004883,-89.810375,0.010007,
1610,1400,-1.791830,-5.847486,0.999997,0.000195,-0.006161,0.011083,-0.000333,0.011089,-0.006168,-88.894843,0.011112,
1650,1220,-2.719625,-8.021131,0.999995,0.000281,-0.005723,0.011170,0.001216,0.011257,-0.005810,85.904381,0.011259,
1170,300,0.113585,-18.323774,0.999998,0.000153,-0.001743,0.007051,0.000018,0.007051,-0.001743,89.885301,0.007346,
1750,1050,-3.645107,-9.863174,0.999996,0.000224,-0.004338,0.009652,0.000333,0.009660,-0.004346,88.637212,0.009676,
890,270,0.735612,-18.223617,0.999997,0.000206,-0.003284,0.008664,0.000421,0.008679,-0.003299,87.986501,0.008761,
970,1850,0.378860,-1.299966,0.999996,0.000227,-0.002116,0.007663,-0.000527,0.007692,-0.002144,-86.924590,0.007939,
1710,1310,-2.704470,-7.143903,0.999994,0.000294,-0.005690,0.010763,0.000772,0.010799,-0.005726,87.321161,0.010806,
1010,1950,0.132588,-0.554462,0.999998,0.000181,-0.000701,0.006781,-0.000728,0.006851,-0.000771,-84.490459,0.007505,
640,940,3.890072,-10.881060,0.999996,0.000262,-0.004447,0.009231,0.000600,0.009257,-0.004474,87.493324,0.009259,
1220,750,0.023094,-15.584878,0.999998,0.000150,-0.002014,0.003052,-0.000603,0.003123,-0.002084,-83.306188,0.003181,
1370,170,-0.143688,-19.190582,0.999998,0.000195,-0.001026,0.006794,-0.000338,0.006808,-0.001040,-87.530564,0.007335,
950,160,0.321054,-19.181674,0.999997,0.000207,-0.001735,0.007507,0.000841,0.007583,-0.001811,84.845488,0.007920,
1830,1280,-3.445564,-7.714389,0.999994,0.000257,-0.004924,0.009903,0.000608,0.009928,-0.004949,87.654465,0.009928,
850,220,0.718557,-18.591069,0.999998,0.000205,-0.002892,0.008667,0.000941,0.008743,-0.002968,85.377454,0.008892,
630,1380,3.109654,-6.720009,0.999996,0.000230,-0.005094,0.010115,-0.000331,0.010122,-0.005101,-88.755060,0.010123,
740,2010,0.153048,-0.201505,0.999997,0.000197,-0.000393,0.007748,-0.002695,0.008560,-0.001205,-73.244785,0.009267,
810,1900,0.572093,-1.050451,0.999996,0.000235,-0.002489,0.008550,-0.001575,0.008770,-0.002709,-82.035345,0.008981,
1240,490,-0.021747,-17.006195,0.999998,0.000183,-0.002534,0.006811,0.000174,0.006815,-0.002537,88.932464,0.006888,
1590,850,-2.431980,-12.085572,0.999994,0.000276,-0.006128,0.011953,-0.001243,0.012038,-0.006213,-86.086368,0.012040,
760,1280,2.779507,-7.455994,0.999996,0.000253,-0.005669,0.010931,-0.000934,0.010983,-0.005722,-86.788202,0.010987,
1020,350,0.501213,-17.775228,0.999996,0.000214,-0.002849,0.007984,-0.000316,0.007993,-0.002858,-88.332446,0.008100,
640,100,0.746064,-19.374462,0.999993,0.000313,-0.003774,0.010356,0.002575,0.010810,-0.004228,79.988671,0.010895,
1810,80,-0.529914,-19.603156,0.999996,0.000222,-0.002292,0.010141,-0.003710,0.011164,-0.003315,-74.584700,0.011467,
600,340,2.215979,-16.744787,0.999996,0.000207,-0.004876,0.009874,-0.000150,0.009875,-0.004878,-89.418715,0.009875,
1880,1160,-4.037834,-8.946487,0.999996,0.000246,-0.004262,0.008587,0.000207,0.008590,-0.004266,89.076001,0.008591,
710,1500,2.306948,-5.242934,0.999996,0.000244,-0.005275,0.010337,0.000093,0.010337,-0.005276,89.658163,0.010338,
1540,1780,-0.651707,-1.927014,0.999997,0.000221,-0.002762,0.008451,0.000412,0.008466,-0.002777,87.898979,0.008632,
720,190,1.024687,-18.648829,0.999997,0.000196,-0.004042,0.009755,0.001313,0.009879,-0.004166,84.610093,0.009919,
1670,550,-1.849358,-15.236032,0.999996,0.000254,-0.005397,0.010410,0.000311,0.010416,-0.005403,88.871817,0.010419,
1830,1520,-2.647033,-5.279165,0.999995,0.000276,-0.005120,0.010182,-0.000069,0.010182,-0.005120,-89.743164,0.010182,
1190,1820,0.059557,-1.379349,0.999999,0.000120,-0.001382,0.006841,-0.000036,0.006841,-0.001382,-89.750008,0.007234,
1890,610,-3.180143,-13.927073,0.999997,0.000217,-0.005046,0.010120,-0.000061,0.010120,-0.005046,-89.769650,0.010120,
1140,1570,0.238769,-3.207077,0.999997,0.000213,-0.002900,0.007244,0.000839,0.007313,-0.002969,85.302432,0.007356,
800,660,2.126615,-14.078112,0.999995,0.000255,-0.005924,0.010954,0.000091,0.010955,-0.005925,89.692690,0.010967,
1060,1840,0.232218,-1.298301,0.999998,0.000190,-0.001682,0.007168,-0.000242,0.007175,-0.001688,-88.437241,0.007502,
1360,1940,-0.080000,-0.599185,0.999998,0.000150,-0.000660,0.006513,0.000365,0.006532,-0.000678,87.091892,0.007183,
1160,1480,0.184876,-3.802855,0.999997,0.000202,-0.002891,0.006696,0.001249,0.006856,-0.003050,82.699360,0.006870,
1830,1670,-2.201850,-3.753799,0.999996,0.000227,-0.004965,0.010110,-0.000126,0.010111,-0.004966,-89.520590,0.010112,
1580,550,-1.362384,-15.551905,0.999994,0.000259,-0.005325,0.010208,0.000780,0.010247,-0.005364,87.131144,0.010251,
1750,1030,-3.662671,-10.056568,0.999996,0.000225,-0.004315,0.009656,0.000063,0.009656,-0.004315,89.743370,0.009674,
1860,1410,-3.144178,-6.495201,0.999996,0.000246,-0.005032,0.010100,0.000153,0.010102,-0.005033,89.420026,0.010102,
1630,1220,-2.604259,-7.985408,0.999994,0.000254,-0.005891,0.011462,0.001219,0.011548,-0.005976,86.000102,0.011550,
910,1750,0.761527,-2.210124,0.999996,0.000233,-0.003125,0.008668,-0.000255,0.008674,-0.003131,-88.761680,0.008785,
730,1060,3.564007,-9.762248,0.999996,0.000217,-0.004302,0.009725,-0.000322,0.009733,-0.004309,-88.686550,0.009754,
1500,1980,-0.111376,-0.365590,0.999998,0.000198,-0.000744,0.006734,0.000924,0.006847,-0.000857,83.057804,0.007461,
660,1820,1.516447,-2.138791,0.999995,0.000265,-0.004585,0.010132,-0.000816,0.010177,-0.004630,-86.836585,0.010191,
1390,1760,-0.300274,-1.876363,0.999997,0.000192,-0.002080,0.007479,0.000011,0.007479,-0.002080,89.936143,0.007720,
1460,1700,-0.554688,-2.453069,0.999997,0.000216,-0.002859,0.008153,-0.000245,0.008159,-0.002864,-88.723805,0.008279,
1710,1730,-1.433730,-2.767971,0.999996,0.000248,-0.004400,0.009856,0.000232,0.009860,-0.004403,89.069852,0.009878,
970,1870,0.335452,-1.146660,0.999997,0.000199,-0.001939,0.007512,-0.000607,0.007551,-0.001977,-86.340061,0.007831,
590,120,1.145704,-18.915610,0.999996,0.000241,-0.004723,0.010781,0.001628,0.010950,-0.004892,84.070712,0.010971,
1410,1790,-0.308389,-1.670070,0.999997,0.000215,-0.002227,0.007472,0.000032,0.007472,-0.002227,89.808262,0.007673,
1590,1840,-0.633094,-1.493487,0.999997,0.000227,-0.002951,0.008454,0.000808,0.008511,-0.003008,85.965700,0.008632,
1260,520,-0.072936,-16.788044,0.999998,0.000182,-0.002531,0.006698,0.000386,0.006714,-0.002547,87.608178,0.006779,
910,160,0.383147,-19.155504,0.999997,0.000246,-0.001635,0.007745,0.001091,0.007871,-0.001760,83.449953,0.008262,
640,920,3.845491,-11.067324,0.999997,0.000235,-0.004477,0.009209,0.000583,0.009233,-0.004501,87.563346,0.009234,
1370,150,-0.119722,-19.329673,0.999998,0.000182,-0.000875,0.006711,-0.000387,0.006731,-0.000895,-87.089452,0.007310,
1700,450,-1.745417,-16.168837,0.999996,0.000237,-0.004973,0.010121,0.000244,0.010125,-0.004977,89.073654,0.010126,
850,480,1.386240,-16.145638,0.999995,0.000256,-0.004904,0.009934,-0.000525,0.009952,-0.004923,-87.976122,0.009952,
740,2000,0.209204,-0.279150,0.999997,0.000210,-0.000732,0.007826,-0.002637,0.008573,-0.001480,-74.177039,0.009165,
1300,410,-0.158768,-17.531754,0.999998,0.000149,-0.002381,0.007216,0.000288,0.007225,-0.002390,88.282028,0.007361,
1240,810,-0.034063,-15.451318,0.999995,0.000255,-0.003811,0.002128,0.000445,0.002161,-0.003844,85.740079,0.003854,
690,1500,2.411986,-5.303541,0.999995,0.000250,-0.005269,0.010289,0.000048,0.010289,-0.005270,89.821434,0.010290,
1760,1290,-3.052295,-7.465996,0.999996,0.000250,-0.005288,0.010427,0.000833,0.010471,-0.005332,86.974872,0.010472,
720,1190,3.321598,-8.471256,0.999996,0.000243,-0.004967,0.010124,-0.001061,0.010199,-0.005041,-85.996420,0.010199,
1540,1760,-0.702256,-2.102070,0.999997,0.000193,-0.002975,0.008553,0.000285,0.008560,-0.002982,88.585362,0.008690,
930,380,0.844405,-17.326991,0.999997,0.000185,-0.003541,0.008811,-0.000250,0.008817,-0.003546,-88.838985,0.008873,
640,520,2.567259,-15.056421,0.999996,0.000284,-0.005104,0.010184,-0.000082,0.010185,-0.005104,-89.691816,0.010185,
830,1820,0.825967,-1.730430,0.999998,0.000175,-0.003018,0.009038,-0.000977,0.009117,-0.003097,-85.394896,0.009272,
1670,530,-1.795556,-15.444776,0.999997,0.000206,-0.005306,0.010375,0.000362,0.010383,-0.005315,88.679583,0.010384,
930,1550,1.047551,-3.993060,0.999996,0.000241,-0.004665,0.009565,0.000887,0.009620,-0.004720,86.447843,0.009620,
760,1260,2.859493,-7.674265,0.999995,0.000266,-0.005553,0.010818,-0.001029,0.010882,-0.005618,-86.416598,0.010884,
870,1520,1.399110,-4.503756,0.999994,0.000269,-0.005266,0.010186,0.000708,0.010219,-0.005298,87.381389,0.010221,
720,170,0.916204,-18.845151,0.999997,0.000183,-0.003870,0.009657,0.001572,0.009837,-0.004051,83.457699,0.009888,
1840,630,-2.993645,-13.878299,0.999997,0.000228,-0.005071,0.010185,-0.000159,0.010186,-0.005072,-89.404311,0.010186,
600,320,2.150690,-16.939896,0.999996,0.000221,-0.004862,0.009904,-0.000092,0.009905,-0.004863,-89.642666,0.009905,
1750,1010,-3.650803,-10.250018,0.999997,0.000222,-0.004318,0.009640,-0.000310,0.009647,-0.004325,-88.728913,0.009664,
1860,330,-2.169390,-16.853212,0.999998,0.000172,-0.004856,0.009916,0.000130,0.009917,-0.004858,89.496673,0.009918,
1680,1610,-1.631593,-3.875179,0.999996,0.000247,-0.004938,0.010069,-0.000273,0.010074,-0.004943,-88.958592,0.010074,
710,1060,3.650950,-9.764138,0.999997,0.000211,-0.004311,0.009593,-0.000295,0.009600,-0.004318,-88.783264,0.009616,
1360,1920,-0.098281,-0.729696,0.999998,0.000146,-0.000806,0.006580,0.000310,0.006593,-0.000819,87.599024,0.007187,
1160,1500,0.185717,-3.664195,0.999997,0.000198,-0.002884,0.006842,0.001116,0.006969,-0.003010,83.537437,0.006990,
1120,1570,0.295994,-3.243925,0.999997,0.000195,-0.002874,0.007399,0.000834,0.007467,-0.002941,85.390706,0.007522,
1840,1410,-3.043276,-6.436013,0.999997,0.000208,-0.005104,0.010155,0.000194,0.010158,-0.005107,89.273533,0.010158,
910,1770,0.713317,-2.034322,0.999997,0.000196,-0.002948,0.008641,-0.000409,0.008655,-0.002963,-87.983154,0.008798,
1560,550,-1.258788,-15.623635,0.999995,0.000255,-0.005267,0.010110,0.000912,0.010164,-0.005320,86.618114,0.010167,
1710,1750,-1.371741,-2.570669,0.999997,0.000240,-0.004262,0.009800,0.000407,0.009812,-0.004274,88.342962,0.009839,
890,720,1.760471,-13.712555,0.999996,0.000218,-0.006750,0.011731,-0.000268,0.011735,-0.006753,-89.170197,0.011780,
890,160,0.419568,-19.138787,0.999997,0.000222,-0.002019,0.007892,0.001112,0.008015,-0.002142,83.678309,0.008300,
680,350,1.858815,-16.917564,0.999997,0.000207,-0.004837,0.010018,0.000020,0.010018,-0.004837,89.922747,0.010020,
1640,1850,-0.739190,-1.472849,0.999998,0.000203,-0.002781,0.008894,0.001240,0.009024,-0.002911,84.004321,0.009211,
1060,1820,0.256321,-1.441719,0.999997,0.000203,-0.001838,0.007306,-0.000174,0.007309,-0.001841,-88.907512,0.007603,
640,900,3.802843,-11.252288,0.999996,0.000243,-0.004496,0.009246,0.000536,0.009267,-0.004517,87.769265,0.009268,
1830,1650,-2.261960,-3.954479,0.999997,0.000206,-0.004990,0.010048,-0.000133,0.010049,-0.004991,-89.493388,0.010049,
720,990,3.603433,-10.445559,0.999995,0.000248,-0.004311,0.009639,0.000315,0.009646,-0.004318,88.706222,0.009664,
850,970,3.026601,-10.688145,0.999996,0.000241,-0.004126,0.010710,0.000973,0.010774,-0.004189,86.264132,0.010862,
1600,1350,-1.885068,-6.377108,0.999995,0.000255,-0.006458,0.011503,-0.000118,0.011504,-0.006459,-89.622561,0.011533,
1460,1680,-0.581182,-2.620185,0.999996,0.000240,-0.003047,0.008369,-0.000329,0.008379,-0.003057,-88.349650,0.008480,
1290,660,-0.139395,-15.861063,0.999997,0.000232,-0.002746,0.005689,0.001734,0.006032,-0.003088,78.827329,0.006032,
1590,830,-2.334182,-12.330826,0.999994,0.000266,-0.006368,0.012001,-0.001050,0.012060,-0.006428,-86.737426,0.012069,
1500,1960,-0.151167,-0.499705,0.999998,0.000206,-0.000984,0.006904,0.000883,0.007002,-0.001082,83.686640,0.007538,
810,1880,0.657027,-1.225392,0.999996,0.000211,-0.002789,0.008682,-0.001401,0.008851,-0.002957,-83.139147,0.009012,
670,90,0.596353,-19.507733,0.999995,0.000251,-0.002224,0.009632,0.003442,0.010559,-0.003151,74.931536,0.010841,
610,1660,2.346937,-3.932231,0.999996,0.000230,-0.004966,0.010028,0.000114,0.010029,-0.004967,89.563218,0.010029,
860,610,1.627115,-14.834719,0.999994,0.000284,-0.005859,0.010659,-0.000586,0.010679,-0.005880,-87.971475,0.010698,
1120,1190,0.850151,-5.972623,0.999993,0.000330,-0.003612,0.005831,0.003565,0.007026,-0.004807,71.470088,0.007183,
970,420,0.757080,-17.070119,0.999997,0.000216,-0.003821,0.008772,-0.000644,0.008805,-0.003854,-87.077943,0.008828,
970,1890,0.296595,-0.999557,0.999997,0.000195,-0.001712,0.007369,-0.000697,0.007422,-0.001765,-85.636746,0.007755,
850,1820,0.765425,-1.700856,0.999997,0.000227,-0.003064,0.008882,-0.000861,0.008944,-0.003126,-85.900852,0.009078,
1620,110,-0.332815,-19.500275,0.999997,0.000204,-0.001343,0.007818,-0.001645,0.008104,-0.001630,-80.122315,0.008573,
930,1530,1.077377,-4.184249,0.999995,0.000258,-0.004827,0.009680,0.000994,0.009748,-0.004895,86.099891,0.009748,
1570,400,-1.027250,-17.049511,0.999996,0.000252,-0.004224,0.009321,0.000364,0.009331,-0.004234,88.459789,0.009345,
1150,1300,0.208189,-4.939354,0.999997,0.000222,-0.003697,0.005507,0.003644,0.006775,-0.004965,70.814587,0.007015,
1540,1740,-0.741569,-2.270546,0.999997,0.000207,-0.003133,0.008627,0.000090,0.008627,-0.003134,89.562642,0.008734,
1680,1590,-1.682441,-4.078607,0.999997,0.000204,-0.005017,0.010139,-0.000295,0.010145,-0.005022,-88.884212,0.010145,
1370,1400,-0.412058,-4.630424,0.999994,0.000283,-0.004332,0.007917,-0.002681,0.008478,-0.004893,-78.180221,0.008511,
1260,500,-0.071739,-16.923184,0.999998,0.000169,-0.002513,0.006802,0.000361,0.006816,-0.002527,87.781732,0.006891,
1370,130,-0.102922,-19.460364,0.999998,0.000168,-0.000718,0.006566,-0.000391,0.006587,-0.000739,-86.933254,0.007217,
1420,60,-0.048501,-19.908037,0.999998,0.000154,-0.000430,0.006313,-0.000540,0.006356,-0.000473,-85.446663,0.007082,
740,1990,0.263444,-0.357743,0.999998,0.000179,-0.000992,0.007945,-0.002594,0.008643,-0.001690,-74.933170,0.009161,
760,1240,2.936297,-7.891402,0.999996,0.000250,-0.005451,0.010676,-0.001095,0.010750,-0.005525,-86.132957,0.010751,
640,540,2.625730,-14.852059,0.999994,0.000278,-0.005110,0.010183,-0.000060,0.010183,-0.005110,-89.774405,0.010183,
1010,280,0.430288,-18.318257,0.999997,0.000190,-0.002313,0.007856,0.000173,0.007858,-0.002315,89.024276,0.008076,
1280,410,-0.114261,-17.542664,0.999998,0.000168,-0.002316,0.007138,0.000204,0.007143,-0.002320,88.762960,0.007287,
1870,1600,-2.612498,-4.590377,0.999995,0.000273,-0.004971,0.010078,-0.000075,0.010078,-0.004971,-89.715905,0.010079,
1670,510,-1.747115,-15.653973,0.999996,0.000212,-0.005195,0.010314,0.000367,0.010322,-0.005204,88.646136,0.010323,
1260,1570,-0.071721,-3.132498,0.999998,0.000167,-0.002473,0.006922,-0.000330,0.006934,-0.002485,-87.989789,0.007026,
670,1440,2.701973,-5.987955,0.999996,0.000237,-0.005264,0.010271,-0.000158,0.010272,-0.005266,-89.415547,0.010273,
930,210,0.483400,-18.774027,0.999997,0.000216,-0.002161,0.007988,0.000733,0.008040,-0.002214,85.892669,0.008306,
700,1190,3.419199,-8.493954,0.999996,0.000244,-0.004900,0.010004,-0.001022,0.010074,-0.004969,-86.097203,0.010074,
790,340,1.317403,-17.343072,0.999996,0.000253,-0.004493,0.009783,0.000074,0.009783,-0.004493,89.703784,0.009794,
600,300,2.075966,-17.142570,0.999997,0.000216,-0.004843,0.009899,-0.000003,0.009899,-0.004843,-89.986656,0.009899,
640,880,3.754757,-11.436841,0.999996,0.000239,-0.004600,0.009466,0.000678,0.009498,-0.004633,87.245047,0.009499,
850,950,2.975761,-10.902485,0.999996,0.000245,-0.004399,0.010782,0.001081,0.010858,-0.004476,85.946881,0.010914,
1660,430,-1.497237,-16.496655,0.999994,0.000285,-0.004767,0.009910,0.000256,0.009914,-0.004771,89.002573,0.009917,
1320,320,-0.170273,-18.167777,0.999998,0.000169,-0.002123,0.007223,0.000152,0.007226,-0.002125,89.071484,0.007427,
1050,1880,0.196945,-1.021157,0.999999,0.000170,-0.001484,0.006953,-0.000356,0.006968,-0.001499,-87.588606,0.007336,
1060,1800,0.282178,-1.588902,0.999997,0.000205,-0.002011,0.007348,-0.000095,0.007349,-0.002012,-89.415962,0.007596,
1830,1630,-2.324381,-4.156757,0.999997,0.000222,-0.005006,0.010072,-0.000123,0.010073,-0.005007,-89.532850,0.010073,
1750,990,-3.634206,-10.444182,0.999997,0.000214,-0.004339,0.009603,-0.000307,0.009609,-0.004346,-88.737627,0.009624,
1730,440,-1.866273,-16.174399,0.999995,0.000261,-0.004977,0.010093,0.000210,0.010096,-0.004980,89.200273,0.010097,
1880,510,-2.825905,-14.981230,0.999997,0.000196,-0.005017,0.010087,0.000022,0.010087,-0.005017,89.916109,0.010087,
1710,1770,-1.302266,-2.372592,0.999997,0.000225,-0.004129,0.009833,0.000609,0.009860,-0.004156,87.507635,0.009900,
1360,1900,-0.115660,-0.860997,0.999998,0.000164,-0.000966,0.006700,0.000326,0.006714,-0.000980,87.571701,0.007254,
1160,1520,0.185853,-3.524273,0.999997,0.000204,-0.002855,0.006976,0.000978,0.007073,-0.002951,84.373828,0.007105,
1460,1660,-0.603497,-2.786093,0.999996,0.000249,-0.003244,0.008371,-0.000475,0.008391,-0.003263,-87.664235,0.008459,
720,250,1.301625,-18.054154,0.999995,0.000256,-0.004460,0.009956,0.000708,0.009990,-0.004495,87.193447,0.010007,
1120,1180,0.972334,-6.023700,0.999991,0.000358,-0.002956,0.005542,0.003768,0.006972,-0.004386,69.215125,0.007049,
1500,1200,-1.856278,-7.802917,0.999995,0.000312,-0.007303,0.013371,0.000315,0.013376,-0.007307,89.127198,0.013395,
1550,400,-0.942500,-17.105838,0.999996,0.000215,-0.004015,0.009156,0.000384,0.009167,-0.004027,88.333196,0.009190,
1260,480,-0.071437,-17.062689,0.999998,0.000177,-0.002488,0.006892,0.000329,0.006903,-0.002500,87.995990,0.006990,
690,920,3.618815,-11.111817,0.999997,0.000225,-0.004567,0.009601,0.000722,0.009638,-0.004604,87.091899,0.009641,
1650,800,-2.573689,-12.536635,0.999996,0.000304,-0.006022,0.011402,-0.001034,0.011463,-0.006083,-86.616136,0.011470,
1360,1250,-0.532777,-5.781117,0.999988,0.000407,-0.006152,0.008708,-0.004508,0.009969,-0.007413,-74.378301,0.010356,
1670,490,-1.696799,-15.858809,0.999995,0.000254,-0.005106,0.010162,0.000371,0.010171,-0.005115,88.607482,0.010171,
650,1500,2.620505,-5.430364,0.999995,0.000243,-0.005110,0.010228,0.000046,0.010228,-0.005110,89.828789,0.010228,
1590,50,-0.095459,-19.951132,0.999997,0.000192,-0.000644,0.006834,-0.001421,0.007095,-0.000905,-79.598562,0.007723,
1010,1930,0.171188,-0.695021,0.999998,0.000184,-0.000900,0.006875,-0.000690,0.006936,-0.000961,-84.969604,0.007516,
710,410,1.895673,-16.405292,0.999997,0.000214,-0.004885,0.010114,-0.000145,0.010116,-0.004887,-89.446511,0.010118,
1430,1820,-0.313137,-1.471471,0.999998,0.000187,-0.002007,0.007502,0.000218,0.007507,-0.002012,88.689777,0.007772,
1320,90,-0.035998,-19.729660,0.999999,0.000142,-0.000505,0.006228,-0.000220,0.006235,-0.000512,-88.133943,0.006923,
680,1460,2.587434,-5.751811,0.999996,0.000235,-0.005262,0.010355,-0.000064,0.010356,-0.005263,-89.765807,0.010356,
1540,1720,-0.782071,-2.448061,0.999996,0.000220,-0.003204,0.008940,0.000058,0.008941,-0.003204,89.724560,0.009059,
830,1760,1.020170,-2.285942,0.999997,0.000187,-0.003587,0.009325,-0.000490,0.009343,-0.003606,-87.827689,0.009424,
1860,310,-2.097976,-17.052969,0.999998,0.000201,-0.004823,0.009963,0.000013,0.009963,-0.004823,89.948140,0.009964,
1410,1770,-0.333470,-1.823917,0.999996,0.000248,-0.002369,0.007570,-0.000028,0.007570,-0.002369,-89.836838,0.007745,
800,1680,1.369612,-3.127031,0.999994,0.000279,-0.004621,0.009801,0.000118,0.009802,-0.004622,89.532657,0.009807,
1460,150,-0.218485,-19.289981,0.999997,0.000204,-0.001106,0.007096,-0.000673,0.007150,-0.001161,-85.341284,0.007675,
650,1440,2.806800,-6.048114,0.999995,0.000254,-0.005193,0.010221,-0.000164,0.010223,-0.005195,-89.390462,0.010224,
920,390,0.896061,-17.214588,0.999998,0.000179,-0.003781,0.008998,-0.000304,0.009005,-0.003788,-88.637684,0.009043,
970,440,0.783577,-16.894890,0.999998,0.000190,-0.003865,0.008814,-0.000707,0.008853,-0.003905,-86.818417,0.008874,
1370,110,-0.078814,-19.592553,0.999998,0.000175,-0.000561,0.006513,-0.000405,0.006536,-0.000584,-86.733937,0.007233,
600,270,1.957835,-17.437506,0.999997,0.000214,-0.004829,0.009900,0.000103,0.009901,-0.004830,89.598244,0.009902,
1420,1590,-0.536177,-3.275168,0.999996,0.000234,-0.003412,0.008194,-0.000913,0.008265,-0.003484,-85.530838,0.008299,
980,380,0.662137,-17.448399,0.999996,0.000227,-0.003545,0.008590,-0.000457,0.008607,-0.003562,-87.844293,0.008650,
600,280,2.000233,-17.338272,0.999997,0.000225,-0.004818,0.009837,0.000062,0.009837,-0.004818,89.755682,0.009838,
760,700,2.497602,-13.523687,0.999995,0.000294,-0.005745,0.010879,0.000491,0.010894,-0.005759,88.309316,0.010900,
1580,1350,-1.754999,-6.296990,0.999996,0.000218,-0.006589,0.011562,-0.000326,0.011568,-0.006595,-88.972595,0.011605,
1160,1540,0.184289,-3.383134,0.999996,0.000219,-0.002831,0.007069,0.000850,0.007142,-0.002903,85.127267,0.007183,
1830,1690,-2.140237,-3.548595,0.999996,0.000240,-0.004933,0.010071,-0.000061,0.010071,-0.004933,-89.765694,0.010071,
1710,1790,-1.228084,-2.177951,0.999997,0.000216,-0.003990,0.009714,0.000785,0.009759,-0.004035,86.731419,0.009808,
1500,1940,-0.198828,-0.642896,0.999998,0.000199,-0.001217,0.007094,0.000870,0.007184,-0.001307,84.086764,0.007653,
640,860,3.691290,-11.630120,0.999996,0.000228,-0.004699,0.009607,0.000778,0.009649,-0.004741,86.894425,0.009650,
640,560,2.685060,-14.647639,0.999995,0.000253,-0.005113,0.010224,-0.000036,0.010224,-0.005113,-89.866009,0.010224,
630,920,3.889035,-11.055108,0.999997,0.000201,-0.004412,0.009143,0.000553,0.009165,-0.004434,87.667253,0.009167,
1240,1570,-0.022860,-3.116950,0.999998,0.000159,-0.002519,0.006867,-0.000165,0.006870,-0.002522,-88.993015,0.006951,
1750,1860,-1.079653,-1.580062,0.999997,0.000206,-0.004306,0.009859,0.001178,0.009957,-0.004403,85.277045,0.009979,
1670,800,-2.690881,-12.495339,0.999996,0.000251,-0.005819,0.011215,-0.001081,0.011284,-0.005888,-86.383232,0.011287,
1460,1640,-0.624026,-2.953858,0.999996,0.000243,-0.003494,0.008429,-0.000620,0.008461,-0.003527,-87.033448,0.008500,
1870,510,-2.775126,-15.011278,0.999996,0.000242,-0.005032,0.010111,0.000036,0.010111,-0.005032,89.864099,0.010111,
1570,380,-0.983308,-17.236116,0.999996,0.000226,-0.004127,0.009207,0.000278,0.009212,-0.004133,88.805478,0.009229,
1880,610,-3.130538,-13.958296,0.999997,0.000218,-0.005052,0.010131,-0.000047,0.010131,-0.005052,-89.821772,0.010131,
1830,1610,-2.382472,-4.360080,0.999996,0.000259,-0.005045,0.010131,-0.000130,0.010132,-0.005046,-89.508578,0.010132,
1700,1030,-3.447473,-10.055493,0.999996,0.000240,-0.004208,0.009915,0.000065,0.009916,-0.004209,89.735343,0.009953,
1670,470,-1.648342,-16.062660,0.999996,0.000254,-0.005039,0.010092,0.000368,0.010101,-0.005048,88.608912,0.010101,
1060,1780,0.306195,-1.738537,0.999997,0.000197,-0.002146,0.007497,-0.000041,0.007497,-0.002146,-89.753909,0.007722,
1640,1450,-1.829117,-5.406741,0.999996,0.000224,-0.005731,0.010731,-0.000326,0.010737,-0.005738,-88.867698,0.010746,
1120,1170,1.093924,-6.077120,0.999990,0.000382,-0.002389,0.005588,0.004277,0.007448,-0.004249,66.503304,0.007472,
670,1900,1.036493,-1.292252,0.999998,0.000180,-0.003859,0.010194,-0.002030,0.010481,-0.004147,-81.943502,0.010557,
1360,880,-1.077481,-13.756715,0.999994,0.000300,-0.003569,0.007181,0.004704,0.008949,-0.005337,69.405057,0.009004,
710,390,1.836860,-16.610357,0.999997,0.000241,-0.004880,0.010134,-0.000122,0.010135,-0.004881,-89.533697,0.010138,
720,230,1.215899,-18.253443,0.999997,0.000197,-0.004339,0.009893,0.000888,0.009949,-0.004394,86.441832,0.009971,
1870,1160,-3.995999,-8.930147,0.999996,0.000222,-0.004293,0.008714,0.000265,0.008719,-0.004298,88.834897,0.008719,
1010,1910,0.200622,-0.830163,0.999998,0.000189,-0.001050,0.006988,-0.000663,0.007042,-0.001104,-85.318866,0.007575,
1660,90,-0.305379,-19.637595,0.999997,0.000221,-0.001537,0.007808,-0.001916,0.008186,-0.001914,-78.853517,0.008563,
1100,90,0.059717,-19.722359,0.999998,0.000169,-0.000442,0.006307,0.000348,0.006325,-0.000460,87.052044,0.007053,
1540,1850,-0.483490,-1.350494,0.999997,0.000239,-0.002081,0.008074,0.000833,0.008142,-0.002149,85.342545,0.008439,
1260,460,-0.070422,-17.200283,0.999998,0.000187,-0.002461,0.006982,0.000291,0.006991,-0.002470,88.236195,0.007090,
1360,1880,-0.136653,-0.998130,0.999998,0.000170,-0.001109,0.006715,0.000243,0.006723,-0.001116,88.223502,0.007205,
1660,1390,-2.123981,-6.127254,0.999996,0.000246,-0.005967,0.010950,0.000102,0.010950,-0.005967,89.653973,0.010965,
1750,970,-3.616407,-10.636605,0.999996,0.000229,-0.004429,0.009664,-0.000453,0.009678,-0.004444,-88.161939,0.009689,
1170,340,0.126818,-18.039067,0.999998,0.000136,-0.002009,0.007129,-0.000063,0.007129,-0.002009,-89.602109,0.007352,
1750,140,-0.773935,-19.117097,0.999996,0.000255,-0.003738,0.009381,-0.001908,0.009653,-0.004010,-81.889531,0.009699,
1370,90,-0.062511,-19.721108,0.999998,0.000171,-0.000399,0.006367,-0.000381,0.006389,-0.000420,-86.788788,0.007147,
1720,280,-1.323937,-17.813782,0.999996,0.000219,-0.004155,0.009846,-0.000661,0.009877,-0.004186,-87.303290,0.009915,
1430,1800,-0.342883,-1.622319,0.999998,0.000175,-0.002176,0.007514,0.000102,0.007515,-0.002177,89.398230,0.007734,
1160,1980,0.022216,-0.335801,0.999998,0.000157,-0.000259,0.006177,-0.000221,0.006185,-0.000267,-88.039882,0.006993,
1410,1730,-0.379815,-2.130250,0.999997,0.000225,-0.002681,0.007732,-0.000224,0.007737,-0.002686,-88.767085,0.007856,
610,920,3.975786,-11.034459,0.999997,0.000182,-0.004353,0.008979,0.000468,0.008995,-0.004370,87.991546,0.008996,
790,1920,0.539154,-0.902955,0.999997,0.000201,-0.002619,0.008426,-0.001742,0.008694,-0.002887,-81.248372,0.008856,
1500,1900,-0.285673,-0.930195,0.999997,0.000206,-0.001685,0.007334,0.000788,0.007403,-0.001754,85.042834,0.007737,
1130,1380,0.269623,-4.577310,0.999997,0.000216,-0.003596,0.006758,0.002709,0.007424,-0.004261,76.189507,0.007451,
640,580,2.747194,-14.440408,0.999996,0.000230,-0.005139,0.010232,0.000032,0.010232,-0.005139,89.881733,0.010233,
1540,1700,-0.822745,-2.629182,0.999997,0.000212,-0.003306,0.008875,-0.000022,0.008875,-0.003306,-89.894939,0.008971,
670,1370,2.938041,-6.714027,0.999997,0.000232,-0.005233,0.010262,-0.000433,0.010274,-0.005245,-88.400569,0.010275,
740,1770,1.354578,-2.406621,0.999997,0.000201,-0.004224,0.009911,-0.000587,0.009936,-0.004248,-87.627807,0.009970,
1370,1760,-0.262959,-1.860882,0.999998,0.000200,-0.001954,0.007346,0.000006,0.007346,-0.001954,89.965009,0.007609,
1500,430,-0.797731,-16.963011,0.999997,0.000189,-0.003818,0.008829,0.000637,0.008861,-0.003850,87.122238,0.008886,
1670,450,-1.595674,-16.265202,0.999996,0.000248,-0.004934,0.010067,0.000292,0.010073,-0.004940,88.883627,0.010073,
1460,1620,-0.649519,-3.126119,0.999996,0.000253,-0.003714,0.008561,-0.000800,0.008613,-0.003766,-86.285799,0.008635,
1760,710,-2.851296,-13.269983,0.999996,0.000246,-0.005376,0.010422,-0.000574,0.010443,-0.005397,-87.920474,0.010445,
860,1570,1.349021,-4.033486,0.999995,0.000281,-0.004917,0.009905,0.000581,0.009928,-0.004940,87.758018,0.009928,
950,1060,2.697404,-9.679593,0.999993,0.000322,-0.003852,0.012556,-0.000656,0.012582,-0.003878,-87.713443,0.012887,
1640,1430,-1.884109,-5.622478,0.999995,0.000243,-0.005832,0.010810,-0.000261,0.010814,-0.005836,-89.100958,0.010825,
800,1640,1.475146,-3.525011,0.999995,0.000272,-0.004714,0.009906,0.000199,0.009909,-0.004717,89.221679,0.009913,
1010,1890,0.240650,-0.975812,0.999998,0.000190,-0.001246,0.007149,-0.000649,0.007199,-0.001296,-85.604977,0.007675,
770,100,0.407029,-19.538341,0.999996,0.000247,-0.001669,0.008259,0.002219,0.008733,-0.002142,77.957616,0.009102,
1630,480,-1.470405,-16.090842,0.999995,0.000256,-0.004952,0.009992,0.000462,0.010007,-0.004966,88.230107,0.010007,
1460,90,-0.114297,-19.702994,0.999998,0.000186,-0.000573,0.006675,-0.000743,0.006750,-0.000649,-84.207489,0.007449,
1060,1760,0.328913,-1.888493,0.999997,0.000207,-0.002315,0.007537,0.000080,0.007538,-0.002316,89.536236,0.007723,
1480,150,-0.242512,-19.279460,0.999998,0.000176,-0.001301,0.007188,-0.000728,0.007249,-0.001363,-85.136453,0.007706,
1830,1590,-2.439557,-4.565635,0.999996,0.000261,-0.005048,0.010149,-0.000138,0.010150,-0.005049,-89.480208,0.010150,
760,680,2.425482,-13.741429,0.999996,0.000288,-0.005747,0.010790,0.000344,0.010797,-0.005754,88.809468,0.010805,
1430,680,-0.729956,-14.938644,0.999992,0.000324,-0.005734,0.009776,0.002593,0.010198,-0.006157,80.755514,0.010270,
1550,380,-0.903758,-17.289038,0.999996,0.000241,-0.003755,0.009003,0.000211,0.009006,-0.003758,89.054293,0.009047,
1850,1160,-3.909901,-8.896975,0.999997,0.000217,-0.004416,0.008959,0.000406,0.008972,-0.004428,88.262396,0.008972,
640,840,3.629172,-11.826013,0.999996,0.000233,-0.004730,0.009565,0.000719,0.009601,-0.004766,87.127367,0.009601,
600,260,1.913827,-17.538565,0.999997,0.000231,-0.004846,0.009932,0.000133,0.009933,-0.004847,89.483757,0.009934,
1360,870,-0.965783,-13.824030,0.999994,0.000291,-0.004228,0.007408,0.004443,0.008911,-0.005730,71.316000,0.009032,
670,1880,1.160983,-1.500299,0.999995,0.000296,-0.004123,0.010176,-0.001664,0.010367,-0.004314,-83.447463,0.010415,
1550,100,-0.210657,-19.607878,0.999998,0.000202,-0.000861,0.007160,-0.001216,0.007340,-0.001041,-81.565860,0.007943,
1720,260,-1.250300,-18.009963,0.999996,0.000236,-0.004002,0.009786,-0.000865,0.009840,-0.004057,-86.423428,0.009891,
1660,1370,-2.190965,-6.347599,0.999997,0.000246,-0.006024,0.011072,0.000202,0.011074,-0.006026,89.324752,0.011088,
1260,1280,-0.065422,-4.682719,0.999997,0.000212,-0.002507,0.002830,-0.001661,0.003305,-0.002982,-74.051860,0.003644,
1360,1860,-0.153039,-1.132166,0.999998,0.000170,-0.001286,0.006906,0.000236,0.006913,-0.001293,88.349671,0.007350,
1080,1250,0.684087,-6.068404,0.999993,0.000315,-0.006926,0.010282,0.004105,0.011211,-0.007856,77.246941,0.011508,
710,370,1.778501,-16.813878,0.999996,0.000256,-0.004860,0.010096,-0.000032,0.010096,-0.004860,-89.878673,0.010099,
1260,1820,-0.040341,-1.373104,0.999998,0.000204,-0.001421,0.006846,0.000007,0.006846,-0.001421,89.952649,0.007226,
780,1930,0.521092,-0.831687,0.999997,0.000230,-0.002342,0.008480,-0.001997,0.008836,-0.002699,-79.873691,0.009056,
1520,1850,-0.442684,-1.332156,0.999997,0.000244,-0.002179,0.007896,0.000690,0.007944,-0.002226,86.099449,0.008195,
640,1020,3.974861,-10.148882,0.999997,0.000207,-0.004301,0.009141,0.000142,0.009142,-0.004303,89.396065,0.009148,
1540,1680,-0.860262,-2.805717,0.999997,0.000188,-0.003512,0.008849,-0.000183,0.008852,-0.003515,-89.152723,0.008914,
1410,1710,-0.398543,-2.284005,0.999998,0.000228,-0.002837,0.007776,-0.000358,0.007788,-0.002849,-88.067507,0.007880,
1770,140,-0.851895,-19.069680,0.999997,0.000211,-0.003848,0.009627,-0.002013,0.009921,-0.004142,-81.680762,0.009966,
670,1410,2.801606,-6.297332,0.999996,0.000243,-0.005250,0.010338,-0.000264,0.010342,-0.005254,-89.030169,0.010343,
1750,950,-3.580910,-10.832269,0.999996,0.000228,-0.004488,0.009833,-0.000777,0.009875,-0.004530,-86.903839,0.009886,
1410,1820,-0.272272,-1.449575,0.999997,0.000200,-0.001974,0.007351,0.000154,0.007354,-0.001976,89.054178,0.007611,
970,560,0.932209,-15.786785,0.999997,0.000232,-0.004929,0.009602,-0.001386,0.009733,-0.005060,-84.600903,0.009735,
1820,1350,-3.147527,-6.990254,0.999997,0.000214,-0.005073,0.010097,0.000455,0.010110,-0.005086,88.284744,0.010110,
1510,340,-0.695578,-17.725263,0.999998,0.000211,-0.003413,0.008664,0.000158,0.008666,-0.003415,89.248417,0.008730,
1160,1960,0.030742,-0.460136,0.999998,0.000186,-0.000399,0.006259,-0.000204,0.006265,-0.000405,-88.248630,0.007013,
1670,430,-1.544379,-16.468263,0.999995,0.000263,-0.004816,0.009959,0.000242,0.009963,-0.004820,89.060268,0.009964,
740,1750,1.426908,-2.604233,0.999996,0.000251,-0.004360,0.009885,-0.000417,0.009897,-0.004372,-88.323411,0.009919,
1850,1600,-2.513180,-4.526595,0.999996,0.000264,-0.005035,0.010125,-0.000115,0.010125,-0.005036,-89.565200,0.010125,
1500,1880,-0.328987,-1.076702,0.999996,0.000227,-0.001913,0.007462,0.000668,0.007509,-0.001961,85.947380,0.007789,
610,860,3.831943,-11.577482,0.999996,0.000199,-0.004558,0.009355,0.000563,0.009378,-0.004581,87.685201,0.009379,
1800,770,-3.277084,-12.560914,0.999996,0.000243,-0.005069,0.010036,-0.000724,0.010071,-0.005104,-87.261820,0.010071,
1460,1600,-0.673079,-3.300479,0.999996,0.000241,-0.003894,0.008653,-0.000951,0.008724,-0.003966,-85.688746,0.008736,
1010,1870,0.273048,-1.117818,0.999998,0.000199,-0.001421,0.007275,-0.000531,0.007307,-0.001453,-86.521457,0.007736,
760,660,2.358586,-13.956150,0.999995,0.000278,-0.005714,0.010729,0.000216,0.010732,-0.005717,89.248696,0.010739,
750,80,0.336663,-19.684813,0.999997,0.000212,-0.001230,0.007956,0.002437,0.008563,-0.001837,76.023616,0.009016,
1370,1420,-0.408379,-4.472942,0.999995,0.000257,-0.004091,0.007865,-0.002405,0.008330,-0.004556,-79.042112,0.008343,
870,1760,0.875804,-2.202187,0.999997,0.000198,-0.003715,0.008951,-0.000266,0.008956,-0.003721,-88.798247,0.008999,
1640,1030,-3.203616,-10.054251,0.999996,0.000242,-0.003951,0.010310,0.000037,0.010310,-0.003951,89.853135,0.010403,
1830,1570,-2.500180,-4.767724,0.999996,0.000244,-0.005044,0.010148,-0.000105,0.010149,-0.005045,-89.605743,0.010149,
1060,1740,0.348100,-2.041506,0.999997,0.000212,-0.002462,0.007622,0.000154,0.007624,-0.002465,89.126298,0.007781,
1870,610,-3.080150,-13.989708,0.999996,0.000271,-0.005038,0.010135,-0.000049,0.010135,-0.005039,-89.815994,0.010135,
790,120,0.473743,-19.378190,0.999995,0.000247,-0.002311,0.008403,0.001913,0.008734,-0.002642,80.171807,0.008959,
800,1100,3.202395,-9.335313,0.999996,0.000222,-0.004360,0.010375,-0.000963,0.010437,-0.004422,-86.275433,0.010478,
600,240,1.826102,-17.736238,0.999996,0.000268,-0.004869,0.009867,0.000184,0.009869,-0.004872,89.285416,0.009869,
870,640,1.645063,-14.544629,0.999995,0.000260,-0.006068,0.011034,-0.000566,0.011053,-0.006087,-88.105477,0.011072,
1750,1160,-3.452018,-8.785429,0.999996,0.000253,-0.004779,0.009994,0.000992,0.010061,-0.004845,86.175073,0.010063,
1660,1090,-3.213393,-9.439293,0.999995,0.000258,-0.004314,0.010376,0.000894,0.010430,-0.004368,86.531082,0.010476,
1220,150,0.009530,-19.353028,0.999998,0.000155,-0.000914,0.006449,0.000005,0.006449,-0.000914,89.961265,0.006979,
650,1900,1.114685,-1.338733,0.999998,0.000230,-0.004080,0.010385,-0.001795,0.010605,-0.004299,-83.032264,0.010668,
1260,1300,-0.056502,-4.618572,0.999997,0.000189,-0.002258,0.003232,-0.001554,0.003642,-0.002668,-75.242087,0.003771,
1690,260,-1.127671,-18.076901,0.999997,0.000229,-0.004024,0.009524,-0.000711,0.009561,-0.004061,-87.004317,0.009597,
640,80,0.558521,-19.583130,0.999993,0.000302,-0.003370,0.010487,0.003168,0.011176,-0.004060,77.714583,0.011315,
1720,240,-1.164956,-18.209647,0.999997,0.000206,-0.003831,0.009799,-0.001038,0.009878,-0.003910,-85.668433,0.009949,
710,350,1.715294,-17.015202,0.999996,0.000249,-0.004819,0.010010,0.000032,0.010010,-0.004819,89.874512,0.010012,
1060,1250,0.831491,-6.308488,0.999994,0.000317,-0.007472,0.011293,0.003464,0.011912,-0.008091,79.867563,0.012164,
1430,220,-0.291307,-18.802066,0.999997,0.000223,-0.001880,0.007322,-0.000257,0.007329,-0.001887,-88.404358,0.007611,
1520,1830,-0.484881,-1.487928,0.999997,0.000187,-0.002404,0.007999,0.000527,0.008025,-0.002430,87.107060,0.008231,
910,680,1.503320,-14.259428,0.999996,0.000249,-0.006485,0.011307,-0.000813,0.011344,-0.006522,-87.389364,0.011386,
1360,1840,-0.174533,-1.275824,0.999998,0.000176,-0.001436,0.006992,0.000176,0.006996,-0.001440,88.802310,0.007388,
1620,1410,-1.823244,-5.773172,0.999995,0.000239,-0.006053,0.011046,-0.000330,0.011052,-0.006060,-88.893521,0.011070,
1450,1780,-0.414375,-1.797370,0.999998,0.000181,-0.002285,0.007774,0.000177,0.007777,-0.002288,88.994008,0.007994,
1410,1690,-0.418806,-2.443302,0.999996,0.000239,-0.002954,0.007971,-0.000413,0.007987,-0.002970,-87.836964,0.008074,
1540,1660,-0.893994,-2.982421,0.999997,0.000186,-0.003794,0.009010,-0.000352,0.009019,-0.003804,-88.426646,0.009056,
900,1370,1.583608,-6.000141,0.999994,0.000292,-0.006494,0.011344,0.000646,0.011367,-0.006517,87.928059,0.011408,
1260,1580,-0.070584,-3.062063,0.999998,0.000163,-0.002454,0.006901,-0.000308,0.006911,-0.002464,-88.118872,0.007006,
640,680,3.075041,-13.416517,0.999997,0.000199,-0.005110,0.010110,0.000364,0.010118,-0.005119,88.630890,0.010118,
900,1510,1.264337,-4.496600,0.999996,0.000246,-0.005241,0.010104,0.000895,0.010156,-0.005293,86.672395,0.010159,
1690,800,-2.804140,-12.455996,0.999995,0.000286,-0.005609,0.010983,-0.001068,0.011051,-0.005677,-86.332654,0.011053,
750,380,1.613978,-16.837366,0.999995,0.000276,-0.004752,0.009965,0.000004,0.009965,-0.004752,89.986032,0.009969,
1320,720,-0.223219,-15.368616,0.999997,0.000227,-0.003544,0.006062,0.003230,0.007047,-0.004529,73.040655,0.007142,
1730,1920,-0.677153,-0.960698,0.999996,0.000217,-0.002735,0.009090,0.002206,0.009489,-0.003133,79.767596,0.009669,
1750,930,-3.536272,-11.029759,0.999997,0.000209,-0.004532,0.009745,-0.000793,0.009789,-0.004576,-86.831500,0.009796,
590,1500,2.924237,-5.617941,0.999997,0.000213,-0.005064,0.010201,0.000006,0.010201,-0.005064,89.976726,0.010202,
1250,280,-0.032985,-18.477218,0.999997,0.000203,-0.001753,0.006985,0.000067,0.006986,-0.001753,89.561164,0.007269,
680,900,3.621757,-11.294096,0.999996,0.000255,-0.004648,0.009611,0.000741,0.009650,-0.004686,87.033411,0.009651,
1500,1860,-0.373791,-1.231948,0.999997,0.000228,-0.002140,0.007681,0.000619,0.007720,-0.002179,86.409294,0.007960,
1780,770,-3.175813,-12.601880,0.999998,0.000205,-0.005150,0.010178,-0.000782,0.010218,-0.005189,-87.085216,0.010218,
870,620,1.593710,-14.765123,0.999995,0.000254,-0.005886,0.010735,-0.000634,0.010759,-0.005910,-87.818675,0.010777,
1460,1580,-0.694036,-3.476848,0.999996,0.000248,-0.004038,0.008749,-0.001071,0.008838,-0.004127,-85.247441,0.008845,
1160,1940,0.041192,-0.586708,0.999998,0.000188,-0.000524,0.006362,-0.000217,0.006369,-0.000531,-88.194920,0.007068,
970,480,0.832620,-16.538683,0.999996,0.000225,-0.004150,0.009079,-0.000927,0.009144,-0.004214,-86.012449,0.009153,
1150,1760,0.145108,-1.807329,0.999998,0.000177,-0.001879,0.007087,0.000033,0.007088,-0.001879,89.791236,0.007344,
1620,1030,-3.123000,-10.054593,0.999998,0.000230,-0.003839,0.010490,0.000046,0.010490,-0.003840,89.814771,0.010615,
1060,1720,0.369727,-2.192920,0.999996,0.000217,-0.002612,0.007673,0.000245,0.007679,-0.002618,88.636037,0.007808,
1690,240,-1.051178,-18.268884,0.999996,0.000224,-0.003883,0.009581,-0.000905,0.009641,-0.003943,-86.171502,0.009694,
1830,1550,-2.558765,-4.972376,0.999996,0.000263,-0.005075,0.010150,-0.000094,0.010150,-0.005076,-89.646812,0.010150,
1290,2000,-0.011942,-0.212778,0.999998,0.000172,-0.000140,0.006037,0.000147,0.006040,-0.000143,88.636064,0.006893,
1720,220,-1.082832,-18.400984,0.999997,0.000221,-0.003652,0.009687,-0.001257,0.009804,-0.003770,-84.662777,0.009891,
1010,1850,0.308537,-1.267855,0.999998,0.000205,-0.001663,0.007434,-0.000500,0.007462,-0.001691,-86.864998,0.007825,
760,640,2.293742,-14.172649,0.999995,0.000269,-0.005686,0.010697,0.000112,0.010698,-0.005687,89.609216,0.010705,
600,220,1.729595,-17.936586,0.999996,0.000265,-0.004879,0.009998,0.000315,0.010005,-0.004886,88.786276,0.010006,
900,630,1.438200,-14.776265,0.999995,0.000265,-0.006036,0.010817,-0.000901,0.010865,-0.006084,-86.947266,0.010891,
800,1080,3.250365,-9.544643,0.999996,0.000213,-0.004230,0.010253,-0.000693,0.010286,-0.004263,-87.265793,0.010336,
780,50,0.155258,-19.930494,0.999998,0.000171,-0.000798,0.007288,0.002119,0.007809,-0.001319,76.169778,0.008361,
1710,2010,-0.151562,-0.201388,0.999996,0.000248,-0.000297,0.007543,0.002475,0.008259,-0.001012,73.868184,0.009009,
640,820,3.565868,-12.016152,0.999995,0.000249,-0.004802,0.009609,0.000674,0.009640,-0.004833,87.328603,0.009640,
1240,150,-0.008738,-19.354757,0.999998,0.000163,-0.000893,0.006460,-0.000004,0.006460,-0.000893,-89.969649,0.007001,
1640,1090,-3.126101,-9.430231,0.999994,0.000293,-0.004229,0.010514,0.000945,0.010574,-0.004289,86.348896,0.010637,
710,330,1.648329,-17.214099,0.999997,0.000228,-0.004834,0.010029,0.000060,0.010029,-0.004834,89.767722,0.010032,
1730,1160,-3.355247,-8.766629,0.999996,0.000230,-0.004829,0.010185,0.001080,0.010263,-0.004906,85.907639,0.010266,
1600,1410,-1.699786,-5.696675,0.999996,0.000235,-0.006121,0.011033,-0.000456,0.011045,-0.006134,-88.477281,0.011068,
1260,1320,-0.055358,-4.556328,0.999997,0.000194,-0.002168,0.003703,-0.001401,0.004020,-0.002485,-77.243113,0.004058,
1850,1340,-3.333080,-7.172806,0.999995,0.000253,-0.004995,0.009957,0.000364,0.009966,-0.005004,88.604603,0.009966,
1410,680,-0.620558,-15.070074,0.999995,0.000268,-0.005444,0.009227,0.002833,0.009755,-0.005972,79.443096,0.009837,
640,660,3.005561,-13.618464,0.999997,0.000203,-0.005103,0.010214,0.000276,0.010219,-0.005108,88.967108,0.010219,
1410,1670,-0.440615,-2.605300,0.999996,0.000234,-0.003084,0.007975,-0.000563,0.008003,-0.003112,-87.094167,0.008069,
1510,220,-0.449618,-18.724288,0.999997,0.000219,-0.002398,0.007826,-0.000490,0.007850,-0.002422,-87.261787,0.008039,
1710,1920,-0.636175,-0.941388,0.999995,0.000243,-0.002241,0.008833,0.002192,0.009251,-0.002659,79.201030,0.009525,
960,830,1.732306,-12.672194,0.999995,0.000274,-0.007537,0.013141,-0.000052,0.013141,-0.007537,-89.855852,0.013188,
1260,1540,-0.071428,-3.340975,0.999998,0.000164,-0.002519,0.006743,-0.000399,0.006760,-0.002536,-87.534971,0.006830,
1320,740,-0.224008,-15.252192,0.999996,0.000235,-0.003715,0.005986,0.003548,0.007145,-0.004874,71.905674,0.007302,
1370,100,-0.070141,-19.657402,0.999998,0.000185,-0.000467,0.006419,-0.000380,0.006440,-0.000488,-86.848498,0.007172,
1160,1920,0.051883,-0.716007,0.999998,0.000170,-0.000663,0.006445,-0.000193,0.006450,-0.000668,-88.445401,0.007093,
1460,1560,-0.713744,-3.653527,0.999995,0.000271,-0.004143,0.008843,-0.001157,0.008946,-0.004245,-84.949753,0.008950,
1320,1300,-0.232005,-4.992687,0.999996,0.000247,-0.003928,0.005876,-0.003776,0.007162,-0.005214,-71.196052,0.007406,
620,1250,3.613001,-8.041447,0.999996,0.000229,-0.004778,0.009508,-0.000548,0.009529,-0.004799,-87.807197,0.009529,
1770,800,-3.231360,-12.313826,0.999996,0.000250,-0.005115,0.010242,-0.000943,0.010300,-0.005172,-86.499938,0.010300,
740,550,2.132326,-15.065209,0.999994,0.000283,-0.005344,0.010365,-0.000158,0.010367,-0.005345,-89.425314,0.010368,
810,1060,3.230332,-9.746512,0.999998,0.000182,-0.004052,0.010192,-0.000411,0.010204,-0.004063,-88.348551,0.010274,
1210,1820,0.031263,-1.370461,0.999997,0.000184,-0.001463,0.006827,0.000029,0.006827,-0.001463,89.800629,0.007189,
1650,480,-1.569365,-16.027197,0.999995,0.000260,-0.005073,0.010081,0.000408,0.010092,-0.005084,88.460103,0.010092,
1500,1840,-0.415370,-1.384371,0.999997,0.000210,-0.002316,0.007748,0.000469,0.007770,-0.002338,87.338113,0.007973,
1060,1700,0.389153,-2.348487,0.999996,0.000226,-0.002756,0.007827,0.000381,0.007841,-0.002770,87.938265,0.007952,
1370,280,-0.247275,-18.412313,0.999997,0.000192,-0.001875,0.007385,-0.000077,0.007386,-0.001876,-89.522865,0.007678,
1830,1530,-2.616944,-5.177549,0.999995,0.000271,-0.005106,0.010187,-0.000077,0.010187,-0.005107,-89.712127,0.010187,
1720,200,-0.987364,-18.601133,0.999996,0.000234,-0.003424,0.009666,-0.001505,0.009837,-0.003595,-83.525180,0.009955,
1010,1830,0.342129,-1.415581,0.999997,0.000215,-0.001821,0.007537,-0.000393,0.007554,-0.001838,-87.597675,0.007878,
770,50,0.165679,-19.926096,0.999998,0.000185,-0.000657,0.007394,0.002253,0.007982,-0.001245,75.379968,0.008589,
870,100,0.259929,-19.590525,0.999997,0.000223,-0.001446,0.007464,0.001414,0.007683,-0.001665,81.195869,0.008083,
1490,1860,-0.350828,-1.220818,0.999997,0.000225,-0.001982,0.007602,0.000607,0.007640,-0.002020,86.391464,0.007917,
970,460,0.808074,-16.717179,0.999997,0.000205,-0.003970,0.008913,-0.000789,0.008961,-0.004018,-86.509420,0.008977,
590,1490,2.954915,-5.719976,0.999997,0.000254,-0.005054,0.010191,-0.000020,0.010191,-0.005054,-89.925303,0.010191,
800,1060,3.270485,-9.748534,0.999997,0.000201,-0.004085,0.010133,-0.000384,0.010143,-0.004096,-88.452749,0.010206,
1540,1640,-0.928166,-3.163896,0.999997,0.000196,-0.004059,0.009130,-0.000501,0.009149,-0.004078,-87.829693,0.009167,
710,310,1.582452,-17.418461,0.999996,0.000252,-0.004820,0.010064,0.000164,0.010066,-0.004822,89.369927,0.010069,
670,780,3.277761,-12.474402,0.999995,0.000245,-0.005073,0.010109,0.000810,0.010152,-0.005116,86.956312,0.010152,
1360,150,-0.110404,-19.330874,0.999997,0.000192,-0.000919,0.006692,-0.000335,0.006706,-0.000933,-87.485866,0.007265,
1620,1970,-0.246120,-0.472594,0.999997,0.000197,-0.000971,0.007465,0.001718,0.007801,-0.001308,78.916874,0.008356,
880,1510,1.368010,-4.568027,0.999996,0.000223,-0.005306,0.010196,0.000783,0.010235,-0.005346,87.114846,0.010239,
600,200,1.624020,-18.136433,0.999995,0.000265,-0.004883,0.009979,0.000434,0.009991,-0.004896,88.327098,0.009992,
640,780,3.428371,-12.412584,0.999996,0.000227,-0.004958,0.009939,0.000672,0.009969,-0.004988,87.421672,0.009969,
960,810,1.626625,-12.935362,0.999994,0.000311,-0.007615,0.012898,-0.000389,0.012905,-0.007622,-88.913499,0.012976,
1540,1330,-1.551134,-6.360774,0.999994,0.000273,-0.006922,0.011781,-0.000670,0.011805,-0.006946,-87.950391,0.011867,
640,640,2.941758,-13.826564,0.999997,0.000205,-0.005132,0.010215,0.000210,0.010218,-0.005135,89.214952,0.010218,
760,620,2.230377,-14.387623,0.999995,0.000280,-0.005631,0.010647,0.000008,0.010647,-0.005631,89.970750,0.010653,
1870,1960,-0.921090,-0.960926,0.999997,0.000189,-0.004588,0.011207,0.002388,0.011560,-0.004941,81.589395,0.011600,
1310,1300,-0.198360,-4.918289,0.999997,0.000201,-0.003571,0.005312,-0.003574,0.006572,-0.004830,-70.591114,0.006809,
1620,1090,-3.043699,-9.420539,0.999996,0.000224,-0.004179,0.010680,0.001000,0.010747,-0.004247,86.165609,0.010826,
1880,450,-2.646607,-15.587440,0.999996,0.000219,-0.004926,0.010034,0.000051,0.010035,-0.004926,89.803253,0.010035,
1490,220,-0.402372,-18.748450,0.999996,0.000221,-0.002215,0.007719,-0.000480,0.007742,-0.002238,-87.242319,0.007968,
580,1190,3.981217,-8.692971,0.999996,0.000245,-0.004244,0.008905,-0.000173,0.008907,-0.004246,-89.246335,0.008910,
1320,760,-0.232722,-15.137873,0.999996,0.000262,-0.003935,0.005814,0.003832,0.007140,-0.005261,70.914512,0.007402,
850,1760,0.951219,-2.245180,0.999996,0.000253,-0.003610,0.009136,-0.000379,0.009147,-0.003622,-88.299802,0.009213,
680,880,3.565376,-11.489482,0.999995,0.000272,-0.004788,0.009879,0.000932,0.009939,-0.004847,86.376953,0.009940,
1260,1520,-0.071731,-3.471084,0.999998,0.000165,-0.002528,0.006603,-0.000413,0.006621,-0.002547,-87.418156,0.006680,
1160,1900,0.060789,-0.846052,0.999998,0.000167,-0.000778,0.006502,-0.000195,0.006507,-0.000783,-88.468800,0.007105,
1410,1650,-0.457783,-2.766930,0.999996,0.000251,-0.003179,0.007982,-0.000697,0.008026,-0.003222,-86.439138,0.008078,
1460,1540,-0.733698,-3.833533,0.999996,0.000246,-0.004252,0.008887,-0.001262,0.009007,-0.004372,-84.562154,0.009008,
1460,950,-2.242878,-11.269357,0.999990,0.000352,-0.005768,0.014982,0.000101,0.014983,-0.005768,89.720638,0.015114,
1610,1920,-0.412675,-0.853416,0.999996,0.000236,-0.001812,0.007863,0.001436,0.008071,-0.002020,81.730504,0.008400,
1260,1340,-0.055609,-4.478123,0.999997,0.000198,-0.002157,0.004194,-0.001239,0.004427,-0.002390,-79.345264,0.004431,
1490,1780,-0.510936,-1.849316,0.999997,0.000211,-0.002697,0.008089,0.000192,0.008092,-0.002700,88.982400,0.008240,
720,550,2.240119,-15.000745,0.999996,0.000221,-0.005297,0.010321,-0.000119,0.010322,-0.005298,-89.562289,0.010323,
850,100,0.288360,-19.581766,0.999997,0.000235,-0.001247,0.007584,0.001569,0.007854,-0.001517,80.220757,0.008333,
1890,160,-1.516894,-18.410626,0.999995,0.000268,-0.004898,0.010173,-0.000825,0.010218,-0.004943,-86.876012,0.010220,
1750,910,-3.491315,-11.226154,0.999996,0.000225,-0.004651,0.009850,-0.000852,0.009900,-0.004701,-86.647993,0.009905,
1060,700,0.598858,-14.928102,0.999993,0.000302,-0.005622,0.009304,-0.003082,0.009915,-0.006234,-78.782311,0.010024,
1320,1280,-0.248034,-5.109618,0.999995,0.000268,-0.004200,0.005742,-0.004025,0.007167,-0.005625,-70.500709,0.007545,
1500,1820,-0.458298,-1.542903,0.999997,0.000220,-0.002505,0.007962,0.000379,0.007975,-0.002519,87.930704,0.008154,
910,500,1.131025,-16.149569,0.999997,0.000224,-0.004758,0.009708,-0.000807,0.009753,-0.004803,-86.817535,0.009753,
1770,780,-3.159927,-12.518761,0.999997,0.000229,-0.005157,0.010218,-0.000846,0.010265,-0.005203,-86.859158,0.010265,
1720,180,-0.894030,-18.789208,0.999996,0.000227,-0.003136,0.009446,-0.001747,0.009684,-0.003374,-82.241570,0.009831,
1310,1550,-0.203895,-3.324106,0.999997,0.000184,-0.002850,0.007149,-0.000900,0.007229,-0.002930,-84.895450,0.007272,
800,1040,3.289286,-9.952034,0.999996,0.000235,-0.004045,0.010128,-0.000257,0.010133,-0.004049,-88.961029,0.010201,
1010,1810,0.376088,-1.570632,0.999996,0.000228,-0.002006,0.007707,-0.000339,0.007719,-0.002018,-88.004332,0.008007,
1490,1840,-0.392648,-1.372836,0.999998,0.000188,-0.002170,0.007676,0.000483,0.007700,-0.002194,87.197540,0.007934,
760,70,0.270066,-19.771623,0.999997,0.000209,-0.001042,0.007806,0.002355,0.008394,-0.001630,75.985190,0.008902,
1370,1340,-0.435005,-5.115175,0.999995,0.000282,-0.005039,0.008276,-0.003469,0.009126,-0.005889,-76.240689,0.009253,
1330,340,-0.205466,-18.011806,0.999997,0.000196,-0.002334,0.007234,0.000299,0.007244,-0.002343,88.213692,0.007393,
1370,2010,-0.023803,-0.156528,0.999997,0.000192,-0.000117,0.006129,0.000335,0.006147,-0.000135,86.937943,0.007022,
640,620,2.873610,-14.031032,0.999997,0.000215,-0.005172,0.010204,0.000168,0.010206,-0.005174,89.375489,0.010206,
600,400,2.411839,-16.145055,0.999996,0.000251,-0.004964,0.009984,-0.000125,0.009985,-0.004965,-89.521541,0.009985,
640,760,3.356334,-12.610152,0.999996,0.000215,-0.004977,0.009899,0.000610,0.009924,-0.005002,87.657136,0.009924,
1410,1630,-0.472735,-2.925256,0.999997,0.000217,-0.003268,0.008050,-0.000764,0.008102,-0.003319,-86.153933,0.008146,
1860,610,-3.028926,-14.021758,0.999996,0.000288,-0.005036,0.010138,-0.000064,0.010138,-0.005036,-89.758179,0.010138,
1310,1280,-0.212937,-5.018548,0.999996,0.000257,-0.003816,0.005157,-0.003806,0.006554,-0.005213,-69.847572,0.006925,
760,600,2.170392,-14.601002,0.999995,0.000259,-0.005543,0.010617,-0.000065,0.010617,-0.005543,-89.769094,0.010621,
1830,840,-3.662189,-11.811948,0.999996,0.000263,-0.004722,0.009509,-0.000663,0.009540,-0.004753,-87.340085,0.009540,
1590,100,-0.255542,-19.592590,0.999997,0.000200,-0.001456,0.007421,-0.001386,0.007633,-0.001668,-81.328577,0.008026,
1890,1680,-2.468684,-3.858314,0.999994,0.000270,-0.004954,0.009787,-0.000081,0.009788,-0.004955,-89.685824,0.009788,
930,410,0.891783,-17.059201,0.999997,0.000180,-0.003900,0.009027,-0.000450,0.009043,-0.003916,-88.009202,0.009070,
1260,1500,-0.072941,-3.603564,0.999998,0.000174,-0.002530,0.006499,-0.000456,0.006522,-0.002553,-87.118395,0.006573,
890,100,0.231450,-19.600520,0.999998,0.000189,-0.001284,0.007315,0.001289,0.007504,-0.001473,81.655619,0.007952,
1600,1090,-2.958451,-9.408070,0.999996,0.000267,-0.004156,0.010875,0.001019,0.010944,-0.004225,86.137745,0.011038,
910,480,1.099619,-16.341702,0.999996,0.000247,-0.004560,0.009575,-0.000720,0.009612,-0.004596,-87.091468,0.009615,
1460,780,-1.163439,-13.609893,0.999995,0.000286,-0.007602,0.012254,0.001860,0.012427,-0.007774,84.693500,0.012557,
1320,300,-0.160082,-18.313473,0.999998,0.000163,-0.001988,0.007144,0.000127,0.007146,-0.001989,89.203935,0.007376,
850,1060,3.073225,-9.738996,0.999997,0.000213,-0.003904,0.010476,-0.000496,0.010493,-0.003921,-88.025689,0.010604,
1040,1150,1.664100,-7.835752,0.999992,0.000295,-0.006735,0.014197,0.002465,0.014483,-0.007021,83.372420,0.014485,
900,870,2.367588,-11.911778,0.999994,0.000287,-0.006146,0.012202,0.001314,0.012295,-0.006239,85.925017,0.012296,
980,360,0.631810,-17.621370,0.999997,0.000197,-0.003328,0.008370,-0.000344,0.008381,-0.003338,-88.314967,0.008438,
1220,400,0.025382,-17.635661,0.999997,0.000199,-0.002315,0.007075,-0.000162,0.007078,-0.002317,-89.009547,0.007217,
1720,160,-0.788411,-18.979945,0.999996,0.000225,-0.002835,0.009336,-0.002001,0.009657,-0.003156,-80.897764,0.009848,
1030,1740,0.429435,-2.087595,0.999998,0.000232,-0.002683,0.007844,0.000131,0.007845,-0.002685,89.289526,0.007974,
1830,1600,-2.411185,-4.462418,0.999996,0.000276,-0.005048,0.010142,-0.000133,0.010144,-0.005049,-89.499812,0.010144,
780,1250,2.785723,-7.747596,0.999997,0.000237,-0.005667,0.010985,-0.001060,0.011052,-0.005734,-86.371597,0.011055,
1640,310,-1.090860,-17.720212,0.999997,0.000199,-0.003826,0.009360,-0.000325,0.009368,-0.003834,-88.589146,0.009419,
1890,150,-1.453497,-18.512146,0.999995,0.000271,-0.004865,0.010318,-0.001008,0.010385,-0.004932,-86.219013,0.010389,
1840,180,-1.397830,-18.445149,0.999995,0.000276,-0.004858,0.010340,-0.000728,0.010375,-0.004892,-87.264138,0.010380,
1390,2010,-0.025229,-0.157536,0.999998,0.000181,-0.000124,0.006169,0.000431,0.006198,-0.000154,86.104395,0.007070,
870,220,0.658495,-18.621535,0.999997,0.000223,-0.002986,0.008490,0.000799,0.008545,-0.003041,86.035426,0.008663,
1390,780,-0.648258,-14.264873,0.999992,0.000341,-0.006750,0.010102,0.003888,0.010956,-0.007604,77.616340,0.011227,
1060,1680,0.407816,-2.509958,0.999997,0.000218,-0.002932,0.007921,0.000482,0.007942,-0.002953,87.462666,0.008029,
700,1690,1.811161,-3.328847,0.999996,0.000218,-0.004839,0.010087,0.000019,0.010087,-0.004839,89.926226,0.010090,
640,740,3.286202,-12.807175,0.999996,0.000229,-0.005014,0.009947,0.000553,0.009968,-0.005034,87.884253,0.009968,
610,1980,0.653281,-0.658251,0.999995,0.000253,-0.004539,0.011262,-0.002726,0.011719,-0.004996,-80.481668,0.011761,
1320,1260,-0.286791,-5.224283,0.999994,0.000311,-0.004428,0.005681,-0.004207,0.007203,-0.005950,-70.114120,0.007697,
1850,560,-2.822054,-14.562085,0.999997,0.000222,-0.005077,0.010224,0.000007,0.010224,-0.005077,89.973254,0.010224,
1610,1370,-1.884468,-6.183716,0.999997,0.000211,-0.006279,0.011297,-0.000173,0.011299,-0.006281,-89.437320,0.011322,
930,1510,1.105403,-4.379639,0.999995,0.000276,-0.005086,0.009907,0.001107,0.009989,-0.005167,85.800490,0.009991,
1410,1610,-0.489310,-3.090846,0.999997,0.000216,-0.003320,0.008055,-0.000850,0.008118,-0.003383,-85.751145,0.008155,
1020,1370,0.812105,-5.352868,0.999994,0.000298,-0.006022,0.010159,0.002478,0.010530,-0.006393,81.486784,0.010611,
1590,70,-0.161895,-19.808509,0.999997,0.000192,-0.000990,0.007173,-0.001489,0.007436,-0.001253,-79.978652,0.007962,
570,170,1.599436,-18.282421,0.999644,0.002171,-0.005760,0.009522,0.000856,0.009570,-0.005807,86.803385,0.009642,
1540,1620,-0.964182,-3.352126,0.999998,0.000192,-0.004295,0.009297,-0.000637,0.009327,-0.004325,-87.321212,0.009335,
1890,1410,-3.294826,-6.588424,0.999996,0.000232,-0.005038,0.010101,0.000119,0.010101,-0.005039,89.547781,0.010101,
760,580,2.110893,-14.813827,0.999996,0.000242,-0.005485,0.010532,-0.000119,0.010533,-0.005486,-89.573228,0.010536,
640,600,2.809156,-14.235509,0.999997,0.000218,-0.005172,0.010221,0.000122,0.010222,-0.005173,89.546289,0.010222,
1750,890,-3.438237,-11.426248,0.999996,0.000243,-0.004813,0.010093,-0.001042,0.010166,-0.004885,-86.019188,0.010169,
920,990,2.798557,-10.512056,0.999997,0.000242,-0.003826,0.011686,0.000802,0.011728,-0.003868,87.049668,0.011952,
1570,100,-0.227920,-19.602731,0.999997,0.000208,-0.001207,0.007284,-0.001306,0.007480,-0.001403,-81.453177,0.007952,
1320,1560,-0.230922,-3.274620,0.999997,0.000193,-0.002897,0.007261,-0.000893,0.007339,-0.002975,-85.013261,0.007382,
1880,1960,-0.968154,-1.006312,0.999993,0.000300,-0.004547,0.011521,0.002498,0.011900,-0.004927,81.362772,0.011959,
630,220,1.582327,-18.066842,0.999996,0.000258,-0.004814,0.010206,0.000492,0.010222,-0.004830,88.125693,0.010227,
1310,1530,-0.206064,-3.470107,0.999998,0.000180,-0.002887,0.007066,-0.001010,0.007168,-0.002989,-84.262351,0.007201,
930,190,0.426057,-18.938029,0.999997,0.000209,-0.001949,0.007853,0.000850,0.007926,-0.002022,85.080624,0.008237,
1880,1680,-2.418711,-3.825419,0.999997,0.000187,-0.004953,0.009824,-0.000070,0.009824,-0.004953,-89.726888,0.009824,
680,860,3.501439,-11.690742,0.999994,0.000278,-0.004883,0.009878,0.000956,0.009939,-0.004945,86.308544,0.009939,
850,930,2.910577,-11.123238,0.999996,0.000256,-0.004703,0.011053,0.001343,0.011167,-0.004816,85.161495,0.011202,
1180,1570,0.127739,-3.149394,0.999998,0.000171,-0.002527,0.006950,0.000363,0.006963,-0.002541,87.812080,0.007048,
1260,1480,-0.070807,-3.734435,0.999998,0.000157,-0.002489,0.006307,-0.000504,0.006336,-0.002518,-86.728485,0.006381,
1520,1030,-2.761582,-10.049970,0.999996,0.000239,-0.003619,0.011788,0.000060,0.011789,-0.003620,89.775749,0.012078,
1470,1780,-0.460404,-1.821464,0.999997,0.000210,-0.002315,0.007922,0.000247,0.007928,-0.002321,88.615950,0.008152,
1460,1520,-0.746125,-4.008575,0.999997,0.000232,-0.004381,0.008975,-0.001356,0.009111,-0.004518,-84.260125,0.009112,
1320,280,-0.151318,-18.454568,0.999998,0.000165,-0.001841,0.007133,0.000064,0.007133,-0.001842,89.590504,0.007406,
1740,1090,-3.566185,-9.472879,0.999994,0.000268,-0.004408,0.009796,0.000607,0.009822,-0.004434,87.558986,0.009838,
830,100,0.314089,-19.571885,0.999998,0.000185,-0.001144,0.007724,0.001768,0.008063,-0.001484,79.127855,0.008583,
1130,280,0.177214,-18.442861,0.999998,0.000206,-0.001996,0.007175,-0.000101,0.007176,-0.001997,-89.366099,0.007407,
1220,380,0.025632,-17.777794,0.999998,0.000177,-0.002246,0.007072,-0.000152,0.007074,-0.002248,-89.063324,0.007229,
1720,1150,-3.337974,-8.860412,0.999995,0.000239,-0.004767,0.010176,0.001055,0.010250,-0.004841,85.979612,0.010256,
1810,1600,-2.311166,-4.397536,0.999996,0.000223,-0.005045,0.010134,-0.000141,0.010136,-0.005047,-89.468743,0.010136,
790,1740,1.241143,-2.568500,0.999996,0.000218,-0.004394,0.009683,-0.000211,0.009686,-0.004398,-89.140265,0.009700,
1440,1670,-0.533759,-2.667141,0.999997,0.000224,-0.003024,0.008196,-0.000421,0.008211,-0.003040,-87.855517,0.008303,
880,870,2.488444,-11.863229,0.999994,0.000302,-0.005943,0.011900,0.001357,0.012003,-0.006046,85.675816,0.012003,
1320,1240,-0.351284,-5.331879,0.999992,0.000349,-0.004710,0.005499,-0.004063,0.006919,-0.006130,-70.740552,0.007575,
1060,1640,0.444257,-2.829345,0.999996,0.000232,-0.003221,0.007987,0.000765,0.008039,-0.003273,86.113498,0.008085,
1850,1220,-3.740423,-8.338137,0.999996,0.000220,-0.004648,0.009408,0.000549,0.009430,-0.004670,87.765028,0.009430,
960,1290,1.427706,-6.649249,0.999992,0.000347,-0.007387,0.012356,0.000950,0.012402,-0.007433,87.252812,0.012483,
760,50,0.172326,-19.922835,0.999997,0.000230,-0.000564,0.007519,0.002401,0.008178,-0.001223,74.644016,0.008823,
1840,160,-1.272016,-18.657384,0.999997,0.000221,-0.004873,0.010399,-0.000884,0.010450,-0.004924,-86.698317,0.010455,
1310,1230,-0.353222,-5.256562,0.999991,0.000347,-0.004392,0.004645,-0.003404,0.005784,-0.005531,-71.502728,0.006538,
1720,140,-0.683613,-19.163119,0.999996,0.000234,-0.002433,0.009019,-0.002198,0.009426,-0.002841,-79.498674,0.009671,
980,340,0.600465,-17.788260,0.999997,0.000207,-0.003132,0.008332,-0.000223,0.008337,-0.003136,-88.888101,0.008421,
1870,280,-2.031936,-17.311117,0.999996,0.000216,-0.004842,0.009774,-0.000028,0.009774,-0.004842,-89.891817,0.009774,
1890,1400,-3.327648,-6.690208,0.999996,0.000228,-0.005021,0.010110,0.000111,0.010111,-0.005022,89.579889,0.010111,
730,920,3.435715,-11.139734,0.999996,0.000235,-0.004618,0.009905,0.000845,0.009954,-0.004667,86.681299,0.009961,
640,800,3.500278,-12.210433,0.999996,0.000237,-0.004896,0.009829,0.000705,0.009863,-0.004930,87.264089,0.009863,
1750,870,-3.370368,-11.629853,0.999996,0.000243,-0.004925,0.010119,-0.001036,0.010190,-0.004996,-86.080483,0.010191,
760,560,2.052366,-15.025556,0.999996,0.000247,-0.005404,0.010426,-0.000187,0.010429,-0.005406,-89.324056,0.010431,
970,100,0.155064,-19.628352,0.999998,0.000229,-0.000991,0.006908,0.000872,0.007003,-0.001086,83.777518,0.007537,
1500,1030,-2.692231,-10.048994,0.999995,0.000290,-0.003832,0.012545,0.000051,0.012546,-0.003832,89.821171,0.012858,
640,720,3.215333,-13.009782,0.999996,0.000236,-0.005053,0.010086,0.000484,0.010101,-0.005068,88.172405,0.010101,
1560,350,-0.878381,-17.537071,0.999997,0.000219,-0.003725,0.009021,0.000059,0.009022,-0.003725,89.732975,0.009067,
830,1900,0.530100,-1.032817,0.999997,0.000216,-0.001992,0.008385,-0.001571,0.008618,-0.002224,-81.575391,0.008948,
930,150,0.322602,-19.246087,0.999997,0.000199,-0.001518,0.007532,0.001018,0.007645,-0.001631,83.657239,0.008053,
1590,810,-2.242270,-12.567935,0.999994,0.000286,-0.006507,0.012071,-0.000866,0.012112,-0.006547,-87.336249,0.012125,
1090,1880,0.150410,-1.003384,0.999997,0.000216,-0.001075,0.006811,-0.000321,0.006824,-0.001088,-87.669916,0.007332,
1370,1320,-0.447088,-5.281939,0.999995,0.000285,-0.005388,0.008422,-0.003767,0.009383,-0.006349,-75.693696,0.009576,
680,840,3.438938,-11.888988,0.999996,0.000249,-0.004934,0.009845,0.000879,0.009897,-0.004986,86.609509,0.009897,
1580,1090,-2.877217,-9.393215,0.999996,0.000247,-0.004197,0.011124,0.001096,0.011202,-0.004275,85.927042,0.011306,
1640,290,-1.029093,-17.909448,0.999997,0.000183,-0.003632,0.009354,-0.000537,0.009376,-0.003655,-87.637193,0.009452,
810,100,0.337668,-19.563885,0.999996,0.000251,-0.001586,0.007913,0.001874,0.008270,-0.001943,79.233655,0.008648,
690,980,3.724660,-10.532114,0.999996,0.000228,-0.004360,0.009440,0.000273,0.009446,-0.004365,88.867821,0.009455,
1320,1540,-0.234711,-3.418798,0.999997,0.000193,-0.002902,0.007196,-0.001014,0.007297,-0.003003,-84.322268,0.007335,
910,380,0.915087,-17.280263,0.999996,0.000224,-0.003839,0.009041,-0.000217,0.009044,-0.003842,-89.036150,0.009078,
1460,1480,-0.782657,-4.374244,0.999997,0.000239,-0.004829,0.009300,-0.001706,0.009503,-0.005032,-83.213254,0.009508,
720,1950,0.531692,-0.706617,0.999995,0.000272,-0.002889,0.008833,-0.002321,0.009276,-0.003332,-79.196213,0.009398,
630,2010,0.284455,-0.270571,0.999996,0.000249,-0.003774,0.009064,-0.002979,0.009722,-0.004431,-77.554262,0.009734,
1360,2010,-0.022694,-0.156728,0.999998,0.000191,-0.000166,0.006113,0.000292,0.006127,-0.000180,87.347010,0.006973,
800,1020,3.292641,-10.156571,0.999996,0.000222,-0.004026,0.010150,0.000173,0.010152,-0.004028,89.302238,0.010224,
1260,1460,-0.069974,-3.856497,0.999998,0.000166,-0.002460,0.006094,-0.000550,0.006130,-0.002495,-86.336353,0.006165,
1220,360,0.026798,-17.919380,0.999998,0.000179,-0.002175,0.007020,-0.000125,0.007022,-0.002176,-89.224206,0.007189,
1420,1670,-0.471476,-2.626965,0.999996,0.000245,-0.003104,0.008076,-0.000530,0.008102,-0.003129,-87.293449,0.008171,
1020,280,0.405814,-18.331708,0.999997,0.000204,-0.002354,0.007796,0.000114,0.007798,-0.002355,89.355138,0.007999,
780,1630,1.595228,-3.683808,0.999996,0.000218,-0.004845,0.010009,0.000230,0.010013,-0.004849,89.111788,0.010014,
790,1720,1.302076,-2.766787,0.999994,0.000285,-0.004449,0.009771,-0.000095,0.009772,-0.004450,-89.616811,0.009785,
1000,1370,0.934789,-5.479457,0.999995,0.000296,-0.006258,0.010599,0.002190,0.010879,-0.006538,82.717615,0.010953,
1890,1390,-3.360369,-6.792498,0.999995,0.000257,-0.005001,0.010111,0.000098,0.010112,-0.005002,89.627704,0.010112,
1750,850,-3.308187,-11.834348,0.999996,0.000249,-0.005001,0.010095,-0.001000,0.010161,-0.005067,-86.225359,0.010161,
1850,540,-2.763504,-14.767913,0.999996,0.000224,-0.005070,0.010177,0.000031,0.010177,-0.005070,89.882345,0.010177,
1610,1350,-1.948434,-6.412246,0.999995,0.000244,-0.006375,0.011446,-0.000011,0.011446,-0.006375,-89.964603,0.011471,
1220,1570,0.029143,-3.120120,0.999998,0.000183,-0.002544,0.006864,0.000238,0.006870,-0.002550,88.553881,0.006945,
1840,140,-1.139109,-18.863979,0.999997,0.000209,-0.004858,0.010450,-0.001180,0.010541,-0.004949,-85.619382,0.010547,
1310,1210,-0.494673,-5.343319,0.999991,0.000355,-0.004461,0.004030,-0.002045,0.004497,-0.004928,-77.141768,0.005458,
1310,1510,-0.207000,-3.609549,0.999998,0.000174,-0.002911,0.006960,-0.001097,0.007080,-0.003032,-83.737310,0.007105,
930,1710,0.778126,-2.525205,0.999997,0.000212,-0.003203,0.008843,-0.000015,0.008843,-0.003203,-89.930145,0.008955,
650,540,2.574947,-14.884331,0.999994,0.000274,-0.005137,0.010199,-0.000065,0.010199,-0.005137,-89.758868,0.010199,
1320,700,-0.220635,-15.494676,0.999996,0.000220,-0.003468,0.006163,0.002906,0.006972,-0.004277,74.444207,0.007032,
1600,1790,-0.816047,-1.944984,0.999997,0.000215,-0.003430,0.008851,0.000512,0.008872,-0.003452,87.618183,0.008944,
630,990,3.993127,-10.419063,0.999997,0.000212,-0.004255,0.008958,0.000208,0.008961,-0.004258,89.100417,0.008965,
990,100,0.138709,-19.633407,0.999998,0.000204,-0.000684,0.006807,0.000793,0.006890,-0.000767,84.026977,0.007552,
890,1180,2.453220,-8.334306,0.999995,0.000253,-0.006007,0.012078,-0.001352,0.012178,-0.006107,-85.748097,0.012178,
1550,110,-0.238216,-19.536098,0.999997,0.000213,-0.000969,0.007338,-0.001238,0.007518,-0.001150,-81.702581,0.008100,
760,540,2.000027,-15.234233,0.999995,0.000241,-0.005321,0.010381,-0.000229,0.010384,-0.005324,-89.164145,0.010385,
1060,1620,0.459562,-2.991187,0.999997,0.000212,-0.003318,0.007996,0.000860,0.008061,-0.003383,85.677168,0.008095,
980,320,0.568342,-17.954978,0.999997,0.000209,-0.002953,0.008311,-0.000060,0.008312,-0.002954,-89.695528,0.008427,
1720,120,-0.568196,-19.344864,0.999996,0.000235,-0.002044,0.008893,-0.002480,0.009429,-0.002581,-77.802372,0.009746,
1320,1220,-0.453551,-5.441441,0.999989,0.000401,-0.004509,0.005128,-0.003373,0.006192,-0.005572,-72.503237,0.006820,
670,860,3.550059,-11.677138,0.999994,0.000273,-0.004829,0.009820,0.000914,0.009877,-0.004886,86.444104,0.009877,
1510,1940,-0.209996,-0.648115,0.999998,0.000189,-0.001227,0.007159,0.000945,0.007264,-0.001332,83.647834,0.007735,
1560,1090,-2.792500,-9.376733,0.999995,0.000266,-0.004252,0.011417,0.001119,0.011496,-0.004331,85.935248,0.011612,
620,1050,4.047977,-9.878416,0.999997,0.000212,-0.004242,0.008867,-0.000257,0.008872,-0.004247,-88.877576,0.008874,
1030,860,1.371821,-12.824251,0.999990,0.000364,-0.007579,0.013476,-0.001814,0.013632,-0.007734,-85.110665,0.013673,
1460,1460,-0.805975,-4.567701,0.999996,0.000244,-0.005068,0.009482,-0.001818,0.009706,-0.005291,-82.984989,0.009719,
1380,150,-0.128397,-19.326949,0.999998,0.000169,-0.000859,0.006739,-0.000404,0.006761,-0.000881,-86.962454,0.007351,
850,170,0.549255,-19.016202,0.999997,0.000220,-0.002265,0.008274,0.001273,0.008425,-0.002416,83.207434,0.008677,
1530,100,-0.190788,-19.614247,0.999998,0.000195,-0.000913,0.007082,-0.001086,0.007227,-0.001058,-82.402729,0.007806,
1730,140,-0.707245,-19.153982,0.999996,0.000241,-0.002825,0.009151,-0.002134,0.009520,-0.003194,-80.190698,0.009690,
910,420,0.993449,-16.910573,0.999997,0.000200,-0.004249,0.009303,-0.000513,0.009322,-0.004268,-87.833695,0.009333,
1220,340,0.023864,-18.059393,0.999998,0.000176,-0.002104,0.007002,-0.000106,0.007003,-0.002105,-89.330980,0.007187,
680,820,3.372087,-12.085889,0.999997,0.000231,-0.005013,0.010019,0.000900,0.010073,-0.005067,86.587632,0.010073,
930,130,0.276683,-19.391768,0.999997,0.000201,-0.001264,0.007357,0.001031,0.007478,-0.001385,83.270828,0.007957,
600,1250,3.706077,-8.087033,0.999996,0.000257,-0.004659,0.009329,-0.000374,0.009339,-0.004669,-88.470699,0.009339,
1550,960,-2.735763,-10.852770,0.999997,0.000213,-0.004344,0.011644,-0.001186,0.011731,-0.004432,-85.782072,0.011848,
1020,300,0.437703,-18.172017,0.999997,0.000220,-0.002516,0.007807,-0.000013,0.007807,-0.002516,-89.929136,0.007970,
1120,2010,0.019220,-0.155881,0.999998,0.000166,-0.000212,0.006012,-0.000222,0.006020,-0.000220,-87.957805,0.006828,
1670,1580,-1.659843,-4.148917,0.999995,0.000254,-0.005044,0.010121,-0.000357,0.010129,-0.005053,-88.650564,0.010129,
930,1760,0.679307,-2.091632,0.999997,0.000204,-0.002983,0.008488,-0.000220,0.008492,-0.002987,-88.901208,0.008616,
1200,1570,0.078991,-3.135307,0.999998,0.000149,-0.002465,0.006892,0.000346,0.006905,-0.002478,87.882585,0.006996,
780,1610,1.646965,-3.885500,0.999996,0.000215,-0.004957,0.010058,0.000286,0.010063,-0.004963,88.907514,0.010064,
630,2000,0.372975,-0.360746,0.999994,0.000307,-0.003915,0.009558,-0.002903,0.010157,-0.004514,-78.342766,0.010178,
640,700,3.142696,-13.212825,0.999996,0.000229,-0.005088,0.010132,0.000419,0.010144,-0.005100,88.425496,0.010144,
1610,1330,-2.021362,-6.644688,0.999995,0.000266,-0.006451,0.011574,0.000157,0.011576,-0.006453,89.500445,0.011601,
1260,1440,-0.067151,-3.977148,0.999998,0.000170,-0.002412,0.005862,-0.000610,0.005907,-0.002457,-85.809404,0.005934,
1850,520,-2.703747,-14.970419,0.999995,0.000243,-0.005056,0.010125,0.000063,0.010125,-0.005056,89.761923,0.010125,
1770,1340,-2.923193,-6.966156,0.999995,0.000252,-0.005327,0.010310,0.000627,0.010335,-0.005352,87.706969,0.010337,
1750,830,-3.240143,-12.035144,0.999995,0.000262,-0.005129,0.010275,-0.001038,0.010344,-0.005199,-86.162031,0.010344,
1150,100,0.039814,-19.667315,0.999998,0.000168,-0.000486,0.006299,0.000202,0.006305,-0.000492,88.295087,0.007014,
1720,100,-0.452761,-19.520441,0.999996,0.000229,-0.001653,0.008421,-0.002435,0.008979,-0.002210,-77.100706,0.009357,
1260,1950,-0.015491,-0.521387,0.999998,0.000196,-0.000539,0.006280,0.000063,0.006281,-0.000539,89.467902,0.006962,
1540,1090,-2.708458,-9.350127,0.999994,0.000287,-0.004311,0.011830,0.001126,0.011908,-0.004390,86.027827,0.012045,
640,60,0.375504,-19.791120,0.999993,0.000330,-0.003027,0.009661,0.003202,0.010424,-0.003790,76.609060,0.010552,
980,300,0.533968,-18.119752,0.999997,0.000200,-0.002776,0.008067,0.000060,0.008068,-0.002776,89.684535,0.008197,
840,1310,2.179017,-6.917515,0.999994,0.000288,-0.006410,0.011515,-0.000451,0.011526,-0.006422,-88.558752,0.011551,
1730,260,-1.287047,-17.988262,0.999996,0.000231,-0.004185,0.009857,-0.000797,0.009902,-0.004230,-86.760477,0.009937,
1310,830,-0.379059,-14.879796,0.999991,0.000330,-0.004440,0.004491,0.003138,0.005483,-0.005432,72.453147,0.006302,
640,1050,3.962068,-9.873142,0.999996,0.000257,-0.004317,0.009085,-0.000281,0.009091,-0.004323,-88.799807,0.009095,
1880,1410,-3.244073,-6.558434,0.999996,0.000260,-0.005030,0.010094,0.000123,0.010095,-0.005031,89.533124,0.010095,
760,520,1.945167,-15.440846,0.999996,0.000216,-0.005240,0.010350,-0.000237,0.010353,-0.005244,-89.130283,0.010354,
1460,1440,-0.827134,-4.760080,0.999996,0.000239,-0.005244,0.009641,-0.001901,0.009880,-0.005483,-82.835496,0.009900,
1580,1790,-0.746597,-1.906720,0.999997,0.000192,-0.003412,0.008702,0.000431,0.008717,-0.003427,87.963249,0.008783,
930,970,2.697827,-10.759132,0.999995,0.000277,-0.004237,0.011952,0.001074,0.012023,-0.004308,86.220807,0.012182,
1810,460,-2.325053,-15.713166,0.999996,0.000237,-0.005048,0.010155,0.000153,0.010156,-0.005050,89.423955,0.010156,
1310,1490,-0.207573,-3.750686,0.999998,0.000187,-0.002954,0.006872,-0.001222,0.007022,-0.003103,-83.014155,0.007038,
1520,890,-2.211561,-11.796268,0.999994,0.000292,-0.006332,0.012944,-0.001156,0.013013,-0.006401,-86.579339,0.013014,
1310,1950,-0.039559,-0.523065,0.999998,0.000180,-0.000481,0.006319,0.000192,0.006325,-0.000486,88.380650,0.007039,
1680,230,-0.973513,-18.387111,0.999997,0.000222,-0.003817,0.009414,-0.000917,0.009477,-0.003880,-86.053970,0.009529,
780,210,0.906569,-18.563907,0.999998,0.000170,-0.003605,0.009310,0.001146,0.009411,-0.003706,84.968772,0.009482,
930,110,0.218633,-19.541538,0.999998,0.000176,-0.001016,0.007263,0.001131,0.007415,-0.001167,82.356736,0.007974,
910,400,0.955323,-17.096379,0.999997,0.000201,-0.004064,0.009176,-0.000405,0.009188,-0.004076,-88.248553,0.009208,
710,1180,3.403105,-8.583577,0.999997,0.000237,-0.004896,0.010093,-0.001063,0.010168,-0.004971,-85.962286,0.010169,
750,860,3.155267,-11.775081,0.999995,0.000259,-0.005084,0.010421,0.001149,0.010506,-0.005169,85.785377,0.010506,
1220,320,0.022372,-18.200136,0.999998,0.000158,-0.001998,0.007030,-0.000094,0.007031,-0.001999,-89.404071,0.007246,
1840,120,-0.986669,-19.075406,0.999996,0.000215,-0.004764,0.010631,-0.001482,0.010773,-0.004906,-84.550042,0.010787,
680,800,3.300077,-12.289459,0.999996,0.000255,-0.005083,0.010138,0.000890,0.010190,-0.005135,86.663609,0.010190,
990,220,0.369814,-18.763177,0.999998,0.000175,-0.001889,0.007597,0.000467,0.007620,-0.001912,87.189241,0.007929,
610,980,4.068246,-10.500040,0.999996,0.000216,-0.004203,0.008692,0.000126,0.008694,-0.004204,89.438344,0.008695,
1490,1660,-0.711634,-2.861177,0.999996,0.000240,-0.003713,0.008655,-0.000539,0.008678,-0.003736,-87.508177,0.008706,
1120,2000,0.022349,-0.215189,0.999998,0.000187,-0.000272,0.006082,-0.000258,0.006092,-0.000282,-87.674195,0.006878,
580,480,2.751590,-15.275428,0.999995,0.000287,-0.005385,0.010065,-0.000162,0.010067,-0.005387,-89.398076,0.010075,
1380,1370,-0.468163,-4.937115,0.999995,0.000278,-0.004881,0.008361,-0.003028,0.009021,-0.005540,-77.712938,0.009099,
970,1760,0.556305,-2.017791,0.999997,0.000216,-0.002964,0.008157,-0.000069,0.008158,-0.002965,-89.644247,0.008258,
760,1630,1.693242,-3.747858,0.999995,0.000260,-0.004916,0.010084,0.000220,0.010087,-0.004919,89.161562,0.010088,
630,1290,3.424066,-7.623995,0.999996,0.000249,-0.004933,0.009874,-0.000564,0.009895,-0.004954,-87.821569,0.009895,
1410,1060,-2.101431,-9.250580,0.999966,0.000688,-0.009275,0.024437,-0.003896,0.024881,-0.009720,-83.493590,0.025079,
1750,810,-3.165813,-12.244810,0.999995,0.000268,-0.005217,0.010357,-0.001012,0.010423,-0.005282,-86.297400,0.010423,
1060,1600,0.473557,-3.153079,0.999997,0.000208,-0.003402,0.008027,0.000942,0.008104,-0.003479,85.319387,0.008131,
630,1970,0.653667,-0.676436,0.999995,0.000273,-0.004266,0.010673,-0.002628,0.011122,-0.004715,-80.308640,0.011164,
1320,840,-0.484843,-14.696443,0.999989,0.000386,-0.004418,0.004909,0.003100,0.005845,-0.005354,73.194688,0.006485,
1100,1950,0.071086,-0.533680,0.999998,0.000175,-0.000548,0.006436,-0.000369,0.006456,-0.000567,-86.987319,0.007150,
1310,1390,-0.190092,-4.399877,0.999997,0.000230,-0.003002,0.006169,-0.002096,0.006625,-0.003458,-77.718949,0.006627,
1390,100,-0.081279,-19.654702,0.999998,0.000164,-0.000573,0.006462,-0.000459,0.006491,-0.000603,-86.279256,0.007173,
870,1120,2.834847,-9.072533,0.999996,0.000257,-0.004673,0.011233,-0.001394,0.011354,-0.004795,-85.028345,0.011400,
820,1250,2.552063,-7.665699,0.999995,0.000281,-0.006037,0.011451,-0.001065,0.011516,-0.006102,-86.529057,0.011522,
1260,1420,-0.064933,-4.090882,0.999998,0.000183,-0.002371,0.005574,-0.000673,0.005630,-0.002428,-85.192295,0.005648,
760,720,2.570107,-13.304250,0.999995,0.000288,-0.005737,0.010896,0.000599,0.010918,-0.005759,87.939608,0.010923,
1610,1310,-2.095626,-6.878643,0.999995,0.000275,-0.006475,0.011613,0.000335,0.011619,-0.006481,88.940837,0.011645,
1560,1030,-2.905387,-10.052042,0.999996,0.000258,-0.003540,0.011049,0.000075,0.011049,-0.003540,89.705192,0.011284,
1460,1420,-0.847604,-4.954070,0.999996,0.000248,-0.005474,0.009719,-0.001994,0.009976,-0.005731,-82.645043,0.010013,
1310,1670,-0.176181,-2.452279,0.999997,0.000189,-0.002399,0.007230,-0.000310,0.007240,-0.002409,-88.157279,0.007373,
980,280,0.498950,-18.279921,0.999997,0.000208,-0.002585,0.008053,0.000203,0.008057,-0.002588,88.907926,0.008227,
1710,1290,-2.781148,-7.360770,0.999996,0.000266,-0.005655,0.010832,0.000885,0.010879,-0.005703,86.935418,0.010883,
1870,1410,-3.193486,-6.526904,0.999995,0.000276,-0.005008,0.010089,0.000134,0.010090,-0.005009,89.492816,0.010090,
1520,810,-1.754689,-12.845772,0.999995,0.000245,-0.007404,0.012818,-0.000002,0.012818,-0.007404,-89.993925,0.012869,
1550,130,-0.295969,-19.383379,0.999997,0.000202,-0.001230,0.007502,-0.001153,0.007652,-0.001380,-82.603508,0.008157,
1020,320,0.462322,-18.014908,0.999996,0.000221,-0.002657,0.007976,-0.000079,0.007976,-0.002658,-89.575088,0.008123,
1510,100,-0.171710,-19.622426,0.999997,0.000223,-0.001037,0.007003,-0.000949,0.007113,-0.001148,-83.359260,0.007638,
1710,580,-2.149315,-14.791255,0.999995,0.000261,-0.005478,0.010518,0.000092,0.010518,-0.005478,89.671794,0.010521,
880,1370,1.711704,-6.081096,0.999996,0.000232,-0.006439,0.011358,0.000433,0.011369,-0.006450,88.605709,0.011403,
930,90,0.173777,-19.682825,0.999998,0.000173,-0.000752,0.006952,0.001115,0.007110,-0.000910,81.925537,0.007738,
1230,280,0.002218,-18.482429,0.999998,0.000162,-0.001761,0.006965,-0.000019,0.006965,-0.001761,-89.877386,0.007243,
900,1310,1.781606,-6.705702,0.999996,0.000272,-0.006895,0.011992,0.000168,0.011994,-0.006896,89.490989,0.012039,
1220,300,0.020854,-18.339533,0.999998,0.000160,-0.001891,0.006962,-0.000090,0.006963,-0.001891,-89.414932,0.007201,
1520,150,-0.304173,-19.253819,0.999998,0.000186,-0.001603,0.007471,-0.000903,0.007560,-0.001692,-84.369378,0.007936,
1710,260,-1.209821,-18.030578,0.999995,0.000266,-0.003972,0.009701,-0.000855,0.009754,-0.004026,-86.433913,0.009804,
690,1180,3.500513,-8.607159,0.999996,0.000224,-0.004835,0.009958,-0.000984,0.010023,-0.004900,-86.210236,0.010024,
1880,280,-2.080978,-17.270535,0.999996,0.000227,-0.004849,0.009705,-0.000003,0.009705,-0.004849,-89.989684,0.009705,
1550,370,-0.882674,-17.378283,0.999996,0.000227,-0.003640,0.008968,0.000120,0.008969,-0.003642,89.455755,0.009022,
1070,220,0.224517,-18.832426,0.999998,0.000158,-0.001567,0.007121,0.000259,0.007129,-0.001575,88.293960,0.007490,
1890,710,-3.512919,-12.916322,0.999996,0.000266,-0.004910,0.009742,-0.000147,0.009744,-0.004912,-89.427009,0.009744,
640,1610,2.347989,-4.339105,0.999996,0.000228,-0.005060,0.010126,0.000133,0.010127,-0.005061,89.498393,0.010127,
680,780,3.226576,-12.494795,0.999996,0.000238,-0.005130,0.010154,0.000839,0.010200,-0.005176,86.866294,0.010201,
1860,830,-3.770398,-11.846559,0.999996,0.000225,-0.004616,0.009314,-0.000453,0.009328,-0.004631,-88.137734,0.009328,
990,2010,0.042623,-0.162242,0.999998,0.000134,-0.000182,0.006333,-0.000777,0.006425,-0.000273,-83.289448,0.007266,
630,1270,3.493691,-7.822743,0.999996,0.000259,-0.004902,0.009840,-0.000610,0.009866,-0.004927,-87.634294,0.009866,
950,1760,0.619005,-2.054460,0.999997,0.000227,-0.003044,0.008310,-0.000108,0.008311,-0.003045,-89.455619,0.008410,
880,1630,1.131748,-3.382526,0.999997,0.000240,-0.004319,0.009479,0.000430,0.009493,-0.004332,88.217728,0.009505,
1750,790,-3.093301,-12.454883,0.999997,0.000233,-0.005260,0.010378,-0.000942,0.010434,-0.005317,-86.566296,0.010435,
1490,1540,-0.860911,-3.934631,0.999997,0.000218,-0.004512,0.009248,-0.001186,0.009350,-0.004614,-85.108467,0.009350,
730,220,1.127769,-18.378782,0.999997,0.000207,-0.003944,0.009787,0.001147,0.009882,-0.004040,85.258301,0.009937,
930,950,2.619287,-10.999680,0.999995,0.000264,-0.004674,0.012111,0.001316,0.012214,-0.004776,85.543116,0.012310,
870,1920,0.380003,-0.839691,0.999997,0.000228,-0.001931,0.007786,-0.001302,0.007958,-0.002103,-82.496952,0.008247,
1520,1090,-2.625232,-9.320492,0.999994,0.000266,-0.004444,0.012347,0.001084,0.012417,-0.004514,86.321698,0.012570,
630,1430,2.941356,-6.208304,0.999996,0.000257,-0.005081,0.010207,-0.000141,0.010208,-0.005082,-89.473222,0.010208,
1430,1030,-2.333841,-10.033467,0.999980,0.000553,-0.008384,0.020337,-0.000154,0.020338,-0.008385,-89.692938,0.020442,
1310,1470,-0.204392,-3.887874,0.999998,0.000199,-0.002965,0.006722,-0.001338,0.006904,-0.003146,-82.280762,0.006913,
1440,1540,-0.647089,-3.760980,0.999995,0.000273,-0.004161,0.008705,-0.001389,0.008853,-0.004309,-83.907024,0.008854,
1540,1030,-2.834773,-10.053164,0.999996,0.000235,-0.003573,0.011317,0.000072,0.011318,-0.003574,89.724502,0.011571,
1840,1770,-1.906742,-2.780231,0.999997,0.000211,-0.004839,0.009981,0.000093,0.009981,-0.004839,89.642125,0.009983,
1010,860,1.530379,-12.633000,0.999990,0.000367,-0.007817,0.013779,-0.001025,0.013828,-0.007865,-87.289800,0.013871,
1540,960,-2.695814,-10.868627,0.999996,0.000245,-0.004416,0.011845,-0.001213,0.011935,-0.004506,-85.758728,0.012054,
1460,1400,-0.869758,-5.149142,0.999995,0.000284,-0.005766,0.010067,-0.002142,0.010352,-0.006051,-82.431119,0.010401,
1310,1930,-0.049828,-0.652183,0.999998,0.000156,-0.000650,0.006408,0.000198,0.006414,-0.000656,88.390906,0.007058,
1110,1440,0.344637,-4.243387,0.999997,0.000212,-0.003689,0.007443,0.002107,0.007828,-0.004075,79.633562,0.007830,
800,1250,2.670442,-7.706293,0.999996,0.000264,-0.005847,0.011227,-0.001079,0.011295,-0.005914,-86.398117,0.011299,
1210,280,0.038848,-18.475451,0.999997,0.000196,-0.001745,0.006990,-0.000063,0.006990,-0.001745,-89.589734,0.007277,
760,500,1.890684,-15.648745,0.999997,0.000213,-0.005177,0.010266,-0.000275,0.010271,-0.005182,-88.979286,0.010271,
1490,100,-0.150988,-19.629553,0.999997,0.000200,-0.000948,0.006900,-0.000845,0.006990,-0.001038,-83.925062,0.007544,
1720,80,-0.345101,-19.681495,0.999997,0.000210,-0.001309,0.008066,-0.002510,0.008695,-0.001939,-75.917795,0.009129,
980,260,0.461426,-18.442097,0.999996,0.000237,-0.002438,0.007958,0.000291,0.007966,-0.002446,88.395380,0.008161,
1220,280,0.020427,-18.479744,0.999998,0.000169,-0.001763,0.006975,-0.000059,0.006975,-0.001763,-89.609940,0.007254,
930,70,0.119004,-19.822820,0.999998,0.000183,-0.000538,0.006845,0.001144,0.007019,-0.000711,81.389150,0.007727,
570,480,2.806006,-15.240702,0.999971,0.000686,-0.005540,0.010020,-0.000230,0.010024,-0.005544,-89.154723,0.010043,
1020,340,0.491208,-17.853686,0.999996,0.000218,-0.002799,0.007972,-0.000232,0.007977,-0.002804,-88.768681,0.008094,
1760,1150,-3.525172,-8.892842,0.999996,0.000244,-0.004697,0.009761,0.000827,0.009808,-0.004744,86.738084,0.009810,
1550,350,-0.840924,-17.558973,0.999997,0.000206,-0.003440,0.008960,-0.000016,0.008960,-0.003440,-89.926612,0.009040,
1120,150,0.095104,-19.336027,0.999998,0.000151,-0.001007,0.006647,0.000247,0.006655,-0.001015,88.154788,0.007171,
1840,830,-3.678595,-11.887566,0.999996,0.000238,-0.004692,0.009410,-0.000592,0.009435,-0.004717,-87.599497,0.009435,
730,860,3.254718,-11.752098,0.999997,0.000228,-0.005030,0.010227,0.001068,0.010301,-0.005105,86.013996,0.010301,
1650,580,-1.818509,-14.986959,0.999995,0.000251,-0.005574,0.010545,0.000332,0.010552,-0.005581,88.819868,0.010558,
680,760,3.154563,-12.698344,0.999995,0.000258,-0.005174,0.010186,0.000745,0.010222,-0.005210,87.229024,0.010223,
1610,1730,-1.014291,-2.511840,0.999997,0.000200,-0.003790,0.009367,0.000165,0.009369,-0.003792,89.280190,0.009426,
1200,2010,0.006828,-0.152866,0.999998,0.000151,-0.000200,0.006000,-0.000039,0.006001,-0.000201,-89.637929,0.006816,
570,1750,2.237779,-3.180629,0.999945,0.000914,-0.004410,0.009819,0.000097,0.009819,-0.004411,89.609443,0.009836,
630,1250,3.566147,-8.019837,0.999995,0.000264,-0.004811,0.009621,-0.000622,0.009647,-0.004838,-87.535800,0.009647,
860,1370,1.840269,-6.158174,0.999995,0.000294,-0.006336,0.011322,0.000232,0.011325,-0.006339,89.248806,0.011352,
1750,770,-3.017790,-12.662601,0.999997,0.000224,-0.005335,0.010477,-0.000846,0.010522,-0.005381,-86.947202,0.010523,
1810,1580,-2.369902,-4.601674,0.999996,0.000231,-0.005058,0.010183,-0.000136,0.010184,-0.005059,-89.490627,0.010184,
1060,1690,0.399198,-2.429973,0.999996,0.000229,-0.002837,0.007908,0.000428,0.007925,-0.002854,87.721586,0.008028,
1510,1540,-0.954351,-4.010057,0.999997,0.000232,-0.004699,0.009462,-0.001093,0.009546,-0.004782,-85.610365,0.009546,
1320,820,-0.384159,-14.802397,0.999994,0.000293,-0.004732,0.005385,0.003951,0.006745,-0.006092,71.004565,0.007440,
1420,1030,-2.234423,-10.028469,0.999987,0.000420,-0.009653,0.022873,-0.000226,0.022875,-0.009654,-89.601657,0.022967,
1610,100,-0.283086,-19.583391,0.999997,0.000212,-0.001277,0.007546,-0.001533,0.007804,-0.001536,-80.417332,0.008269,
1720,1910,-0.709392,-1.041687,0.999997,0.000183,-0.002522,0.009093,0.002139,0.009475,-0.002903,79.892220,0.009709,
760,460,1.787845,-16.056777,0.999996,0.000236,-0.005028,0.010095,-0.000278,0.010100,-0.005033,-88.947731,0.010100,
1310,1650,-0.181004,-2.596972,0.999997,0.000204,-0.002494,0.007272,-0.000398,0.007288,-0.002510,-87.672406,0.007405,
710,290,1.511280,-17.621531,0.999996,0.000252,-0.004771,0.010046,0.000325,0.010053,-0.004778,88.745539,0.010058,
1160,1880,0.072458,-0.977022,0.999998,0.000160,-0.000940,0.006575,-0.000150,0.006578,-0.000943,-88.856454,0.007113,
1500,1090,-2.535225,-9.272489,0.999992,0.000297,-0.004640,0.012957,0.000970,0.013010,-0.004693,86.853424,0.013178,
730,240,1.217205,-18.181040,0.999997,0.000186,-0.004110,0.009914,0.000918,0.009974,-0.004170,86.272546,0.010018,
630,1410,3.007328,-6.414917,0.999997,0.000211,-0.005098,0.010189,-0.000203,0.010192,-0.005101,-89.239331,0.010192,
690,160,0.988006,-18.862295,0.999996,0.000225,-0.004073,0.009987,0.001753,0.010202,-0.004288,83.000127,0.010245,
1110,280,0.215976,-18.426187,0.999997,0.000197,-0.001912,0.007262,-0.000012,0.007262,-0.001912,-89.925281,0.007528,
920,1980,0.138649,-0.374990,0.999998,0.000179,-0.000556,0.006948,-0.001221,0.007142,-0.000750,-80.989016,0.007849,
930,930,2.519102,-11.244710,0.999995,0.000288,-0.005244,0.012337,0.001418,0.012450,-0.005357,85.419493,0.012491,
900,1290,1.861982,-6.949122,0.999994,0.000257,-0.006954,0.012103,-0.000049,0.012103,-0.006954,-89.852364,0.012148,
1060,1580,0.486193,-3.312596,0.999996,0.000235,-0.003452,0.008112,0.001051,0.008206,-0.003547,84.849680,0.008231,
940,230,0.503497,-18.629946,0.999997,0.000214,-0.002440,0.008068,0.000556,0.008097,-0.002470,86.978370,0.008300,
1090,1440,0.418960,-4.327422,0.999997,0.000204,-0.003944,0.007929,0.002159,0.008309,-0.004324,80.005275,0.008312,
1220,260,0.018395,-18.619292,0.999998,0.000158,-0.001655,0.006895,-0.000056,0.006896,-0.001656,-89.624856,0.007200,
890,1060,2.922653,-9.723355,0.999997,0.000230,-0.003789,0.010985,-0.000605,0.011010,-0.003813,-87.660109,0.011182,
1890,280,-2.128984,-17.229225,0.999996,0.000242,-0.004847,0.009637,-0.000001,0.009637,-0.004847,-89.996023,0.009637,
1780,1790,-1.539537,-2.373887,0.999998,0.000209,-0.004730,0.010085,0.000527,0.010104,-0.004748,87.963697,0.010110,
1130,660,0.270803,-15.685394,0.999997,0.000209,-0.003542,0.006813,-0.002526,0.007396,-0.004126,-76.998144,0.007413,
1320,1520,-0.233325,-3.564334,0.999998,0.000189,-0.002915,0.007097,-0.001072,0.007210,-0.003029,-83.959226,0.007241,
610,1180,3.876691,-8.723591,0.999996,0.000237,-0.004456,0.009137,-0.000445,0.009152,-0.004471,-88.126878,0.009153,
1830,920,-3.877307,-11.059232,0.999996,0.000266,-0.004463,0.009209,-0.000553,0.009231,-0.004485,-87.686126,0.009232,
1070,1880,0.171264,-1.010570,0.999998,0.000174,-0.001156,0.006875,-0.000370,0.006892,-0.001173,-87.368431,0.007375,
1550,150,-0.347916,-19.235883,0.999997,0.000190,-0.001437,0.007647,-0.001092,0.007776,-0.001567,-83.241954,0.008225,
1890,1470,-3.101925,-5.977240,0.999997,0.000200,-0.004977,0.010161,0.000024,0.010161,-0.004977,89.907664,0.010162,
1100,150,0.112738,-19.329814,0.999997,0.000167,-0.000895,0.006719,0.000342,0.006734,-0.000911,87.432615,0.007307,
1460,1380,-0.901737,-5.357075,0.999996,0.000241,-0.006089,0.010398,-0.002211,0.010690,-0.006380,-82.493982,0.010756,
1550,330,-0.803181,-17.736946,0.999997,0.000207,-0.003333,0.008875,-0.000064,0.008875,-0.003333,-89.697798,0.008966,
1260,1780,-0.047844,-1.648954,0.999998,0.000162,-0.001686,0.006937,-0.000053,0.006937,-0.001687,-89.650840,0.007236,
1540,940,-2.599485,-11.110743,0.999995,0.000260,-0.004878,0.012081,-0.001416,0.012198,-0.004995,-85.259460,0.012265,
1710,1990,-0.247617,-0.350362,0.999997,0.000211,-0.000871,0.007798,0.002452,0.008443,-0.001516,75.251331,0.009003,
720,1970,0.413145,-0.537552,0.999996,0.000226,-0.002413,0.008352,-0.002432,0.008875,-0.002937,-77.842913,0.009043,
1320,800,-0.297642,-14.905604,0.999993,0.000314,-0.004474,0.005648,0.004118,0.007112,-0.005938,70.432061,0.007625,
1020,780,1.030978,-13.754803,0.999993,0.000296,-0.007558,0.011980,-0.002426,0.012277,-0.007855,-83.025718,0.012436,
990,900,1.967313,-11.906865,0.999994,0.000303,-0.006872,0.014011,0.000274,0.014015,-0.006875,89.248012,0.014016,
570,1700,2.414359,-3.670470,0.999833,0.001548,-0.005689,0.009974,-0.000612,0.009998,-0.005713,-87.765281,0.010031,
1750,750,-2.943653,-12.872754,0.999997,0.000227,-0.005405,0.010483,-0.000761,0.010520,-0.005442,-87.263781,0.010522,
1310,1890,-0.071618,-0.911716,0.999998,0.000164,-0.000914,0.006587,0.000158,0.006591,-0.000917,88.797297,0.007140,
1070,2010,0.024831,-0.157249,0.999998,0.000190,-0.000158,0.006133,-0.000423,0.006162,-0.000186,-86.175142,0.007010,
760,1250,2.897571,-7.783047,0.999995,0.000279,-0.005505,0.010740,-0.001055,0.010809,-0.005573,-86.300499,0.010810,
1810,1340,-3.132489,-7.065901,0.999997,0.000205,-0.005109,0.010137,0.000510,0.010154,-0.005126,88.087101,0.010154,
1590,770,-2.063343,-13.050580,0.999996,0.000230,-0.006659,0.011883,-0.000433,0.011893,-0.006669,-88.661720,0.011922,
1610,1750,-0.965218,-2.327113,0.999997,0.000191,-0.003697,0.009090,0.000261,0.009095,-0.003703,88.829821,0.009147,
850,910,2.830986,-11.347643,0.999996,0.000238,-0.005021,0.011163,0.001423,0.011287,-0.005145,85.012842,0.011302,
860,1550,1.391054,-4.231816,0.999995,0.000301,-0.005024,0.010022,0.000607,0.010047,-0.005049,87.692145,0.010047,
980,240,0.422581,-18.599208,0.999997,0.000212,-0.002236,0.007852,0.000383,0.007867,-0.002250,87.829540,0.008103,
1310,1450,-0.203472,-4.019742,0.999998,0.000195,-0.002960,0.006594,-0.001469,0.006815,-0.003181,-81.451322,0.006820,
1780,940,-3.693539,-10.912276,0.999997,0.000207,-0.004546,0.009632,-0.000763,0.009673,-0.004587,-86.926685,0.009678,
1310,1690,-0.168532,-2.308484,0.999998,0.000176,-0.002270,0.007249,-0.000208,0.007254,-0.002275,-88.749199,0.007420,
630,1230,3.629477,-8.209847,0.999995,0.000272,-0.004732,0.009501,-0.000641,0.009530,-0.004761,-87.426249,0.009530,
710,860,3.354194,-11.728022,0.999996,0.000251,-0.004939,0.010070,0.001014,0.010139,-0.005007,86.151972,0.010139,
1720,1090,-3.477933,-9.464624,0.999995,0.000272,-0.004404,0.009971,0.000667,0.010002,-0.004435,87.348266,0.010024,
1660,70,-0.217719,-19.791366,0.999996,0.000244,-0.001159,0.007564,-0.001967,0.007988,-0.001582,-77.861798,0.008459,
1500,1800,-0.500638,-1.704131,0.999997,0.000229,-0.002674,0.007995,0.000284,0.008003,-0.002682,88.478905,0.008147,
1170,100,0.029913,-19.668601,0.999998,0.000193,-0.000420,0.006253,0.000162,0.006257,-0.000423,88.611485,0.006994,
1060,1560,0.494712,-3.478412,0.999996,0.000224,-0.003497,0.008123,0.001137,0.008234,-0.003607,84.461981,0.008254,
710,490,2.120820,-15.589708,0.999998,0.000196,-0.005112,0.010237,-0.000206,0.010240,-0.005114,-89.232118,0.010240,
1160,1860,0.079375,-1.108573,0.999998,0.000192,-0.001079,0.006717,-0.000155,0.006720,-0.001082,-88.860631,0.007217,
1130,340,0.211354,-18.007858,0.999998,0.000179,-0.002357,0.007241,-0.000319,0.007252,-0.002368,-88.099739,0.007396,
760,440,1.734955,-16.259575,0.999996,0.000242,-0.005004,0.010115,-0.000255,0.010119,-0.005009,-89.033545,0.010119,
630,1390,3.074834,-6.618037,0.999996,0.000216,-0.005095,0.010147,-0.000292,0.010152,-0.005101,-88.902695,0.010153,
1510,1280,-1.519440,-6.813966,0.999992,0.000292,-0.007429,0.012476,-0.000681,0.012499,-0.007452,-88.042715,0.012576,
1090,280,0.252361,-18.410112,0.999997,0.000217,-0.001875,0.007359,0.000070,0.007360,-0.001876,89.562707,0.007649,
1730,1620,-1.854250,-3.934593,0.999997,0.000210,-0.004960,0.010120,-0.000181,0.010122,-0.004962,-89.311631,0.010123,
920,1960,0.192489,-0.514288,0.999997,0.000205,-0.000770,0.007053,-0.001163,0.007222,-0.000939,-81.720010,0.007854,
1500,230,-0.447269,-18.658833,0.999997,0.000196,-0.002483,0.007892,-0.000436,0.007910,-0.002501,-87.599564,0.008086,
1600,1910,-0.426774,-0.923917,0.999997,0.000230,-0.002035,0.007927,0.001324,0.008100,-0.002208,82.558757,0.008375,
680,740,3.083372,-12.902177,0.999995,0.000246,-0.005203,0.010277,0.000674,0.010306,-0.005232,87.510196,0.010306,
870,1060,2.996907,-9.732179,0.999997,0.000205,-0.003859,0.010679,-0.000538,0.010699,-0.003879,-87.885386,0.010833,
1130,1440,0.271816,-4.158139,0.999996,0.000241,-0.003350,0.006986,0.001890,0.007320,-0.003685,79.956970,0.007321,
1220,240,0.017333,-18.757180,0.999998,0.000174,-0.001504,0.006804,-0.000030,0.006804,-0.001504,-89.789990,0.007149,
1320,1500,-0.235752,-3.703802,0.999997,0.000206,-0.002948,0.007025,-0.001164,0.007159,-0.003082,-83.430339,0.007182,
600,350,2.249864,-16.644039,0.999996,0.000214,-0.004887,0.009913,-0.000131,0.009915,-0.004888,-89.492829,0.009915,
930,390,0.860203,-17.239516,0.999998,0.000173,-0.003660,0.008890,-0.000310,0.008898,-0.003668,-88.585914,0.008943,
1130,640,0.271363,-15.826316,0.999995,0.000241,-0.003490,0.006877,-0.002246,0.007342,-0.003956,-78.285242,0.007350,
1450,920,-1.964247,-11.795151,0.999990,0.000357,-0.006540,0.014532,0.000528,0.014545,-0.006553,88.565026,0.014569,
1630,580,-1.706454,-15.056096,0.999995,0.000255,-0.005627,0.010557,0.000451,0.010569,-0.005640,88.405637,0.010577,
1050,1760,0.353450,-1.904945,0.999996,0.000222,-0.002472,0.007595,0.000114,0.007597,-0.002473,89.353020,0.007749,
680,1510,2.433189,-5.232928,0.999996,0.000242,-0.005229,0.010254,0.000063,0.010254,-0.005230,89.766903,0.010255,
1610,120,-0.360472,-19.423192,0.999997,0.000204,-0.001580,0.007858,-0.001540,0.008103,-0.001825,-80.962872,0.008501,
1000,1570,0.715417,-3.577023,0.999997,0.000172,-0.004076,0.008812,0.001081,0.008903,-0.004166,85.238604,0.008909,
1320,780,-0.257350,-15.024185,0.999995,0.000263,-0.004239,0.005753,0.004080,0.007207,-0.005693,70.383365,0.007600,
1710,1970,-0.362350,-0.513701,0.999997,0.000208,-0.001259,0.008028,0.002386,0.008606,-0.001837,76.402002,0.009064,
1020,760,0.965739,-13.988947,0.999995,0.000250,-0.007273,0.011532,-0.002524,0.011865,-0.007606,-82.486020,0.012021,
1550,310,-0.762695,-17.912596,0.999997,0.000220,-0.003135,0.008666,-0.000179,0.008668,-0.003137,-89.132537,0.008778,
1170,1880,0.063321,-0.975836,0.999998,0.000144,-0.000911,0.006553,-0.000127,0.006556,-0.000913,-89.023812,0.007102,
1260,1760,-0.053983,-1.791296,0.999998,0.000167,-0.001794,0.006985,-0.000092,0.006986,-0.001795,-89.398680,0.007255,
1790,1340,-3.027756,-7.013662,0.999996,0.000216,-0.005233,0.010215,0.000570,0.010236,-0.005254,87.889969,0.010238,
1460,1360,-0.932065,-5.567596,0.999995,0.000263,-0.006362,0.010714,-0.002240,0.011003,-0.006651,-82.648876,0.011082,
850,870,2.660534,-11.802840,0.999995,0.000252,-0.005611,0.011514,0.001388,0.011625,-0.005723,85.396324,0.011626,
1810,380,-2.087437,-16.524888,0.999997,0.000211,-0.004980,0.010107,0.000087,0.010108,-0.004980,89.670531,0.010108,
1550,170,-0.408747,-19.076575,0.999997,0.000223,-0.001724,0.007748,-0.001018,0.007856,-0.001832,-83.934729,0.008221,
1840,1750,-1.982230,-2.982938,0.999997,0.000220,-0.004857,0.010041,0.000024,0.010041,-0.004857,89.908061,0.010042,
830,1460,1.762312,-5.275206,0.999995,0.000250,-0.005699,0.010661,0.000426,0.010672,-0.005710,88.508202,0.010680,
1490,2010,-0.046293,-0.163974,0.999998,0.000171,-0.000350,0.006463,0.000805,0.006557,-0.000444,83.348136,0.007329,
720,1860,1.047808,-1.558263,0.999996,0.000215,-0.004068,0.009837,-0.001245,0.009948,-0.004179,-84.921975,0.009990,
1700,1090,-3.390263,-9.456642,0.999996,0.000255,-0.004394,0.010116,0.000755,0.010155,-0.004433,87.028376,0.010183,
1540,920,-2.504135,-11.352626,0.999994,0.000293,-0.005397,0.012313,-0.001436,0.012429,-0.005513,-85.395208,0.012455,
870,860,2.499277,-11.960656,0.999994,0.000287,-0.005978,0.011795,0.001315,0.011892,-0.006075,85.791281,0.011893,
760,420,1.679431,-16.464671,0.999997,0.000215,-0.004934,0.010084,-0.000200,0.010086,-0.004936,-89.237362,0.010087,
1610,1770,-0.911778,-2.147394,0.999997,0.000193,-0.003562,0.009098,0.000464,0.009115,-0.003579,87.905371,0.009184,
1660,50,-0.131295,-19.940557,0.999997,0.000213,-0.000843,0.007196,-0.001912,0.007627,-0.001274,-77.278479,0.008172,
1320,180,-0.090473,-19.146442,0.999998,0.000177,-0.001169,0.006644,-0.000132,0.006646,-0.001171,-89.035571,0.007095,
630,1370,3.144933,-6.821572,0.999996,0.000234,-0.005075,0.010084,-0.000347,0.010092,-0.005083,-88.688165,0.010092,
780,190,0.818929,-18.754762,0.999997,0.000185,-0.003396,0.009201,0.001353,0.009344,-0.003539,83.938648,0.009435,
630,1210,3.692542,-8.400920,0.999994,0.000290,-0.004708,0.009551,-0.000716,0.009586,-0.004744,-87.134069,0.009587,
1360,90,-0.058676,-19.723395,0.999998,0.000168,-0.000423,0.006343,-0.000336,0.006359,-0.000440,-87.164283,0.007103,
1160,1840,0.092676,-1.245158,0.999998,0.000180,-0.001250,0.006817,-0.000111,0.006819,-0.001252,-89.209739,0.007259,
1080,230,0.221410,-18.766993,0.999998,0.000205,-0.001505,0.007133,0.000225,0.007139,-0.001511,88.511327,0.007524,
1390,1280,-0.637290,-5.844853,0.999995,0.000259,-0.006634,0.010004,-0.003819,0.010839,-0.007468,-77.670198,0.011094,
920,1940,0.243584,-0.660002,0.999997,0.000200,-0.001018,0.007340,-0.001197,0.007508,-0.001186,-82.005925,0.008072,
1500,1780,-0.540112,-1.864646,0.999996,0.000225,-0.002869,0.008174,0.000185,0.008177,-0.002872,89.038025,0.008297,
1630,760,-2.283766,-13.047203,0.999994,0.000327,-0.006349,0.011512,-0.000617,0.011533,-0.006370,-88.023082,0.011554,
770,700,2.439472,-13.549558,0.999995,0.000278,-0.005818,0.010931,0.000460,0.010944,-0.005831,88.429273,0.010952,
600,330,2.182508,-16.841765,0.999997,0.000202,-0.004871,0.009861,-0.000135,0.009863,-0.004872,-89.475317,0.009863,
1060,1540,0.505907,-3.639949,0.999996,0.000227,-0.003579,0.008128,0.001262,0.008263,-0.003714,83.915284,0.008277,
1210,1430,0.050035,-4.025979,0.999998,0.000157,-0.002376,0.005670,0.000556,0.005708,-0.002415,86.062957,0.005731,
1010,1760,0.454985,-1.962916,0.999996,0.000217,-0.002411,0.007881,-0.000080,0.007882,-0.002412,-89.552399,0.008077,
930,1420,1.270345,-5.309859,0.999995,0.000275,-0.005988,0.010679,0.001183,0.010762,-0.006071,85.961223,0.010792,
930,370,0.829060,-17.410596,0.999997,0.000202,-0.003438,0.008777,-0.000178,0.008779,-0.003441,-89.167530,0.008847,
910,460,1.064234,-16.531789,0.999997,0.000202,-0.004465,0.009470,-0.000654,0.009501,-0.004496,-87.317611,0.009505,
1130,620,0.271858,-15.966895,0.999997,0.000212,-0.003390,0.006951,-0.001982,0.007317,-0.003757,-79.513642,0.007318,
650,1060,3.910700,-9.779690,0.999997,0.000219,-0.004326,0.009174,-0.000279,0.009180,-0.004332,-88.818108,0.009185,
1550,290,-0.718533,-18.085804,0.999997,0.000192,-0.002962,0.008659,-0.000359,0.008670,-0.002974,-88.234382,0.008811,
1320,1340,-0.221727,-4.761126,0.999997,0.000206,-0.003519,0.006083,-0.003157,0.007028,-0.004464,-73.335854,0.007113,
1020,740,0.911677,-14.219330,0.999996,0.000241,-0.006934,0.011150,-0.002605,0.011518,-0.007302,-81.965098,0.011655,
1840,1150,-3.886684,-8.975188,0.999996,0.000255,-0.004439,0.009066,0.000487,0.009084,-0.004457,87.938882,0.009084,
1370,1880,-0.147177,-1.003029,0.999998,0.000176,-0.001064,0.006753,0.000278,0.006763,-0.001074,87.968982,0.007269,
680,720,3.009794,-13.112334,0.999996,0.000222,-0.005250,0.010289,0.000618,0.010314,-0.005275,87.727942,0.010315,
1240,1310,-0.016561,-4.555563,0.999997,0.000187,-0.001987,0.003156,-0.000422,0.003190,-0.002021,-85.339820,0.003228,
1040,1630,0.516375,-2.958325,0.999997,0.000204,-0.003213,0.008110,0.000692,0.008152,-0.003255,86.513852,0.008207,
1320,1480,-0.236476,-3.844536,0.999997,0.000215,-0.002987,0.006937,-0.001298,0.007104,-0.003153,-82.672529,0.007119,
1510,960,-2.555777,-10.928914,0.999994,0.000311,-0.004583,0.012637,-0.001139,0.012712,-0.004658,-86.231178,0.012862,
1830,1950,-0.819832,-0.871348,0.999993,0.000301,-0.004289,0.010475,0.002152,0.010782,-0.004597,81.873764,0.010821,
1260,1740,-0.055233,-1.930407,0.999998,0.000164,-0.001922,0.007037,-0.000113,0.007039,-0.001923,-89.277935,0.007276,
1320,160,-0.078222,-19.277479,0.999998,0.000140,-0.000985,0.006581,-0.000182,0.006585,-0.000989,-88.621660,0.007102,
1610,1790,-0.851124,-1.964292,0.999997,0.000214,-0.003374,0.008920,0.000590,0.008948,-0.003402,87.257823,0.009034,
1750,730,-2.871102,-13.087013,0.999996,0.000235,-0.005440,0.010465,-0.000702,0.010496,-0.005471,-87.479222,0.010499,
710,1770,1.490723,-2.489960,0.999994,0.000283,-0.004771,0.010062,-0.000340,0.010070,-0.004779,-88.686043,0.010074,
1550,610,-1.316366,-15.044537,0.999996,0.000273,-0.005792,0.010471,0.001058,0.010539,-0.005860,86.294737,0.010561,
1710,720,-2.613047,-13.286354,0.999996,0.000247,-0.005709,0.010831,-0.000602,0.010853,-0.005731,-87.919241,0.010859,
630,1190,3.756111,-8.592529,0.999995,0.000272,-0.004650,0.009508,-0.000700,0.009543,-0.004685,-87.177275,0.009544,
740,1250,3.004048,-7.816284,0.999996,0.000221,-0.005358,0.010537,-0.001034,0.010604,-0.005425,-86.294340,0.010605,
850,850,2.571064,-12.034117,0.999994,0.000272,-0.005877,0.011585,0.001249,0.011674,-0.005965,85.929502,0.011675,
1460,1340,-0.969047,-5.786149,0.999995,0.000282,-0.006661,0.010959,-0.002242,0.011240,-0.006942,-82.860229,0.011343,
760,400,1.622709,-16.668115,0.999997,0.000217,-0.004814,0.010016,-0.000117,0.010017,-0.004815,-89.546855,0.010019,
1410,1880,-0.193695,-1.018862,0.999998,0.000149,-0.001441,0.006924,0.000344,0.006938,-0.001456,87.649920,0.007317,
780,170,0.731985,-18.934190,0.999996,0.000215,-0.003113,0.008931,0.001577,0.009134,-0.003316,82.664182,0.009248,
1210,850,0.204135,-15.311380,0.999976,0.000563,-0.008299,0.002940,0.000317,0.002949,-0.008307,88.385439,0.008423,
1500,2010,-0.050222,-0.165783,0.999998,0.000195,-0.000451,0.006479,0.000827,0.006576,-0.000548,83.290861,0.007297,
1540,250,-0.597003,-18.438906,0.999996,0.000250,-0.002559,0.008362,-0.000573,0.008392,-0.002589,-87.003981,0.008595,
1340,90,-0.048174,-19.725532,0.999998,0.000181,-0.000532,0.006285,-0.000265,0.006295,-0.000542,-87.775282,0.006977,
630,1350,3.213786,-7.023006,0.999997,0.000226,-0.005039,0.010072,-0.000394,0.010083,-0.005049,-88.507646,0.010083,
920,1920,0.301921,-0.808674,0.999997,0.000198,-0.001254,0.007445,-0.001109,0.007584,-0.001393,-82.848274,0.008075,
970,620,1.012074,-15.191278,0.999995,0.000274,-0.005645,0.010124,-0.001645,0.010294,-0.005815,-84.106710,0.010323,
1730,1600,-1.908366,-4.136445,0.999995,0.000272,-0.005026,0.010129,-0.000229,0.010132,-0.005030,-89.135443,0.010132,
1650,1280,-2.468671,-7.338109,0.999994,0.000286,-0.006109,0.011352,0.000837,0.011392,-0.006149,87.262575,0.011404,
1160,1820,0.098794,-1.382741,0.999998,0.000178,-0.001368,0.006880,-0.000104,0.006882,-0.001369,-89.278307,0.007286,
1220,220,0.016051,-18.892262,0.999998,0.000186,-0.001382,0.006700,-0.000036,0.006700,-0.001382,-89.745110,0.007075,
1130,600,0.273209,-16.105937,0.999996,0.000249,-0.003300,0.007057,-0.001706,0.007331,-0.003574,-80.884378,0.007332,
1550,270,-0.669818,-18.259637,0.999997,0.000215,-0.002752,0.008473,-0.000479,0.008493,-0.002772,-87.558292,0.008662,
1820,630,-2.890844,-13.937382,0.999996,0.000241,-0.005122,0.010210,-0.000188,0.010212,-0.005125,-89.296715,0.010212,
1650,50,-0.125336,-19.943058,0.999998,0.000181,-0.000659,0.007150,-0.001879,0.007579,-0.001087,-77.151633,0.008196,
1030,1760,0.405728,-1.934570,0.999997,0.000228,-0.002508,0.007732,0.000041,0.007732,-0.002508,89.772855,0.007889,
1860,290,-2.022413,-17.254149,0.999996,0.000226,-0.004825,0.009858,-0.000024,0.009858,-0.004825,-89.907294,0.009859,
1500,1760,-0.576333,-2.030459,0.999997,0.000206,-0.003015,0.008182,0.000068,0.008182,-0.003015,89.653201,0.008276,
1320,240,-0.127986,-18.736923,0.999998,0.000188,-0.001570,0.006948,-0.000043,0.006948,-0.001570,-89.708200,0.007287,
1020,720,0.870733,-14.436281,0.999995,0.000275,-0.006617,0.010791,-0.002584,0.011166,-0.006992,-81.732136,0.011284,
930,350,0.788640,-17.589188,0.999997,0.000219,-0.003265,0.008841,-0.000019,0.008841,-0.003265,-89.910204,0.008942,
1060,1520,0.511215,-3.799830,0.999995,0.000250,-0.003745,0.008197,0.001417,0.008363,-0.003911,83.323375,0.008369,
1840,1030,-4.046967,-10.056554,0.999998,0.000209,-0.004235,0.008984,0.000041,0.008984,-0.004235,89.823326,0.008989,
1450,1880,-0.254311,-1.046279,0.999997,0.000201,-0.001378,0.007145,0.000540,0.007179,-0.001412,86.389954,0.007606,
680,700,2.938520,-13.318082,0.999996,0.000226,-0.005288,0.010304,0.000525,0.010322,-0.005306,88.072181,0.010323,
930,1400,1.313861,-5.526657,0.999995,0.000263,-0.006223,0.010962,0.001187,0.011043,-0.006305,86.066980,0.011080,
1240,1290,-0.018338,-4.610831,0.999998,0.000171,-0.002170,0.002681,-0.000429,0.002718,-0.002208,-84.980625,0.002890,
1320,1460,-0.233807,-3.980194,0.999998,0.000207,-0.003033,0.006833,-0.001453,0.007043,-0.003243,-81.793408,0.007050,
1020,910,1.834924,-12.008875,0.999987,0.000417,-0.006722,0.014580,-0.000976,0.014625,-0.006766,-87.382454,0.014638,
910,440,1.030665,-16.721592,0.999997,0.000221,-0.004373,0.009398,-0.000590,0.009423,-0.004398,-87.549210,0.009430,
1260,1720,-0.058957,-2.074059,0.999998,0.000173,-0.001999,0.007035,-0.000134,0.007037,-0.002001,-89.153179,0.007252,
1200,850,0.287133,-15.267885,0.999986,0.000427,-0.007617,0.003029,0.000179,0.003032,-0.007620,89.036151,0.007673,
630,1330,3.285242,-7.227408,0.999997,0.000224,-0.004999,0.010008,-0.000460,0.010022,-0.005013,-88.246393,0.010022,
1620,280,-0.929654,-18.042168,0.999997,0.000200,-0.003486,0.009146,-0.000540,0.009169,-0.003509,-87.558651,0.009253,
730,280,1.378592,-17.781450,0.999996,0.000246,-0.004403,0.009917,0.000602,0.009943,-0.004429,87.597644,0.009962,
1320,140,-0.063457,-19.407729,0.999998,0.000142,-0.000841,0.006549,-0.000182,0.006554,-0.000845,-88.589641,0.007130,
710,1810,1.327354,-2.087234,0.999996,0.000251,-0.004648,0.009983,-0.000682,0.010015,-0.004680,-87.336948,0.010022,
1560,370,-0.920350,-17.356413,0.999997,0.000213,-0.003878,0.009071,0.000177,0.009073,-0.003881,89.216413,0.009105,
630,1170,3.813374,-8.783454,0.999996,0.000245,-0.004539,0.009218,-0.000536,0.009239,-0.004560,-87.772334,0.009239,
1390,1880,-0.167544,-1.008680,0.999998,0.000156,-0.001163,0.006836,0.000352,0.006852,-0.001179,87.484898,0.007327,
760,380,1.567571,-16.866482,0.999996,0.000252,-0.004645,0.009901,0.000005,0.009901,-0.004645,89.979494,0.009907,
1460,1320,-1.019415,-6.011810,0.999994,0.000277,-0.006996,0.011360,-0.002201,0.011620,-0.007257,-83.256729,0.011740,
1630,1280,-2.343813,-7.286801,0.999995,0.000244,-0.006312,0.011570,0.000770,0.011603,-0.006345,87.538247,0.011620,
630,860,3.739285,-11.614953,0.999996,0.000205,-0.004663,0.009538,0.000719,0.009574,-0.004699,87.109696,0.009575,
1550,590,-1.277938,-15.255028,0.999995,0.000278,-0.005567,0.010344,0.001034,0.010411,-0.005634,86.296250,0.010423,
850,160,0.511815,-19.099297,0.999996,0.000238,-0.002156,0.008275,0.001387,0.008456,-0.002337,82.553186,0.008734,
570,90,0.978628,-19.160738,0.999992,0.000351,-0.004643,0.012267,0.002537,0.012639,-0.005015,81.649245,0.012729,
920,1900,0.352852,-0.958870,0.999997,0.000200,-0.001492,0.007671,-0.001062,0.007793,-0.001614,-83.477597,0.008226,
1220,670,0.024283,-15.905352,0.999998,0.000166,-0.002150,0.004877,-0.000440,0.004904,-0.002177,-86.433602,0.004914,
1550,250,-0.621700,-18.426840,0.999996,0.000242,-0.002587,0.008436,-0.000627,0.008472,-0.002623,-86.754209,0.008674,
1220,180,0.012992,-19.158119,0.999998,0.000168,-0.001130,0.006572,-0.000012,0.006572,-0.001130,-89.910227,0.007028,
850,830,2.480679,-12.268672,0.999993,0.000288,-0.006116,0.011752,0.001184,0.011830,-0.006194,86.226104,0.011835,
1160,1800,0.110924,-1.522020,0.999998,0.000169,-0.001508,0.006958,-0.000066,0.006958,-0.001508,-89.552260,0.007321,
580,1720,2.297346,-3.441300,0.999998,0.000187,-0.004685,0.009634,-0.000020,0.009634,-0.004685,-89.918154,0.009635,
1190,2010,0.008409,-0.153310,0.999998,0.000151,-0.000159,0.005997,-0.000079,0.005998,-0.000160,-89.269249,0.006835,
1640,1910,-0.503711,-0.954102,0.999996,0.000241,-0.001964,0.008258,0.001636,0.008514,-0.002220,81.127242,0.008833,
1060,1500,0.519511,-3.963275,0.999996,0.000235,-0.003966,0.008254,0.001638,0.008469,-0.004182,82.497467,0.008470,
1830,1990,-0.449783,-0.446816,0.999993,0.000300,-0.003785,0.010132,0.002929,0.010723,-0.004376,78.585365,0.010783,
690,140,0.864233,-19.064389,0.999997,0.000218,-0.003801,0.009678,0.002056,0.009984,-0.004108,81.518790,0.010036,
930,330,0.748906,-17.770125,0.999997,0.000212,-0.003186,0.008839,0.000056,0.008840,-0.003186,89.731707,0.008954,
1500,1740,-0.613519,-2.194287,0.999997,0.000209,-0.003171,0.008396,-0.000037,0.008396,-0.003171,-89.818049,0.008479,
1140,1370,0.233189,-4.588248,0.999997,0.000190,-0.003438,0.006369,0.002721,0.007073,-0.004142,75.487373,0.007107,
1850,340,-2.154502,-16.791593,0.999998,0.000187,-0.004865,0.009933,0.000139,0.009935,-0.004867,89.463253,0.009935,
1890,1150,-4.102642,-9.049638,0.999997,0.000210,-0.004234,0.008534,0.000261,0.008540,-0.004239,88.831658,0.008540,
830,1060,3.151369,-9.741990,0.999997,0.000206,-0.003996,0.010331,-0.000466,0.010346,-0.004011,-88.137518,0.010433,
1750,710,-2.798678,-13.293913,0.999996,0.000250,-0.005461,0.010501,-0.000572,0.010522,-0.005481,-87.951893,0.010525,
1730,1220,-3.153415,-8.145079,0.999994,0.000302,-0.005188,0.010440,0.001109,0.010519,-0.005267,85.962310,0.010519,
1350,1880,-0.124940,-0.992475,0.999998,0.000175,-0.001169,0.006687,0.000209,0.006693,-0.001175,88.479902,0.007147,
1310,1380,-0.189071,-4.461046,0.999996,0.000237,-0.003053,0.006052,-0.002251,0.006579,-0.003579,-76.842993,0.006587,
1320,220,-0.115610,-18.876545,0.999997,0.000212,-0.001457,0.006837,-0.000059,0.006837,-0.001457,-89.589501,0.007203,
1020,700,0.835342,-14.647284,0.999995,0.000263,-0.006282,0.010425,-0.002529,0.010800,-0.006656,-81.578388,0.010897,
1620,260,-0.870360,-18.219757,0.999997,0.000195,-0.003276,0.008950,-0.000683,0.008988,-0.003314,-86.811295,0.009091,
680,680,2.866752,-13.523559,0.999997,0.000217,-0.005298,0.010359,0.000427,0.010370,-0.005310,88.438882,0.010371,
1560,450,-1.079279,-16.605480,0.999996,0.000237,-0.004400,0.009490,0.000595,0.009516,-0.004426,87.550156,0.009524,
840,1530,1.537386,-4.504118,0.999994,0.000259,-0.005270,0.010276,0.000547,0.010295,-0.005289,87.985747,0.010296,
1320,1440,-0.233260,-4.113502,0.999997,0.000203,-0.003068,0.006722,-0.001663,0.006997,-0.003343,-80.617345,0.006999,
1150,280,0.136695,-18.459580,0.999998,0.000201,-0.001784,0.007095,-0.000015,0.007095,-0.001784,-89.900546,0.007382,
830,860,2.727087,-11.885775,0.999995,0.000258,-0.005608,0.011322,0.001360,0.011430,-0.005716,85.437188,0.011430,
1860,1090,-4.085922,-9.536409,0.999996,0.000229,-0.004210,0.008602,0.000089,0.008602,-0.004210,89.600415,0.008603,
720,1300,2.925496,-7.325371,0.999997,0.000242,-0.005429,0.010577,-0.000814,0.010618,-0.005470,-87.097387,0.010620,
1260,1700,-0.061008,-2.213104,0.999998,0.000182,-0.002114,0.007072,-0.000178,0.007076,-0.002118,-88.890279,0.007263,
1320,120,-0.054180,-19.540481,0.999998,0.000147,-0.000691,0.006422,-0.000206,0.006428,-0.000697,-88.340494,0.007054,
740,130,0.633567,-19.248884,0.999996,0.000213,-0.002366,0.008973,0.002387,0.009455,-0.002848,78.583233,0.009701,
1020,1630,0.580424,-2.999868,0.999997,0.000202,-0.003291,0.008284,0.000640,0.008319,-0.003327,86.842489,0.008375,
1460,1300,-1.074275,-6.245992,0.999994,0.000287,-0.007306,0.011786,-0.002112,0.012017,-0.007537,-83.761423,0.012146,
760,360,1.508299,-17.064105,0.999995,0.000255,-0.004491,0.009867,0.000129,0.009868,-0.004492,89.485357,0.009881,
630,1310,3.353366,-7.428355,0.999997,0.000228,-0.004964,0.009909,-0.000510,0.009926,-0.004981,-88.038742,0.009926,
630,1150,3.857421,-8.965897,0.999996,0.000250,-0.004445,0.009118,-0.000491,0.009135,-0.004462,-87.930288,0.009136,
1220,160,0.011173,-19.287853,0.999998,0.000163,-0.000971,0.006487,0.000004,0.006487,-0.000971,89.972982,0.006998,
1170,1300,0.138851,-4.790968,0.999994,0.000312,-0.003006,0.004469,0.003003,0.005526,-0.004063,70.609105,0.005726,
990,1880,0.282973,-1.057028,0.999998,0.000165,-0.001475,0.007297,-0.000651,0.007345,-0.001523,-85.777000,0.007753,
1550,230,-0.568104,-18.598601,0.999996,0.000234,-0.002366,0.008274,-0.000730,0.008323,-0.002416,-86.090802,0.008564,
1550,570,-1.242194,-15.458368,0.999995,0.000273,-0.005386,0.010195,0.001003,0.010259,-0.005450,86.331221,0.010266,
930,170,0.382423,-19.089925,0.999997,0.000218,-0.001745,0.007644,0.000941,0.007738,-0.001838,84.334662,0.008085,
1150,500,0.211664,-16.863468,0.999996,0.000210,-0.002866,0.007132,-0.000890,0.007211,-0.002944,-84.952723,0.007251,
850,810,2.388026,-12.507240,0.999994,0.000293,-0.006303,0.011750,0.001008,0.011806,-0.006359,86.815105,0.011818,
1130,1760,0.186496,-1.825704,0.999998,0.000173,-0.002055,0.007172,0.000153,0.007175,-0.002058,89.047321,0.007389,
1180,2010,0.010628,-0.153341,0.999998,0.000172,-0.000102,0.006004,-0.000114,0.006006,-0.000104,-88.931191,0.006876,
1430,820,-1.108843,-13.383222,0.999992,0.000334,-0.007848,0.012393,0.002413,0.012677,-0.008132,83.295576,0.012845,
1060,1480,0.529465,-4.130363,0.999996,0.000211,-0.004174,0.008330,0.001875,0.008605,-0.004449,81.655000,0.008607,
930,310,0.708479,-17.945220,0.999997,0.000225,-0.003086,0.008518,0.000101,0.008519,-0.003086,89.500985,0.008626,
1830,340,-2.056311,-16.863185,0.999997,0.000231,-0.004895,0.010019,0.000056,0.010019,-0.004895,89.783192,0.010020,
1310,1260,-0.247498,-5.116673,0.999993,0.000324,-0.004055,0.004961,-0.003900,0.006414,-0.005508,-69.567344,0.006943,
1500,1720,-0.653067,-2.369831,0.999996,0.000228,-0.003355,0.008596,-0.000187,0.008599,-0.003358,-89.101522,0.008667,
1320,200,-0.105220,-19.011201,0.999998,0.000191,-0.001301,0.006758,-0.000115,0.006760,-0.001302,-89.183698,0.007173,
1750,690,-2.725955,-13.507171,0.999995,0.000252,-0.005472,0.010575,-0.000469,0.010589,-0.005486,-88.329024,0.010591,
830,840,2.643979,-12.111963,0.999995,0.000253,-0.005815,0.011399,0.001250,0.011489,-0.005905,85.869730,0.011491,
1160,680,0.170732,-15.702673,0.999997,0.000217,-0.002891,0.005805,-0.002159,0.006312,-0.003398,-76.796562,0.006318,
1020,680,0.804208,-14.859772,0.999994,0.000269,-0.005933,0.010083,-0.002423,0.010442,-0.006291,-81.583994,0.010515,
1850,980,-4.054231,-10.502188,0.999998,0.000187,-0.004232,0.008727,-0.000137,0.008728,-0.004233,-89.392642,0.008729,
1580,1850,-0.575413,-1.394969,0.999997,0.000199,-0.002722,0.008358,0.000864,0.008425,-0.002789,85.568816,0.008584,
1620,240,-0.803102,-18.402697,0.999997,0.000203,-0.003084,0.009013,-0.000865,0.009074,-0.003146,-85.930790,0.009216,
1710,1220,-3.048358,-8.115692,0.999997,0.000208,-0.005301,0.010648,0.001172,0.010733,-0.005387,85.819448,0.010733,
970,600,0.980000,-15.395289,0.999996,0.000239,-0.005373,0.009973,-0.001532,0.010124,-0.005524,-84.355132,0.010138,
680,1690,1.907149,-3.394199,0.999996,0.000259,-0.004854,0.010080,-0.000011,0.010080,-0.004854,-89.957117,0.010082,
860,410,1.188698,-16.863543,0.999996,0.000275,-0.004330,0.009492,-0.000268,0.009498,-0.004336,-88.891350,0.009510,
1240,1330,-0.015908,-4.486863,0.999998,0.000152,-0.001956,0.003687,-0.000416,0.003718,-0.001986,-85.808813,0.003720,
790,460,1.635980,-16.154154,0.999997,0.000214,-0.005009,0.010114,-0.000304,0.010120,-0.005015,-88.847623,0.010120,
1620,1910,-0.465809,-0.939177,0.999996,0.000230,-0.001888,0.008078,0.001509,0.008301,-0.002111,81.576461,0.008629,
1610,140,-0.429275,-19.268238,0.999998,0.000210,-0.001857,0.007986,-0.001432,0.008191,-0.002061,-81.886055,0.008521,
1620,1150,-2.846261,-8.765024,0.999997,0.000221,-0.005085,0.011098,0.001369,0.011213,-0.005200,85.198104,0.011223,
1310,280,-0.132933,-18.459773,0.999998,0.000157,-0.001725,0.007090,-0.000012,0.007090,-0.001725,-89.921305,0.007395,
690,120,0.737292,-19.253416,0.999994,0.000280,-0.003493,0.009733,0.002442,0.010170,-0.003929,79.866772,0.010257,
1840,480,-2.534535,-15.410509,0.999996,0.000238,-0.005069,0.010168,0.000108,0.010168,-0.005070,89.592302,0.010168,
1320,1420,-0.226906,-4.244174,0.999997,0.000204,-0.003151,0.006599,-0.001928,0.006967,-0.003518,-79.212175,0.006967,
680,660,2.797761,-13.734698,0.999996,0.000240,-0.005297,0.010398,0.000327,0.010405,-0.005304,88.806803,0.010405,
730,1120,3.470340,-9.167242,0.999997,0.000212,-0.004552,0.009899,-0.000843,0.009948,-0.004601,-86.672590,0.009957,
1220,140,0.008452,-19.418828,0.999998,0.000145,-0.000840,0.006401,-0.000013,0.006401,-0.000840,-89.899961,0.006957,
1320,100,-0.042124,-19.666559,0.999998,0.000153,-0.000578,0.006282,-0.000210,0.006288,-0.000584,-88.249949,0.006948,
630,1130,3.900459,-9.149672,0.999997,0.000240,-0.004439,0.009203,-0.000591,0.009229,-0.004465,-87.523599,0.009231,
570,80,0.883419,-19.289939,0.999986,0.000472,-0.004911,0.013080,0.002904,0.013537,-0.005368,81.055522,0.013633,
630,1490,2.750325,-5.595025,0.999996,0.000243,-0.005091,0.010227,0.000013,0.010227,-0.005091,89.950871,0.010227,
1550,550,-1.206592,-15.660386,0.999995,0.000281,-0.005263,0.010060,0.000984,0.010123,-0.005326,86.341892,0.010128,
1600,1270,-2.195779,-7.318395,0.999995,0.000313,-0.006557,0.011901,0.000684,0.011927,-0.006582,87.881724,0.011948,
1040,1260,0.935866,-6.403124,0.999994,0.000317,-0.007579,0.011724,0.002844,0.012135,-0.007989,81.790972,0.012336,
1550,210,-0.517299,-18.760271,0.999996,0.000224,-0.002173,0.008109,-0.000844,0.008178,-0.002242,-85.341294,0.008451,
860,1610,1.261665,-3.635596,0.999996,0.000262,-0.004696,0.009763,0.000466,0.009778,-0.004711,88.155702,0.009780,
950,2010,0.058165,-0.168495,0.999998,0.000141,-0.000408,0.006436,-0.000877,0.006546,-0.000518,-82.814434,0.007278,
1130,520,0.272910,-16.678135,0.999998,0.000181,-0.002948,0.007273,-0.000993,0.007368,-0.003043,-84.499311,0.007405,
760,340,1.448468,-17.262135,0.999996,0.000241,-0.004391,0.009908,0.000211,0.009911,-0.004394,89.154137,0.009933,
1690,1220,-2.941196,-8.083686,0.999996,0.000233,-0.005417,0.010785,0.001215,0.010876,-0.005508,85.735517,0.010876,
1060,1460,0.539196,-4.303022,0.999995,0.000243,-0.004353,0.008484,0.002109,0.008822,-0.004691,80.904704,0.008828,
1850,1660,-2.333151,-3.922626,0.999996,0.000251,-0.005008,0.010021,-0.000119,0.010022,-0.005009,-89.545521,0.010022,
1840,910,-3.897980,-11.138327,0.999995,0.000248,-0.004418,0.009078,-0.000473,0.009094,-0.004435,-87.997171,0.009095,
1460,1500,-0.764894,-4.188072,0.999996,0.000223,-0.004575,0.009132,-0.001515,0.009297,-0.004740,-83.766089,0.009298,
1190,1880,0.043582,-0.972833,0.999998,0.000161,-0.000978,0.006551,-0.000066,0.006552,-0.000979,-89.497787,0.007068,
1420,1020,-2.233037,-10.237861,0.999964,0.000767,-0.009693,0.022904,0.000706,0.022919,-0.009709,88.759963,0.023008,
1810,480,-2.384190,-15.507992,0.999995,0.000269,-0.005071,0.010218,0.000150,0.010219,-0.005073,89.436653,0.010219,
860,390,1.142876,-17.051853,0.999997,0.000225,-0.004204,0.009376,-0.000192,0.009379,-0.004206,-89.189460,0.009395,
1260,1680,-0.063585,-2.355832,0.999997,0.000191,-0.002203,0.007104,-0.000194,0.007108,-0.002207,-88.808510,0.007276,
1020,1570,0.634461,-3.508258,0.999995,0.000248,-0.003968,0.008598,0.001159,0.008704,-0.004074,84.774739,0.008710,
1620,220,-0.739935,-18.581570,0.999996,0.000219,-0.002854,0.008741,-0.000975,0.008823,-0.002935,-85.226783,0.008986,
1600,1150,-2.744572,-8.739237,0.999997,0.000221,-0.005151,0.011367,0.001411,0.011486,-0.005271,85.152494,0.011499,
930,1940,0.233420,-0.655309,0.999997,0.000187,-0.001056,0.007292,-0.001127,0.007442,-0.001205,-82.445292,0.007989,
1320,1400,-0.221519,-4.373825,0.999997,0.000225,-0.003255,0.006524,-0.002182,0.006989,-0.003720,-77.976141,0.006994,
850,790,2.300145,-12.742517,0.999994,0.000291,-0.006406,0.011748,0.000807,0.011784,-0.006441,87.458967,0.011801,
1270,1760,-0.072521,-1.794521,0.999998,0.000164,-0.001755,0.007008,-0.000050,0.007009,-0.001755,-89.672670,0.007294,
1190,280,0.071494,-18.470674,0.999998,0.000171,-0.001667,0.007005,0.000009,0.007005,-0.001667,89.939107,0.007318,
1120,850,0.685136,-14.267239,0.999988,0.000421,-0.004549,0.006615,-0.003876,0.007828,-0.005763,-72.612488,0.008114,
1320,80,-0.031215,-19.792565,0.999999,0.000140,-0.000425,0.006199,-0.000233,0.006207,-0.000433,-87.984046,0.006931,
930,290,0.671659,-18.111949,0.999996,0.000228,-0.002956,0.008529,0.000277,0.008535,-0.002962,88.620496,0.008667,
1480,1410,-0.974730,-5.155634,0.999997,0.000196,-0.005879,0.010218,-0.001848,0.010427,-0.006088,-83.532547,0.010476,
1160,1780,0.117721,-1.661499,0.999998,0.000162,-0.001634,0.007049,-0.000038,0.007050,-0.001634,-89.748137,0.007380,
1310,1610,-0.191441,-2.890693,0.999998,0.000191,-0.002708,0.007224,-0.000566,0.007256,-0.002740,-86.746478,0.007329,
1220,120,0.007887,-19.545249,0.999998,0.000147,-0.000661,0.006329,-0.000019,0.006329,-0.000661,-89.844537,0.006958,
720,1280,3.003131,-7.537458,0.999997,0.000237,-0.005347,0.010512,-0.000901,0.010563,-0.005398,-86.758789,0.010564,
1500,1920,-0.237343,-0.785198,0.999997,0.000190,-0.001472,0.007152,0.000807,0.007227,-0.001547,84.702283,0.007610,
1310,1430,-0.200259,-4.152042,0.999998,0.000199,-0.002943,0.006452,-0.001660,0.006737,-0.003227,-80.266855,0.006739,
1710,1950,-0.462246,-0.674436,0.999996,0.000238,-0.001567,0.008522,0.002436,0.009079,-0.002124,77.109600,0.009498,
730,180,0.932448,-18.770893,0.999997,0.000192,-0.003562,0.009569,0.001591,0.009759,-0.003752,83.190482,0.009846,
1020,660,0.778953,-15.058174,0.999995,0.000263,-0.005639,0.009821,-0.002322,0.010162,-0.005980,-81.641654,0.010215,
1440,150,-0.196025,-19.298467,0.999998,0.000192,-0.001197,0.007022,-0.000580,0.007063,-0.001238,-85.981144,0.007543,
800,1000,3.274645,-10.361089,0.999997,0.000202,-0.004058,0.010137,0.000387,0.010148,-0.004069,88.437767,0.010214,
1750,1110,-3.569423,-9.278531,0.999995,0.000264,-0.004521,0.009842,0.000828,0.009890,-0.004569,86.709868,0.009899,
570,70,0.790695,-19.423169,0.999960,0.000836,-0.004691,0.013297,0.003831,0.014079,-0.005473,78.465014,0.014195,
760,320,1.387541,-17.462237,0.999996,0.000253,-0.004341,0.009805,0.000265,0.009810,-0.004346,88.927919,0.009831,
1560,1850,-0.522076,-1.369233,0.999996,0.000256,-0.002265,0.008210,0.000890,0.008285,-0.002340,85.177061,0.008542,
1130,540,0.273457,-16.532754,0.999997,0.000220,-0.002996,0.007253,-0.001119,0.007373,-0.003117,-83.839809,0.007403,
1670,1220,-2.831259,-8.054708,0.999995,0.000261,-0.005535,0.010959,0.001228,0.011050,-0.005626,85.764268,0.011051,
630,1510,2.691828,-5.392445,0.999995,0.000253,-0.005077,0.010199,0.000059,0.010200,-0.005077,89.776848,0.010200,
1220,90,0.005630,-19.733252,0.999998,0.000163,-0.000486,0.006135,0.000003,0.006135,-0.000486,89.974353,0.006821,
1390,340,-0.342737,-17.942041,0.999998,0.000175,-0.002388,0.007584,0.000184,0.007587,-0.002392,88.944523,0.007758,
810,50,0.124328,-19.942868,0.999997,0.000223,-0.000771,0.007124,0.001905,0.007560,-0.001206,77.121953,0.008123,
750,700,2.552666,-13.498676,0.999996,0.000333,-0.005685,0.010826,0.000509,0.010841,-0.005701,88.236779,0.010846,
1310,1870,-0.082446,-1.044733,0.999998,0.000162,-0.001054,0.006657,0.000145,0.006660,-0.001056,88.923013,0.007158,
1580,1590,-1.194638,-3.758976,0.999997,0.000219,-0.004642,0.009680,-0.000589,0.009704,-0.004667,-87.649029,0.009707,
1060,1660,0.428055,-2.670201,0.999996,0.000230,-0.003094,0.007897,0.000634,0.007933,-0.003131,86.711400,0.007992,
930,430,0.924798,-16.877534,0.999998,0.000191,-0.004168,0.009147,-0.000627,0.009176,-0.004198,-87.310032,0.009188,
1840,890,-3.855181,-11.320399,0.999997,0.000215,-0.004476,0.009084,-0.000450,0.009099,-0.004491,-88.102702,0.009099,
1850,1640,-2.392828,-4.122990,0.999996,0.000251,-0.005005,0.010005,-0.000127,0.010006,-0.005006,-89.514266,0.010006,
1550,530,-1.170311,-15.864407,0.999996,0.000252,-0.005110,0.009919,0.000955,0.009979,-0.005171,86.380482,0.009982,
1790,220,-1.385248,-18.210256,0.999995,0.000256,-0.004518,0.010113,-0.001021,0.010183,-0.004589,-86.026847,0.010200,
700,1410,2.642008,-6.214498,0.999995,0.000255,-0.005422,0.010445,-0.000300,0.010450,-0.005428,-88.917459,0.010453,
1410,1010,-2.126291,-10.528619,0.999961,0.000811,-0.010193,0.025284,0.002057,0.025403,-0.010312,86.692247,0.025552,
1840,460,-2.477007,-15.613496,0.999996,0.000225,-0.005046,0.010158,0.000133,0.010159,-0.005047,89.498839,0.010159,
1710,440,-1.767665,-16.238755,0.999997,0.000236,-0.004947,0.010101,0.000230,0.010104,-0.004950,89.124043,0.010105,
1790,480,-2.282401,-15.573004,0.999996,0.000263,-0.005119,0.010228,0.000171,0.010230,-0.005121,89.361261,0.010230,
1480,230,-0.401603,-18.681497,0.999996,0.000234,-0.002064,0.007743,-0.000456,0.007764,-0.002085,-87.342977,0.008037,
1620,200,-0.669741,-18.756648,0.999997,0.000214,-0.002640,0.008663,-0.001179,0.008785,-0.002762,-84.108701,0.008984,
1090,900,1.344624,-13.325039,0.999993,0.000318,-0.003524,0.009433,-0.005869,0.011696,-0.005787,-68.913257,0.011697,
1570,1700,-0.928758,-2.691422,0.999996,0.000223,-0.004011,0.009089,-0.000145,0.009091,-0.004013,-89.365446,0.009112,
810,860,2.840361,-11.854069,0.999997,0.000273,-0.005433,0.011129,0.001327,0.011235,-0.005539,85.449502,0.011235,
1450,1690,-0.538020,-2.517613,0.999996,0.000227,-0.002921,0.008201,-0.000293,0.008209,-0.002928,-88.491001,0.008320,
1150,1880,0.079713,-0.977481,0.999998,0.000160,-0.001050,0.006597,-0.000149,0.006600,-0.001053,-88.882641,0.007091,
1800,1150,-3.709074,-8.929896,0.999995,0.000282,-0.004563,0.009411,0.000642,0.009440,-0.004593,87.374951,0.009442,
1170,280,0.103774,-18.465495,0.999998,0.000170,-0.001622,0.007037,0.000056,0.007037,-0.001622,89.632265,0.007370,
1220,100,0.006643,-19.672745,0.999998,0.000168,-0.000565,0.006213,-0.000002,0.006213,-0.000565,-89.981259,0.006871,
750,1520,2.037566,-4.907779,0.999995,0.000293,-0.005284,0.010343,0.000202,0.010346,-0.005287,89.260937,0.010347,
720,1260,3.074455,-7.744665,0.999996,0.000256,-0.005284,0.010388,-0.000951,0.010446,-0.005341,-86.538676,0.010447,
1310,1590,-0.197611,-3.036195,0.999997,0.000209,-0.002789,0.007186,-0.000668,0.007231,-0.002833,-86.185144,0.007287,
1260,1660,-0.065406,-2.499480,0.999997,0.000205,-0.002284,0.007109,-0.000227,0.007114,-0.002289,-88.615198,0.007263,
1500,1390,-1.129086,-5.474131,0.999995,0.000269,-0.006224,0.010846,-0.001612,0.010997,-0.006375,-84.650942,0.011043,
1530,1940,-0.231002,-0.655795,0.999997,0.000209,-0.001104,0.007279,0.001119,0.007426,-0.001251,82.526314,0.007951,
1320,1380,-0.222029,-4.505183,0.999996,0.000234,-0.003341,0.006321,-0.002495,0.006927,-0.003947,-76.342534,0.006950,
1540,970,-2.726351,-10.751652,0.999997,0.000227,-0.004179,0.011801,-0.001080,0.011873,-0.004252,-86.150647,0.012032,
1040,150,0.175803,-19.305215,0.999998,0.000167,-0.001257,0.006962,0.000493,0.006991,-0.001287,86.579827,0.007442,
1160,1740,0.136805,-1.945713,0.999998,0.000176,-0.001885,0.007121,0.000025,0.007121,-0.001885,89.839450,0.007379,
930,270,0.621325,-18.286226,0.999996,0.000231,-0.002747,0.008351,0.000371,0.008363,-0.002760,88.089016,0.008523,
1590,750,-1.983361,-13.293144,0.999996,0.000249,-0.006673,0.011866,-0.000205,0.011868,-0.006675,-89.366024,0.011899,
1120,1370,0.305375,-4.700045,0.999996,0.000227,-0.003872,0.007086,0.002911,0.007811,-0.004597,76.008316,0.007852,
1320,60,-0.019991,-19.914693,0.999998,0.000143,-0.000304,0.006103,-0.000221,0.006110,-0.000311,-88.023324,0.006883,
760,300,1.326214,-17.654966,0.999997,0.000233,-0.004259,0.009764,0.000430,0.009777,-0.004272,88.244773,0.009803,
980,220,0.388403,-18.756675,0.999997,0.000191,-0.002089,0.007668,0.000459,0.007690,-0.002111,87.314216,0.007946,
800,50,0.133508,-19.939765,0.999997,0.000197,-0.000937,0.007165,0.001942,0.007606,-0.001379,77.193883,0.008105,
1090,340,0.305722,-17.960128,0.999997,0.000224,-0.002251,0.007504,-0.000167,0.007507,-0.002254,-89.017809,0.007704,
1620,530,-1.533000,-15.614953,0.999996,0.000207,-0.005304,0.010277,0.000565,0.010298,-0.005325,87.927688,0.010300,
1310,1630,-0.187626,-2.744679,0.999997,0.000205,-0.002580,0.007273,-0.000474,0.007296,-0.002603,-87.251887,0.007395,
630,1110,3.946425,-9.336270,0.999997,0.000218,-0.004377,0.009140,-0.000481,0.009157,-0.004394,-87.963425,0.009159,
930,1000,2.782231,-10.399668,0.999996,0.000234,-0.003725,0.011884,0.000621,0.011909,-0.003749,87.724173,0.012178,
680,640,2.732593,-13.941682,0.999995,0.000282,-0.005290,0.010299,0.000262,0.010304,-0.005295,89.038859,0.010305,
940,2010,0.062411,-0.169566,0.999999,0.000142,-0.000298,0.006507,-0.000946,0.006636,-0.000427,-82.231903,0.007428,
910,1380,1.491583,-5.842918,0.999994,0.000325,-0.006443,0.011245,0.000822,0.011283,-0.006481,87.344737,0.011325,
1130,580,0.273483,-16.248200,0.999997,0.000220,-0.003198,0.007145,-0.001450,0.007344,-0.003397,-82.168483,0.007351,
1850,180,-1.445904,-18.398953,0.999996,0.000248,-0.004893,0.010271,-0.000681,0.010301,-0.004924,-87.432461,0.010305,
610,660,3.159173,-13.532945,0.999995,0.000247,-0.005059,0.010097,0.000238,0.010101,-0.005063,89.100398,0.010101,
630,1950,0.836326,-0.884638,0.999996,0.000225,-0.004460,0.010486,-0.002025,0.010756,-0.004729,-82.419311,0.010782,
890,1620,1.109788,-3.449578,0.999996,0.000259,-0.004357,0.009499,0.000482,0.009515,-0.004374,88.009417,0.009526,
1550,510,-1.133553,-16.062319,0.999996,0.000235,-0.004867,0.009718,0.000880,0.009771,-0.004920,86.559621,0.009771,
810,1120,3.108912,-9.122073,0.999996,0.000252,-0.004570,0.010500,-0.001055,0.010574,-0.004644,-86.015068,0.010600,
930,470,0.993062,-16.499776,0.999998,0.000210,-0.004508,0.009444,-0.000799,0.009489,-0.004554,-86.731310,0.009492,
1050,1610,0.500256,-3.097101,0.999997,0.000213,-0.003318,0.008046,0.000841,0.008108,-0.003379,85.791009,0.008146,
1830,1220,-3.646820,-8.300439,0.999996,0.000225,-0.004738,0.009525,0.000677,0.009557,-0.004770,87.290264,0.009557,
1130,1880,0.104684,-0.986724,0.999999,0.000140,-0.001205,0.006676,-0.000139,0.006678,-0.001207,-88.987125,0.007118,
850,770,2.215727,-12.979140,0.999994,0.000293,-0.006478,0.011708,0.000634,0.011730,-0.006500,88.007124,0.011753,
1620,180,-0.597683,-18.928531,0.999996,0.000226,-0.002352,0.008365,-0.001282,0.008516,-0.002504,-83.273099,0.008754,
1500,1410,-1.093040,-5.260561,0.999995,0.000258,-0.005940,0.010452,-0.001595,0.010606,-0.006094,-84.493436,0.010645,
1460,760,-1.088564,-13.855280,0.999994,0.000315,-0.007379,0.011828,0.002073,0.012049,-0.007600,83.909691,0.012185,
1410,1000,-2.112337,-10.788107,0.999947,0.000903,-0.009799,0.024631,0.003140,0.024915,-0.010083,84.831092,0.025066,
1790,200,-1.282595,-18.415366,0.999996,0.000221,-0.004399,0.010194,-0.001240,0.010299,-0.004504,-85.179433,0.010326,
1310,1570,-0.199302,-3.182298,0.999997,0.000195,-0.002833,0.007172,-0.000769,0.007231,-0.002892,-85.627566,0.007279,
700,1430,2.574008,-6.003529,0.999994,0.000281,-0.005379,0.010399,-0.000198,0.010402,-0.005382,-89.280281,0.010404,
1490,1020,-2.649426,-10.177672,0.999995,0.000285,-0.004006,0.013141,-0.000104,0.013142,-0.004007,-89.652814,0.013471,
1500,1180,-1.984420,-8.073911,0.999994,0.000298,-0.006964,0.013394,0.000620,0.013413,-0.006983,88.256232,0.013417,
1780,1150,-3.618680,-8.910835,0.999997,0.000232,-0.004643,0.009579,0.000729,0.009616,-0.004681,87.072683,0.009617,
790,860,2.946234,-11.826430,0.999997,0.000234,-0.005311,0.010890,0.001267,0.010989,-0.005409,85.556753,0.010989,
1350,280,-0.209625,-18.427978,0.999997,0.000195,-0.001966,0.007300,0.000030,0.007300,-0.001966,89.812770,0.007554,
1020,640,0.761897,-15.250853,0.999995,0.000281,-0.005394,0.009521,-0.002244,0.009852,-0.005725,-81.625272,0.009895,
1160,150,0.057899,-19.347370,0.999998,0.000154,-0.000745,0.006514,0.000188,0.006519,-0.000750,88.513756,0.007134,
1750,1130,-3.524217,-9.079708,0.999996,0.000249,-0.004600,0.009776,0.000793,0.009819,-0.004644,86.852775,0.009824,
1220,80,0.004972,-19.793618,0.999998,0.000172,-0.000405,0.006097,0.000020,0.006097,-0.000405,89.825329,0.006818,
1320,260,-0.138089,-18.598865,0.999998,0.000173,-0.001727,0.007019,0.000020,0.007019,-0.001727,89.872117,0.007314,
740,730,2.720954,-13.145881,0.999996,0.000272,-0.005614,0.010660,0.000701,0.010690,-0.005644,87.539320,0.010696,
1340,790,-0.375241,-14.745763,0.999993,0.000336,-0.005220,0.007212,0.004462,0.008648,-0.006655,72.165322,0.009057,
1160,1720,0.142762,-2.089848,0.999998,0.000157,-0.002009,0.007188,0.000053,0.007188,-0.002010,89.668836,0.007418,
1570,1340,-1.722493,-6.375898,0.999996,0.000207,-0.006691,0.011702,-0.000365,0.011709,-0.006698,-88.862197,0.011750,
1590,730,-1.908088,-13.528934,0.999997,0.000217,-0.006614,0.011704,-0.000012,0.011704,-0.006614,-89.963790,0.011737,
910,1000,2.857029,-10.387403,0.999998,0.000191,-0.003730,0.011345,0.000608,0.011369,-0.003754,87.692755,0.011586,
860,1630,1.218717,-3.440858,0.999995,0.000229,-0.004492,0.009654,0.000382,0.009664,-0.004502,88.453872,0.009672,
1890,1500,-3.010947,-5.670089,0.999996,0.000241,-0.005041,0.010223,0.000014,0.010223,-0.005041,89.948415,0.010224,
1410,1620,-0.481765,-3.007437,0.999996,0.000219,-0.003294,0.008054,-0.000805,0.008110,-0.003351,-85.961456,0.008151,
720,1240,3.147548,-7.955071,0.999995,0.000280,-0.005222,0.010394,-0.001038,0.010462,-0.005290,-86.215245,0.010463,
1260,1640,-0.066903,-2.640681,0.999998,0.000205,-0.002351,0.007077,-0.000212,0.007081,-0.002355,-88.714012,0.007212,
980,200,0.346465,-18.908318,0.999997,0.000198,-0.001868,0.007544,0.000604,0.007583,-0.001907,86.343341,0.007889,
930,250,0.581584,-18.447326,0.999997,0.000214,-0.002572,0.008272,0.000516,0.008297,-0.002597,87.280703,0.008488,
1310,1990,-0.019404,-0.274991,0.999998,0.000179,-0.000247,0.006122,0.000206,0.006129,-0.000254,88.153925,0.006935,
630,1930,0.989052,-1.101430,0.999996,0.000217,-0.004663,0.010565,-0.001564,0.010724,-0.004822,-84.194616,0.010742,
1620,970,-3.054804,-10.684272,0.999997,0.000211,-0.004165,0.010658,-0.000953,0.010719,-0.004226,-86.334741,0.010799,
1830,180,-1.348104,-18.493271,0.999994,0.000293,-0.004719,0.010375,-0.000914,0.010430,-0.004774,-86.546995,0.010443,
1460,230,-0.363472,-18.699384,0.999998,0.000207,-0.001852,0.007620,-0.000421,0.007639,-0.001871,-87.461427,0.007963,
1550,490,-1.103005,-16.253435,0.999997,0.000220,-0.004618,0.009593,0.000787,0.009637,-0.004661,86.839625,0.009639,
1540,900,-2.390123,-11.605146,0.999994,0.000314,-0.005846,0.012484,-0.001426,0.012594,-0.005957,-85.579234,0.012600,
760,280,1.252198,-17.854672,0.999997,0.000211,-0.004118,0.009727,0.000620,0.009754,-0.004146,87.441941,0.009791,
760,40,0.123397,-19.998766,0.999997,0.000233,-0.000265,0.007481,0.002488,0.008211,-0.000995,73.641704,0.008962,
1530,1920,-0.284631,-0.802199,0.999998,0.000195,-0.001334,0.007346,0.000988,0.007457,-0.001445,83.585191,0.007910,
1840,440,-2.418385,-15.819501,0.999996,0.000236,-0.005036,0.010063,0.000131,0.010065,-0.005037,89.503866,0.010065,
1060,680,0.579828,-15.117301,0.999994,0.000266,-0.005330,0.009028,-0.002884,0.009586,-0.005888,-79.057679,0.009669,
1810,1220,-3.551049,-8.266057,0.999996,0.000252,-0.004794,0.009653,0.000764,0.009694,-0.004834,86.983279,0.009694,
1330,1880,-0.098452,-0.985222,0.999998,0.000165,-0.001191,0.006647,0.000140,0.006649,-0.001194,88.975555,0.007090,
720,1410,2.532443,-6.157575,0.999995,0.000239,-0.005489,0.010523,-0.000243,0.010527,-0.005492,-89.131337,0.010530,
1410,990,-2.088147,-11.024562,0.999970,0.000630,-0.009224,0.023652,0.004184,0.024176,-0.009748,82.860340,0.024326,
1790,140,-0.929081,-19.025358,0.999997,0.000251,-0.003663,0.009910,-0.002273,0.010281,-0.004034,-80.741980,0.010360,
1550,1720,-0.813778,-2.467804,0.999996,0.000215,-0.003319,0.008961,0.000061,0.008961,-0.003320,89.716607,0.009061,
1540,640,-1.323793,-14.763098,0.999996,0.000253,-0.006046,0.010816,0.001104,0.010888,-0.006118,86.268425,0.010916,
610,540,2.779176,-14.759326,0.999995,0.000245,-0.005056,0.010181,-0.000030,0.010181,-0.005057,-89.887397,0.010181,
1620,160,-0.525339,-19.093157,0.999996,0.000244,-0.002097,0.008315,-0.001461,0.008516,-0.002299,-82.162966,0.008812,
1660,1410,-2.060683,-5.907784,0.999995,0.000239,-0.005869,0.010874,-0.000028,0.010874,-0.005869,-89.904566,0.010885,
1460,720,-0.981696,-14.318802,0.999996,0.000272,-0.006754,0.011096,0.002231,0.011371,-0.007029,82.984312,0.011476,
1070,340,0.349852,-17.938315,0.999997,0.000205,-0.002469,0.007632,-0.000198,0.007635,-0.002473,-88.875215,0.007792,
1560,2010,-0.067286,-0.172150,0.999999,0.000153,-0.000255,0.006670,0.001243,0.006886,-0.000471,80.121561,0.007694,
1500,1160,-2.115091,-8.339318,0.999995,0.000272,-0.006509,0.013368,0.000887,0.013408,-0.006548,87.451180,0.013409,
680,620,2.664939,-14.148373,0.999995,0.000290,-0.005272,0.010318,0.000160,0.010320,-0.005273,89.411715,0.010321,
790,50,0.145313,-19.935082,0.999998,0.000183,-0.000942,0.007215,0.002002,0.007680,-0.001407,76.925335,0.008177,
850,750,2.133639,-13.213932,0.999995,0.000276,-0.006449,0.011626,0.000419,0.011635,-0.006459,88.673071,0.011659,
1320,1360,-0.220928,-4.633551,0.999996,0.000226,-0.003421,0.006220,-0.002841,0.006995,-0.004196,-74.742819,0.007042,
1750,1150,-3.478989,-8.885477,0.999996,0.000240,-0.004713,0.009863,0.000881,0.009916,-0.004766,86.554146,0.009918,
1880,1150,-4.060382,-9.033247,0.999996,0.000242,-0.004247,0.008663,0.000267,0.008668,-0.004252,88.813708,0.008669,
790,1120,3.198153,-9.135035,0.999996,0.000252,-0.004581,0.010315,-0.000972,0.010378,-0.004645,-86.282517,0.010397,
1330,280,-0.170807,-18.446362,0.999998,0.000176,-0.001934,0.007186,0.000113,0.007187,-0.001935,89.292372,0.007438,
1310,1410,-0.196865,-4.275832,0.999998,0.000195,-0.002961,0.006338,-0.001846,0.006691,-0.003314,-79.172332,0.006691,
1140,150,0.074736,-19.343386,0.999998,0.000135,-0.000965,0.006568,0.000174,0.006572,-0.000969,88.678418,0.007095,
720,790,3.054774,-12.465816,0.999998,0.000208,-0.005282,0.010427,0.000957,0.010486,-0.005340,86.526637,0.010486,
1160,1700,0.150824,-2.232903,0.999998,0.000164,-0.002122,0.007188,0.000098,0.007189,-0.002123,89.394284,0.007388,
930,910,2.405666,-11.499545,0.999996,0.000256,-0.005729,0.012596,0.001423,0.012705,-0.005838,85.585998,0.012719,
970,1000,2.627716,-10.446752,0.999992,0.000328,-0.004120,0.013484,0.000449,0.013496,-0.004131,88.538912,0.013830,
840,1630,1.311675,-3.500783,0.999996,0.000210,-0.004689,0.009793,0.000358,0.009802,-0.004698,88.584172,0.009805,
630,1910,1.138197,-1.311218,0.999997,0.000238,-0.004768,0.010428,-0.001258,0.010531,-0.004871,-85.299098,0.010541,
1390,1620,-0.415239,-2.958421,0.999997,0.000223,-0.003223,0.007884,-0.000851,0.007949,-0.003288,-85.643732,0.007988,
1550,470,-1.070389,-16.444588,0.999997,0.000222,-0.004477,0.009527,0.000708,0.009563,-0.004513,87.111461,0.009568,
660,990,3.863144,-10.430106,0.999997,0.000223,-0.004338,0.009232,0.000256,0.009237,-0.004343,88.920078,0.009243,
930,230,0.527123,-18.618234,0.999997,0.000213,-0.002351,0.008133,0.000626,0.008170,-0.002389,86.594203,0.008402,
1500,1450,-1.027733,-4.848779,0.999995,0.000276,-0.005516,0.010090,-0.001510,0.010235,-0.005661,-84.523238,0.010254,
1880,460,-2.676460,-15.487133,0.999995,0.000277,-0.004940,0.010074,0.000043,0.010074,-0.004941,89.836375,0.010075,
1540,880,-2.278221,-11.855277,0.999994,0.000307,-0.006276,0.012622,-0.001257,0.012706,-0.006359,-86.210064,0.012706,
1310,1880,-0.077158,-0.978620,0.999998,0.000170,-0.000986,0.006622,0.000142,0.006625,-0.000989,88.929753,0.007147,
1060,640,0.558890,-15.469605,0.999995,0.000265,-0.004732,0.008710,-0.002456,0.009144,-0.005167,-79.964959,0.009170,
1050,1010,2.149669,-10.512161,0.999975,0.000610,-0.009633,0.024477,-0.001929,0.024585,-0.009741,-86.773272,0.024761,
600,390,2.381659,-16.244566,0.999997,0.000202,-0.004950,0.009961,-0.000119,0.009962,-0.004951,-89.543439,0.009962,
1310,1970,-0.029827,-0.398442,0.999998,0.000181,-0.000368,0.006213,0.000195,0.006218,-0.000374,88.301208,0.006975,
720,1220,3.221564,-8.163966,0.999996,0.000251,-0.005125,0.010342,-0.001063,0.010414,-0.005198,-86.087111,0.010414,
1260,1620,-0.071632,-2.783590,0.999998,0.000181,-0.002400,0.007061,-0.000244,0.007067,-0.002406,-88.520832,0.007186,
1620,140,-0.447427,-19.261210,0.999997,0.000229,-0.001771,0.008054,-0.001532,0.008287,-0.002004,-81.340911,0.008647,
1460,180,-0.275624,-19.072333,0.999998,0.000203,-0.001387,0.007246,-0.000596,0.007287,-0.001428,-86.072792,0.007723,
1490,1220,-1.661263,-7.471546,0.999992,0.000334,-0.007702,0.013287,-0.000283,0.013291,-0.007706,-89.227592,0.013347,
1870,1150,-4.017626,-9.017813,0.999996,0.000230,-0.004280,0.008788,0.000309,0.008795,-0.004287,88.647378,0.008796,
670,660,2.851201,-13.706427,0.999996,0.000239,-0.005262,0.010352,0.000313,0.010359,-0.005268,88.853907,0.010359,
850,730,2.057972,-13.447500,0.999995,0.000256,-0.006419,0.011591,0.000247,0.011595,-0.006422,89.215187,0.011617,
1510,360,-0.728538,-17.553925,0.999997,0.000231,-0.003585,0.008592,0.000320,0.008600,-0.003593,88.497371,0.008639,
860,270,0.839360,-18.165189,0.999996,0.000241,-0.003444,0.008913,0.000512,0.008934,-0.003465,87.630522,0.009008,
1550,1540,-1.141954,-4.146072,0.999996,0.000253,-0.004915,0.009773,-0.000904,0.009828,-0.004971,-86.489997,0.009829,
1660,110,-0.396119,-19.476886,0.999997,0.000227,-0.001934,0.008139,-0.001872,0.008475,-0.002270,-79.805898,0.008775,
1590,40,-0.068544,-20.017409,0.999998,0.000167,-0.000517,0.006690,-0.001382,0.006946,-0.000773,-79.508770,0.007614,
1540,620,-1.278207,-14.982309,0.999996,0.000253,-0.005844,0.010523,0.001111,0.010598,-0.005919,86.134578,0.010623,
1320,1320,-0.224458,-4.878184,0.999997,0.000229,-0.003683,0.005958,-0.003441,0.007060,-0.004785,-72.239751,0.007208,
930,890,2.293711,-11.750089,0.999995,0.000247,-0.006221,0.012681,0.001284,0.012768,-0.006308,86.132253,0.012768,
740,790,2.949135,-12.502033,0.999997,0.000276,-0.005423,0.010646,0.001007,0.010708,-0.005486,86.427342,0.010709,
1640,1410,-1.942940,-5.841682,0.999994,0.000275,-0.005941,0.010969,-0.000169,0.010971,-0.005943,-89.429029,0.010983,
1000,1690,0.575849,-2.542823,0.999997,0.000221,-0.002982,0.008272,0.000302,0.008280,-0.002990,88.464501,0.008386,
1440,390,-0.537688,-17.452412,0.999996,0.000223,-0.003089,0.008203,0.000457,0.008221,-0.003107,87.684214,0.008303,
1220,60,0.002947,-19.917972,0.999998,0.000158,-0.000287,0.006043,0.000049,0.006044,-0.000287,89.555544,0.006819,
1310,1370,-0.188603,-4.514476,0.999996,0.000234,-0.003101,0.005958,-0.002427,0.006567,-0.003711,-75.906657,0.006586,
1700,1910,-0.657481,-1.018222,0.999996,0.000222,-0.002608,0.008875,0.001972,0.009204,-0.002937,80.523359,0.009402,
760,480,1.838371,-15.855397,0.999997,0.000217,-0.005080,0.010159,-0.000288,0.010164,-0.005085,-88.918582,0.010164,
1810,1280,-3.346804,-7.671451,0.999996,0.000232,-0.005031,0.010011,0.000737,0.010047,-0.005067,87.202160,0.010047,
1570,620,-1.457288,-14.854076,0.999994,0.000308,-0.005960,0.010675,0.000869,0.010720,-0.006005,87.017880,0.010746,
1420,150,-0.172800,-19.307951,0.999997,0.000228,-0.001278,0.006920,-0.000464,0.006946,-0.001304,-86.769234,0.007384,
950,1000,2.710072,-10.414399,0.999996,0.000215,-0.003869,0.012536,0.000556,0.012555,-0.003888,88.059634,0.012855,
600,1510,2.842443,-5.483798,0.999997,0.000188,-0.005054,0.010195,0.000039,0.010195,-0.005054,89.852510,0.010195,
1030,1880,0.230130,-1.034483,0.999999,0.000169,-0.001503,0.007069,-0.000439,0.007091,-0.001525,-87.073242,0.007465,
640,990,3.949397,-10.424716,0.999997,0.000215,-0.004311,0.009052,0.000211,0.009055,-0.004314,89.096715,0.009058,
1540,860,-2.167256,-12.109592,0.999994,0.000306,-0.006637,0.012691,-0.001025,0.012745,-0.006691,-86.972384,0.012750,
630,1890,1.269997,-1.521384,0.999996,0.000244,-0.004784,0.010456,-0.001002,0.010522,-0.004850,-86.254026,0.010532,
1550,450,-1.035060,-16.635086,0.999996,0.000221,-0.004413,0.009459,0.000643,0.009488,-0.004442,87.353089,0.009495,
1550,190,-0.458521,-18.923614,0.999996,0.000231,-0.001938,0.007928,-0.000942,0.008017,-0.002027,-84.593701,0.008337,
570,1620,2.665312,-4.460556,0.999869,0.001332,-0.006439,0.009550,0.001094,0.009624,-0.006513,86.104170,0.009823,
1160,1680,0.156749,-2.378538,0.999998,0.000159,-0.002260,0.007184,0.000169,0.007187,-0.002263,88.977407,0.007350,
1710,1930,-0.583930,-0.856135,0.999996,0.000221,-0.002034,0.008823,0.002368,0.009317,-0.002528,78.214023,0.009636,
1060,100,0.085780,-19.653295,0.999998,0.000187,-0.000681,0.006523,0.000458,0.006552,-0.000710,86.377240,0.007191,
1050,1000,2.144375,-10.761527,0.999961,0.000756,-0.009302,0.024218,-0.003062,0.024495,-0.009579,-84.822344,0.024689,
1620,210,-0.707059,-18.668092,0.999996,0.000202,-0.002759,0.008694,-0.001082,0.008795,-0.002860,-84.651573,0.008973,
930,610,1.220145,-15.113860,0.999995,0.000272,-0.005695,0.010385,-0.001174,0.010471,-0.005780,-85.846439,0.010489,
1540,1340,-1.519391,-6.242309,0.999994,0.000277,-0.006844,0.011675,-0.000739,0.011704,-0.006874,-87.716969,0.011763,
1360,230,-0.185035,-18.781577,0.999997,0.000196,-0.001549,0.007058,-0.000148,0.007061,-0.001552,-89.018333,0.007421,
800,980,3.257273,-10.563091,0.999996,0.000247,-0.004190,0.010204,0.000597,0.010229,-0.004215,87.628432,0.010281,
690,100,0.596662,-19.453525,0.999995,0.000271,-0.003018,0.009162,0.002592,0.009691,-0.003546,78.472828,0.009806,
1460,160,-0.237854,-19.217669,0.999998,0.000179,-0.001230,0.007182,-0.000670,0.007235,-0.001283,-85.475736,0.007721,
1510,1220,-1.812518,-7.591022,0.999995,0.000293,-0.007377,0.013095,0.000194,0.013097,-0.007378,89.458315,0.013132,
1860,1150,-3.974911,-9.000419,0.999997,0.000204,-0.004343,0.008900,0.000373,0.008911,-0.004353,88.385832,0.008911,
720,1200,3.288285,-8.370199,0.999997,0.000229,-0.005015,0.010144,-0.001046,0.010215,-0.005087,-86.071221,0.010215,
1260,1600,-0.068803,-2.925529,0.999998,0.000161,-0.002432,0.006938,-0.000293,0.006947,-0.002442,-88.213623,0.007048,
590,1570,2.716612,-4.905445,0.999996,0.000250,-0.005088,0.010068,0.000078,0.010068,-0.005088,89.705602,0.010068,
1710,200,-0.954908,-18.614669,0.999995,0.000239,-0.003364,0.009581,-0.001503,0.009753,-0.003536,-83.464679,0.009875,
1020,620,0.742049,-15.436565,0.999995,0.000253,-0.005185,0.009352,-0.002121,0.009655,-0.005488,-81.866522,0.009685,
1660,150,-0.569739,-19.144146,0.999997,0.000230,-0.002654,0.008568,-0.001606,0.008794,-0.002880,-82.012494,0.008966,
910,280,0.700600,-18.169025,0.999997,0.000205,-0.002855,0.008602,0.000431,0.008618,-0.002871,87.846505,0.008776,
1620,120,-0.375396,-19.418267,0.999997,0.000212,-0.001509,0.007929,-0.001635,0.008204,-0.001784,-80.445766,0.008629,
1540,600,-1.243292,-15.190865,0.999996,0.000243,-0.005622,0.010335,0.001103,0.010411,-0.005698,86.063924,0.010427,
1720,510,-2.006536,-15.489331,0.999995,0.000258,-0.005193,0.010304,0.000234,0.010308,-0.005197,89.136166,0.010308,
1550,2010,-0.066850,-0.171329,0.999998,0.000169,-0.000175,0.006602,0.001175,0.006800,-0.000373,80.437734,0.007646,
680,600,2.602613,-14.355611,0.999996,0.000264,-0.005234,0.010365,0.000085,0.010366,-0.005234,89.688480,0.010366,
660,790,3.364351,-12.352199,0.999996,0.000233,-0.005010,0.010065,0.000803,0.010107,-0.005053,86.957980,0.010107,
1840,420,-2.358989,-16.019747,0.999996,0.000236,-0.004988,0.010025,0.000133,0.010026,-0.004989,89.492978,0.010026,
1580,1360,-1.723137,-6.182293,0.999995,0.000252,-0.006525,0.011443,-0.000394,0.011451,-0.006533,-88.743894,0.011489,
1580,1410,-1.579666,-5.620146,0.999995,0.000267,-0.006159,0.010996,-0.000671,0.011022,-0.006185,-87.762068,0.011050,
1210,1990,0.006817,-0.272828,0.999998,0.000149,-0.000325,0.006083,-0.000059,0.006084,-0.000325,-89.472140,0.006844,
930,870,2.172290,-12.009882,0.999995,0.000260,-0.006591,0.012749,0.001106,0.012812,-0.006654,86.738099,0.012815,
590,1750,2.143991,-3.104974,0.999998,0.000193,-0.004797,0.009868,0.000036,0.009868,-0.004797,89.859655,0.009869,
640,1650,2.227493,-3.931550,0.999994,0.000303,-0.004979,0.010080,0.000108,0.010080,-0.004979,89.589403,0.010081,
1680,1910,-0.601242,-0.997887,0.999995,0.000257,-0.002765,0.008673,0.001728,0.008928,-0.003020,81.593635,0.009082,
1600,970,-2.973066,-10.696457,0.999997,0.000216,-0.004139,0.010841,-0.000993,0.010906,-0.004204,-86.224364,0.011001,
1010,1880,0.258675,-1.047715,0.999998,0.000190,-0.001329,0.007189,-0.000579,0.007228,-0.001368,-86.128488,0.007679,
1540,840,-2.053933,-12.363827,0.999993,0.000309,-0.006891,0.012734,-0.000742,0.012762,-0.006919,-87.837600,0.012777,
700,1680,1.843899,-3.430836,0.999996,0.000231,-0.004872,0.010104,0.000056,0.010104,-0.004873,89.786412,0.010106,
1310,1350,-0.186340,-4.633462,0.999996,0.000239,-0.003198,0.005791,-0.002753,0.006567,-0.003974,-74.257378,0.006615,
1500,1140,-2.242981,-8.606242,0.999996,0.000249,-0.006019,0.013318,0.001062,0.013376,-0.006078,86.865862,0.013395,
850,710,1.986342,-13.680027,0.999995,0.000268,-0.006347,0.011459,0.000067,0.011459,-0.006348,89.784509,0.011482,
1360,890,-1.188447,-13.687153,0.999990,0.000359,-0.003057,0.007380,0.005213,0.009538,-0.005214,67.516656,0.009552,
1480,1590,-0.763010,-3.449772,0.999997,0.000242,-0.003972,0.008849,-0.000908,0.008913,-0.004036,-85.968831,0.008926,
1750,1170,-3.421720,-8.683781,0.999996,0.000249,-0.004836,0.010098,0.001055,0.010173,-0.004910,85.980033,0.010175,
1410,980,-2.065479,-11.251745,0.999970,0.000638,-0.008632,0.022236,0.004965,0.023015,-0.009411,81.084307,0.023142,
590,1180,3.963013,-8.759007,0.999996,0.000222,-0.004299,0.008844,-0.000243,0.008849,-0.004303,-88.943300,0.008850,
600,370,2.318268,-16.445788,0.999997,0.000218,-0.004913,0.009937,-0.000095,0.009937,-0.004913,-89.633014,0.009937,
1060,80,0.064241,-19.781791,0.999998,0.000175,-0.000487,0.006393,0.000472,0.006426,-0.000519,86.091091,0.007139,
1400,150,-0.146006,-19.318703,0.999998,0.000199,-0.001066,0.006817,-0.000398,0.006837,-0.001086,-87.117310,0.007348,
1020,600,0.723232,-15.632078,0.999996,0.000249,-0.004937,0.009242,-0.001916,0.009496,-0.005192,-82.438396,0.009510,
1550,430,-0.999892,-16.825177,0.999997,0.000185,-0.004316,0.009336,0.000579,0.009361,-0.004341,87.576015,0.009369,
1780,970,-3.748560,-10.626556,0.999997,0.000212,-0.004418,0.009400,-0.000361,0.009410,-0.004427,-88.504860,0.009415,
630,1870,1.394528,-1.732937,0.999996,0.000256,-0.004792,0.010321,-0.000812,0.010365,-0.004835,-86.933372,0.010372,
1150,340,0.165204,-18.028557,0.999997,0.000209,-0.002141,0.007174,-0.000175,0.007177,-0.002144,-88.923152,0.007369,
1460,140,-0.202544,-19.360010,0.999998,0.000192,-0.001001,0.006999,-0.000691,0.007058,-0.001060,-85.098030,0.007612,
1540,1560,-1.065617,-3.921851,0.999997,0.000211,-0.004603,0.009527,-0.000840,0.009576,-0.004652,-86.609540,0.009578,
1340,230,-0.153465,-18.793490,0.999997,0.000211,-0.001615,0.006978,-0.000050,0.006978,-0.001615,-89.668488,0.007306,
1580,40,-0.061548,-20.019905,0.999999,0.000134,-0.000502,0.006686,-0.001303,0.006915,-0.000731,-80.035110,0.007597,
1160,1660,0.162970,-2.519844,0.999998,0.000169,-0.002358,0.007222,0.000259,0.007229,-0.002365,88.455102,0.007371,
640,790,3.462426,-12.310708,0.999996,0.000230,-0.004931,0.009913,0.000705,0.009947,-0.004964,87.287573,0.009947,
1540,1020,-2.835109,-10.163275,0.999997,0.000228,-0.003576,0.011340,-0.000159,0.011342,-0.003577,-89.390608,0.011597,
1580,1340,-1.787809,-6.415732,0.999996,0.000205,-0.006652,0.011676,-0.000248,0.011680,-0.006655,-89.225772,0.011717,
930,850,2.063444,-12.264212,0.999995,0.000251,-0.006902,0.012848,0.000801,0.012881,-0.006934,87.679976,0.012893,
1390,1220,-0.883223,-6.492683,0.999995,0.000259,-0.007173,0.011071,-0.003572,0.011745,-0.007847,-79.306332,0.011965,
1170,1700,0.130101,-2.229580,0.999998,0.000169,-0.002085,0.007149,0.000074,0.007150,-0.002086,89.542637,0.007354,
1700,510,-1.902297,-15.553998,0.999995,0.000245,-0.005235,0.010329,0.000290,0.010334,-0.005241,88.934173,0.010335,
910,300,0.751319,-17.992699,0.999998,0.000182,-0.003072,0.008655,0.000274,0.008661,-0.003078,88.663095,0.008781,
1580,970,-2.887967,-10.711150,0.999997,0.000219,-0.004129,0.011081,-0.001042,0.011152,-0.004200,-86.099357,0.011264,
1110,1880,0.127828,-0.995099,0.999997,0.000195,-0.001114,0.006745,-0.000222,0.006751,-0.001120,-88.382394,0.007236,
920,1410,1.353083,-5.464362,0.999996,0.000277,-0.006112,0.010897,0.001079,0.010966,-0.006180,86.385106,0.010995,
1060,60,0.042333,-19.909490,0.999998,0.000180,-0.000346,0.006284,0.000487,0.006320,-0.000382,85.824560,0.007087,
630,1090,3.970192,-9.516953,0.999997,0.000227,-0.004296,0.008927,-0.000194,0.008930,-0.004299,-89.159894,0.008932,
610,60,0.509807,-19.680709,0.999993,0.000294,-0.004134,0.010674,0.003101,0.011297,-0.004757,78.638105,0.011343,
770,860,3.054759,-11.797713,0.999997,0.000207,-0.005208,0.010656,0.001204,0.010747,-0.005299,85.684320,0.010747,
720,1180,3.353847,-8.572680,0.999996,0.000241,-0.004923,0.010159,-0.001089,0.010237,-0.005002,-85.890693,0.010238,
1460,120,-0.165714,-19.497580,0.999998,0.000180,-0.000847,0.006934,-0.000769,0.007009,-0.000923,-84.408166,0.007617,
1210,1970,0.009998,-0.396048,0.999998,0.000173,-0.000447,0.006163,-0.000044,0.006163,-0.000447,-89.618731,0.006873,
1890,980,-4.220757,-10.477758,0.999997,0.000199,-0.004017,0.008155,-0.000066,0.008155,-0.004018,-89.690344,0.008155,
1690,300,-1.268176,-17.689945,0.999996,0.000225,-0.004284,0.009662,-0.000359,0.009672,-0.004294,-88.526402,0.009692,
1510,2010,-0.055563,-0.167578,0.999998,0.000213,-0.000427,0.006473,0.000858,0.006578,-0.000532,83.016647,0.007307,
1310,1850,-0.093673,-1.178749,0.999998,0.000164,-0.001216,0.006766,0.000146,0.006769,-0.001219,88.950224,0.007216,
770,1620,1.671157,-3.817053,0.999996,0.000226,-0.004933,0.010080,0.000258,0.010085,-0.004937,89.015764,0.010085,
590,1510,2.893820,-5.516029,0.999997,0.000188,-0.005065,0.010198,0.000023,0.010198,-0.005065,89.912274,0.010199,
680,580,2.539614,-14.564325,0.999996,0.000228,-0.005217,0.010330,0.000023,0.010330,-0.005217,89.914358,0.010330,
1540,820,-1.950741,-12.620312,0.999993,0.000289,-0.007077,0.012696,-0.000457,0.012706,-0.007088,-88.675766,0.012735,
1730,200,-1.020721,-18.582161,0.999996,0.000237,-0.003679,0.009764,-0.001399,0.009909,-0.003823,-84.119691,0.009994,
580,1470,3.067472,-5.955985,0.999995,0.000249,-0.004815,0.010212,0.000047,0.010212,-0.004815,89.821488,0.010218,
580,1180,4.006390,-8.780205,0.999996,0.000217,-0.004151,0.008693,-0.000117,0.008694,-0.004152,-89.476062,0.008697,
930,590,1.186351,-15.319746,0.999996,0.000254,-0.005509,0.010229,-0.001164,0.010314,-0.005595,-85.794530,0.010327,
1580,1040,-2.970457,-9.942852,0.999996,0.000262,-0.003665,0.010848,0.000283,0.010854,-0.003670,88.884450,0.011041,
910,660,1.448940,-14.485932,0.999995,0.000269,-0.006296,0.011133,-0.000909,0.011180,-0.006343,-87.022775,0.011214,
1880,1830,-1.839291,-2.349082,0.999998,0.000212,-0.004858,0.009843,0.000258,0.009847,-0.004863,88.995003,0.009848,
850,690,1.918744,-13.910139,0.999996,0.000231,-0.006273,0.011294,-0.000095,0.011294,-0.006274,-89.691131,0.011317,
1410,1040,-2.121353,-9.765784,0.999974,0.000589,-0.010083,0.025445,-0.001600,0.025517,-0.010155,-87.426353,0.025694,
760,740,2.645659,-13.085106,0.999994,0.000300,-0.005729,0.010813,0.000721,0.010844,-0.005761,87.508918,0.010851,
1740,1890,-0.877390,-1.260196,0.999997,0.000191,-0.003696,0.009584,0.001686,0.009795,-0.003907,82.877837,0.009862,
1840,400,-2.297255,-16.222659,0.999996,0.000221,-0.004965,0.010046,0.000140,0.010047,-0.004966,89.466278,0.010047,
1230,1700,0.003274,-2.202893,0.999998,0.000181,-0.002167,0.007044,0.000021,0.007044,-0.002167,89.866265,0.007216,
1260,150,-0.025599,-19.352116,0.999998,0.000168,-0.000852,0.006486,-0.000054,0.006487,-0.000853,-89.576556,0.007050,
1540,1040,-2.827844,-9.941917,0.999997,0.000227,-0.003614,0.011398,0.000300,0.011404,-0.003620,88.857425,0.011655,
640,1370,3.092711,-6.793515,0.999997,0.000222,-0.005113,0.010113,-0.000399,0.010124,-0.005124,-88.499327,0.010124,
1560,310,-0.793885,-17.894738,0.999997,0.000219,-0.003317,0.008776,-0.000176,0.008778,-0.003319,-89.165914,0.008865,
630,1070,3.988947,-9.695963,0.999997,0.000240,-0.004278,0.008943,-0.000208,0.008947,-0.004281,-89.097034,0.008949,
1710,1910,-0.683116,-1.030723,0.999996,0.000214,-0.002438,0.008976,0.002085,0.009345,-0.002807,79.966671,0.009590,
1150,1800,0.125081,-1.524642,0.999998,0.000181,-0.001595,0.006985,-0.000034,0.006986,-0.001595,-89.772822,0.007321,
1780,950,-3.716631,-10.815577,0.999997,0.000209,-0.004505,0.009573,-0.000679,0.009606,-0.004538,-87.245994,0.009611,
1310,1330,-0.187569,-4.750913,0.999997,0.000229,-0.003330,0.005546,-0.003075,0.006508,-0.004291,-72.640760,0.006617,
1880,70,-0.723721,-19.465917,0.999996,0.000248,-0.003950,0.012240,-0.003499,0.012964,-0.004674,-78.311153,0.013131,
1430,1280,-0.921066,-6.235178,0.999994,0.000309,-0.007381,0.011619,-0.002845,0.012035,-0.007797,-81.663491,0.012210,
890,1120,2.737900,-9.045343,0.999996,0.000247,-0.004766,0.011536,-0.001430,0.011660,-0.004891,-85.024314,0.011711,
920,1390,1.398779,-5.684423,0.999995,0.000277,-0.006354,0.011130,0.001006,0.011188,-0.006412,86.716198,0.011228,
1750,1610,-1.981007,-4.100846,0.999996,0.000236,-0.004987,0.010147,-0.000194,0.010149,-0.004990,-89.265036,0.010150,
1080,90,0.068282,-19.719589,0.999998,0.000162,-0.000422,0.006377,0.000415,0.006402,-0.000447,86.519930,0.007148,
1550,390,-0.923556,-17.200334,0.999996,0.000227,-0.003884,0.009083,0.000296,0.009089,-0.003891,88.691244,0.009121,
850,1000,3.078690,-10.369695,0.999997,0.000230,-0.003856,0.010507,0.000440,0.010520,-0.003870,88.248938,0.010642,
930,280,0.644862,-18.200055,0.999996,0.000230,-0.002870,0.008496,0.000335,0.008505,-0.002880,88.312155,0.008652,
1030,340,0.462072,-17.871722,0.999997,0.000221,-0.002830,0.007883,-0.000291,0.007891,-0.002838,-88.444548,0.007994,
880,40,0.064871,-20.018685,0.999998,0.000175,-0.000538,0.006718,0.001330,0.006954,-0.000774,79.933572,0.007622,
1790,280,-1.647888,-17.602418,0.999996,0.000217,-0.004738,0.010101,-0.000409,0.010112,-0.004749,-88.423074,0.010119,
580,1750,2.192499,-3.142909,0.999997,0.000225,-0.004561,0.009840,0.000074,0.009840,-0.004561,89.707313,0.009849,
940,870,2.106789,-12.046805,0.999995,0.000267,-0.006740,0.012920,0.000952,0.012966,-0.006786,87.233957,0.012971,
720,1160,3.418780,-8.777894,0.999996,0.000236,-0.004793,0.010083,-0.001032,0.010154,-0.004865,-86.049148,0.010157,
1410,1220,-1.029794,-6.743975,0.999995,0.000247,-0.007611,0.012056,-0.002925,0.012482,-0.008036,-81.718511,0.012653,
750,320,1.431876,-17.434739,0.999997,0.000221,-0.004376,0.009830,0.000277,0.009835,-0.004381,88.883985,0.009855,
1460,100,-0.129775,-19.637149,0.999997,0.000203,-0.000639,0.006752,-0.000744,0.006826,-0.000713,-84.309594,0.007504,
800,960,3.214524,-10.771525,0.999996,0.000258,-0.004331,0.010358,0.000927,0.010416,-0.004390,86.402090,0.010459,
1500,600,-1.019547,-15.363746,0.999996,0.000223,-0.005448,0.010055,0.001509,0.010200,-0.005594,84.492019,0.010216,
1540,1320,-1.582837,-6.478253,0.999994,0.000291,-0.007004,0.011920,-0.000579,0.011938,-0.007022,-88.248103,0.012000,
1870,1830,-1.788427,-2.305413,0.999997,0.000277,-0.004898,0.009930,0.000277,0.009935,-0.004903,88.929349,0.009936,
1060,2010,0.026613,-0.158077,0.999998,0.000162,-0.000243,0.006149,-0.000424,0.006177,-0.000271,-86.223445,0.006981,
870,40,0.071538,-20.017404,0.999998,0.000174,-0.000494,0.006772,0.001392,0.007029,-0.000752,79.516628,0.007720,
1050,1990,0.052195,-0.284546,0.999998,0.000153,-0.000463,0.006346,-0.000535,0.006388,-0.000505,-85.533227,0.007102,
1380,1150,-1.420231,-7.038738,0.999990,0.000367,-0.003941,0.010472,-0.006104,0.012709,-0.006179,-69.867988,0.012711,
1210,1950,0.013468,-0.520852,0.999998,0.000176,-0.000597,0.006259,-0.000059,0.006260,-0.000598,-89.508075,0.006909,
1620,100,-0.295513,-19.579256,0.999997,0.000214,-0.001162,0.007615,-0.001640,0.007911,-0.001459,-79.755442,0.008420,
1560,1410,-1.455463,-5.536280,0.999995,0.000258,-0.006148,0.010946,-0.000862,0.010989,-0.006191,-87.120898,0.011019,
1310,1830,-0.104222,-1.314502,0.999997,0.000187,-0.001367,0.006862,0.000103,0.006863,-0.001369,89.281350,0.007264,
1580,1320,-1.858463,-6.652900,0.999996,0.000242,-0.006708,0.011804,-0.000060,0.011804,-0.006708,-89.813755,0.011841,
770,1600,1.722302,-4.019850,0.999996,0.000233,-0.004997,0.010117,0.000275,0.010122,-0.005002,88.956473,0.010122,
610,420,2.422406,-15.976385,0.999997,0.000232,-0.004973,0.010000,-0.000123,0.010001,-0.004974,-89.528451,0.010001,
1290,1700,-0.124122,-2.228359,0.999998,0.000174,-0.002060,0.007149,-0.000088,0.007150,-0.002061,-89.449853,0.007361,
760,780,2.799000,-12.650578,0.999997,0.000244,-0.005640,0.010916,0.000978,0.010974,-0.005697,86.631680,0.010976,
580,1570,2.766881,-4.936771,0.999996,0.000225,-0.005205,0.009999,0.000124,0.010000,-0.005206,89.533824,0.010002,
580,1510,2.944224,-5.546396,0.999997,0.000206,-0.005047,0.010202,0.000004,0.010202,-0.005047,89.985045,0.010202,
1750,1020,-3.658710,-10.153557,0.999996,0.000239,-0.004317,0.009656,-0.000155,0.009657,-0.004318,-89.363590,0.009675,
1010,1790,0.407641,-1.724005,0.999997,0.000217,-0.002163,0.007714,-0.000223,0.007719,-0.002168,-88.707191,0.007962,
930,830,1.952674,-12.524036,0.999995,0.000256,-0.007088,0.012839,0.000534,0.012854,-0.007103,88.466821,0.012877,
680,560,2.479332,-14.772497,0.999996,0.000227,-0.005224,0.010257,-0.000025,0.010257,-0.005224,-89.907690,0.010258,
930,570,1.150754,-15.524421,0.999996,0.000252,-0.005362,0.010121,-0.001153,0.010207,-0.005448,-85.764497,0.010214,
1740,1870,-0.985939,-1.453708,0.999997,0.000215,-0.003901,0.009663,0.001412,0.009809,-0.004046,84.119189,0.009859,
850,890,2.750325,-11.571698,0.999996,0.000237,-0.005320,0.011357,0.001424,0.011478,-0.005440,85.154274,0.011483,
1770,640,-2.663124,-13.977767,0.999995,0.000269,-0.005351,0.010383,-0.000260,0.010387,-0.005355,-89.052738,0.010389,
880,230,0.657869,-18.550752,0.999996,0.000239,-0.003083,0.008556,0.000694,0.008597,-0.003124,86.597574,0.008704,
1540,800,-1.851564,-12.873892,0.999993,0.000318,-0.007159,0.012530,-0.000186,0.012532,-0.007161,-89.458091,0.012575,
570,1180,4.047214,-8.804392,0.999994,0.000283,-0.004075,0.008529,-0.000020,0.008529,-0.004075,-89.907929,0.008532,
680,1370,2.885268,-6.688083,0.999997,0.000212,-0.005286,0.010335,-0.000437,0.010347,-0.005298,-88.399534,0.010348,
970,1390,1.085013,-5.434921,0.999995,0.000261,-0.006189,0.010741,0.001710,0.010912,-0.006360,84.289134,0.010962,
1540,1060,-2.803835,-9.706987,0.999996,0.000242,-0.003783,0.011723,0.000702,0.011755,-0.003815,87.411447,0.011994,
1310,1310,-0.192811,-4.863970,0.999996,0.000232,-0.003477,0.005378,-0.003420,0.006545,-0.004644,-71.157910,0.006734,
1760,970,-3.659505,-10.632362,0.999996,0.000240,-0.004444,0.009576,-0.000435,0.009590,-0.004457,-88.223160,0.009598,
1160,1640,0.167101,-2.665981,0.999998,0.000166,-0.002462,0.007245,0.000345,0.007257,-0.002474,87.969695,0.007379,
720,1140,3.471420,-8.978293,0.999997,0.000216,-0.004633,0.009837,-0.000843,0.009885,-0.004682,-86.678062,0.009890,
1680,1090,-3.301640,-9.447277,0.999996,0.000261,-0.004349,0.010247,0.000837,0.010294,-0.004397,86.730428,0.010331,
1540,560,-1.170652,-15.599521,0.999995,0.000272,-0.005299,0.010073,0.001076,0.010148,-0.005374,86.015967,0.010154,
890,40,0.058088,-20.021214,0.999998,0.000147,-0.000448,0.006693,0.001300,0.006923,-0.000678,79.998081,0.007633,
1500,580,-0.990311,-15.564722,0.999996,0.000218,-0.005168,0.009860,0.001414,0.009992,-0.005300,84.670055,0.009998,
1540,1280,-1.738297,-6.969714,0.999995,0.000229,-0.007192,0.012317,-0.000146,0.012318,-0.007193,-89.571400,0.012375,
800,940,3.166277,-10.979905,0.999996,0.000248,-0.004499,0.010354,0.000977,0.010418,-0.004563,86.252180,0.010444,
610,600,2.963098,-14.144900,0.999998,0.000189,-0.005081,0.010164,0.000071,0.010165,-0.005081,89.733215,0.010165,
920,870,2.240506,-11.972932,0.999995,0.000266,-0.006430,0.012581,0.001194,0.012655,-0.006505,86.420382,0.012657,
1590,710,-1.838618,-13.761878,0.999996,0.000224,-0.006536,0.011554,0.000166,0.011556,-0.006538,89.474631,0.011589,
1020,1750,0.443588,-2.025600,0.999996,0.000242,-0.002546,0.007818,0.000028,0.007818,-0.002547,89.844230,0.007975,
1310,1340,-0.187761,-4.695559,0.999997,0.000228,-0.003264,0.005670,-0.002915,0.006537,-0.004131,-73.436130,0.006612,
1540,1600,-0.999639,-3.540455,0.999998,0.000189,-0.004449,0.009413,-0.000722,0.009451,-0.004487,-87.025161,0.009455,
860,40,0.076663,-20.017062,0.999998,0.000165,-0.000340,0.006821,0.001485,0.007117,-0.000635,78.736089,0.007877,
1580,1020,-2.975111,-10.163457,0.999996,0.000252,-0.003651,0.010881,-0.000186,0.010883,-0.003654,-89.268700,0.011077,
1310,1810,-0.113911,-1.454291,0.999998,0.000173,-0.001503,0.006935,0.000063,0.006936,-0.001503,89.572175,0.007297,
1620,1470,-1.661816,-5.120804,0.999996,0.000246,-0.005639,0.010604,-0.000521,0.010621,-0.005656,-88.163303,0.010628,
750,1620,1.769596,-3.879831,0.999995,0.000257,-0.004960,0.010080,0.000200,0.010083,-0.004963,89.240169,0.010083,
1050,2010,0.029815,-0.159606,0.999999,0.000120,-0.000289,0.006185,-0.000469,0.006218,-0.000323,-85.877537,0.007001,
1220,200,0.014647,-19.025276,0.999998,0.000177,-0.001223,0.006648,-0.000006,0.006648,-0.001223,-89.956937,0.007077,
1620,320,-1.040265,-17.674042,0.999997,0.000196,-0.003758,0.009300,-0.000184,0.009303,-0.003760,-89.190896,0.009360,
1400,1270,-0.731925,-6.051909,0.999994,0.000290,-0.007049,0.010648,-0.003584,0.011346,-0.007747,-78.973611,0.011596,
1460,80,-0.098918,-19.768864,0.999998,0.000161,-0.000484,0.006632,-0.000769,0.006714,-0.000566,-83.901547,0.007447,
1430,1220,-1.188718,-6.965869,0.999993,0.000312,-0.007835,0.012767,-0.002212,0.013002,-0.008070,-83.939697,0.013128,
1410,960,-1.972842,-11.658770,0.999975,0.000632,-0.007177,0.018829,0.005812,0.020069,-0.008417,77.959078,0.020156,
1370,340,-0.299708,-17.963121,0.999998,0.000210,-0.002274,0.007459,0.000193,0.007463,-0.002278,88.863491,0.007649,
1310,1700,-0.165096,-2.236138,0.999998,0.000176,-0.002195,0.007237,-0.000171,0.007240,-0.002198,-88.961244,0.007424,
1750,1590,-2.037005,-4.302521,0.999997,0.000218,-0.005030,0.010189,-0.000223,0.010192,-0.005033,-89.160625,0.010192,
1730,1020,-3.572268,-10.153142,0.999997,0.000194,-0.004266,0.009759,-0.000167,0.009761,-0.004268,-89.318040,0.009787,
730,320,1.520123,-17.380503,0.999995,0.000248,-0.004621,0.009952,0.000187,0.009954,-0.004623,89.266537,0.009963,
1560,970,-2.808198,-10.727168,0.999997,0.000224,-0.004062,0.011392,-0.001054,0.011464,-0.004134,-86.117944,0.011612,
1200,90,0.016533,-19.732906,0.999999,0.000173,-0.000427,0.006155,0.000063,0.006155,-0.000428,89.453074,0.006874,
1540,780,-1.762135,-13.128039,0.999993,0.000302,-0.007203,0.012386,0.000087,0.012386,-0.007203,89.746412,0.012441,
760,1220,3.011615,-8.102916,0.999996,0.000224,-0.005337,0.010684,-0.001185,0.010772,-0.005424,-85.792098,0.010772,
630,1850,1.503254,-1.936028,0.999995,0.000260,-0.004817,0.010221,-0.000580,0.010243,-0.004840,-87.792796,0.010249,
1060,930,1.741884,-12.286879,0.999983,0.000513,-0.005785,0.014761,-0.005954,0.016362,-0.007386,-74.952090,0.016387,
860,250,0.784897,-18.340085,0.999996,0.000231,-0.003269,0.008850,0.000665,0.008886,-0.003305,86.868610,0.008983,
930,550,1.116135,-15.730507,0.999996,0.000251,-0.005140,0.009967,-0.001079,0.010044,-0.005216,-85.935222,0.010046,
1580,1300,-1.936830,-6.891221,0.999995,0.000236,-0.006743,0.011923,0.000147,0.011924,-0.006745,89.547915,0.011958,
610,400,2.362699,-16.177850,0.999996,0.000265,-0.004978,0.010020,-0.000129,0.010021,-0.004979,-89.507038,0.010021,
720,1120,3.515816,-9.175510,0.999997,0.000210,-0.004577,0.009837,-0.000826,0.009884,-0.004624,-86.728926,0.009891,
660,1370,2.990042,-6.741148,0.999996,0.000241,-0.005190,0.010196,-0.000428,0.010208,-0.005202,-88.406371,0.010209,
800,920,3.114438,-11.186461,0.999996,0.000237,-0.004704,0.010574,0.001199,0.010668,-0.004797,85.540305,0.010686,
580,1500,2.973977,-5.649292,0.999997,0.000214,-0.005041,0.010204,-0.000009,0.010204,-0.005041,-89.966282,0.010204,
910,1120,2.640890,-9.014972,0.999995,0.000293,-0.004893,0.011882,-0.001446,0.012006,-0.005017,-85.108090,0.012060,
1160,1620,0.172033,-2.808140,0.999998,0.000170,-0.002558,0.007189,0.000434,0.007208,-0.002577,87.456361,0.007305,
1540,1580,-1.032520,-3.730088,0.999997,0.000215,-0.004526,0.009473,-0.000786,0.009517,-0.004570,-86.795133,0.009520,
830,1000,3.155344,-10.365377,0.999998,0.000212,-0.003937,0.010351,0.000427,0.010363,-0.003950,88.289060,0.010461,
1710,780,-2.838426,-12.635741,0.999997,0.000219,-0.005610,0.010825,-0.000945,0.010880,-0.005665,-86.718570,0.010883,
570,1570,2.817778,-4.965961,0.999980,0.000548,-0.005285,0.009917,0.000176,0.009919,-0.005287,89.337198,0.009926,
1580,1000,-2.954808,-10.380082,0.999997,0.000232,-0.003790,0.010836,-0.000530,0.010855,-0.003809,-87.925486,0.011014,
1310,1290,-0.201647,-4.969778,0.999996,0.000235,-0.003688,0.005221,-0.003701,0.006558,-0.005025,-70.139463,0.006861,
1560,40,-0.054943,-20.021795,0.999999,0.000158,-0.000201,0.006659,-0.001245,0.006878,-0.000421,-80.022757,0.007711,
850,40,0.079868,-20.015328,0.999997,0.000192,-0.000218,0.006879,0.001597,0.007222,-0.000561,77.887724,0.008035,
1040,2010,0.033178,-0.160858,0.999998,0.000141,-0.000289,0.006213,-0.000517,0.006254,-0.000330,-85.484321,0.007038,
1350,340,-0.252349,-17.986508,0.999998,0.000187,-0.002329,0.007346,0.000296,0.007355,-0.002338,88.247278,0.007516,
1310,1790,-0.124724,-1.592148,0.999998,0.000172,-0.001638,0.007018,0.000023,0.007018,-0.001638,89.849251,0.007343,
1590,690,-1.774610,-13.992872,0.999995,0.000257,-0.006448,0.011374,0.000305,0.011380,-0.006453,89.018995,0.011414,
850,1300,2.153414,-7.003654,0.999994,0.000269,-0.006489,0.011622,-0.000480,0.011635,-0.006502,-88.481923,0.011662,
1810,340,-1.957403,-16.931212,0.999995,0.000271,-0.004960,0.010035,-0.000016,0.010035,-0.004960,-89.938779,0.010035,
990,1440,0.894770,-4.819787,0.999996,0.000200,-0.005358,0.009819,0.001763,0.010021,-0.005561,83.459442,0.010041,
980,180,0.305403,-19.057601,0.999996,0.000213,-0.001702,0.007398,0.000645,0.007443,-0.001748,85.968131,0.007784,
1890,1590,-2.741403,-4.755197,0.999996,0.000240,-0.004990,0.010051,-0.000076,0.010052,-0.004991,-89.708821,0.010052,
1750,1570,-2.091564,-4.509280,0.999997,0.000209,-0.005085,0.010245,-0.000204,0.010248,-0.005088,-89.237191,0.010248,
1510,1400,-1.171660,-5.415983,0.999996,0.000269,-0.006119,0.010750,-0.001463,0.010876,-0.006245,-85.081068,0.010915,
1020,1730,0.470933,-2.184488,0.999997,0.000218,-0.002706,0.007997,0.000120,0.007998,-0.002707,89.355467,0.008137,
1550,410,-0.961285,-17.013365,0.999996,0.000208,-0.004144,0.009217,0.000462,0.009233,-0.004160,88.022509,0.009248,
1200,1940,0.023131,-0.584984,0.999998,0.000183,-0.000611,0.006316,-0.000081,0.006317,-0.000612,-89.330985,0.006968,
1420,1040,-2.226760,-9.801615,0.999965,0.000716,-0.009512,0.022891,-0.001220,0.022937,-0.009558,-87.845982,0.023043,
1720,1630,-1.776044,-3.800213,0.999997,0.000198,-0.004941,0.010106,-0.000175,0.010108,-0.004943,-89.334913,0.010109,
1620,80,-0.227409,-19.723326,0.999997,0.000206,-0.000877,0.007468,-0.001750,0.007821,-0.001229,-78.623284,0.008411,
1180,90,0.024333,-19.731174,0.999998,0.000149,-0.000356,0.006173,0.000127,0.006175,-0.000358,88.887135,0.006933,
1790,920,-3.696106,-11.098021,0.999996,0.000203,-0.004558,0.009491,-0.000686,0.009525,-0.004592,-87.209397,0.009527,
1890,970,-4.212925,-10.559385,0.999998,0.000182,-0.004025,0.008115,0.000015,0.008115,-0.004025,89.929230,0.008115,
1460,60,-0.061261,-19.904890,0.999998,0.000154,-0.000267,0.006415,-0.000744,0.006497,-0.000349,-83.720221,0.007309,
760,1200,3.087099,-8.321098,0.999997,0.000222,-0.005179,0.010616,-0.001184,0.010704,-0.005267,-85.734946,0.010704,
1660,130,-0.483761,-19.312054,0.999996,0.000269,-0.002331,0.008265,-0.001708,0.008534,-0.002600,-81.064333,0.008748,
860,230,0.718437,-18.520326,0.999996,0.000281,-0.003068,0.008733,0.000806,0.008788,-0.003123,86.110085,0.008909,
1430,1020,-2.330312,-10.229038,0.999978,0.000552,-0.008337,0.020392,0.000472,0.020400,-0.008345,89.058270,0.020512,
1540,760,-1.678682,-13.372524,0.999993,0.000306,-0.007156,0.012209,0.000311,0.012214,-0.007161,89.079866,0.012275,
840,1060,3.111366,-9.741152,0.999997,0.000215,-0.003953,0.010397,-0.000475,0.010413,-0.003968,-88.107509,0.010510,
930,530,1.082802,-15.927628,0.999996,0.000237,-0.004880,0.009716,-0.000989,0.009783,-0.004947,-86.142641,0.009783,
1540,1540,-1.093280,-4.111646,0.999997,0.000223,-0.004780,0.009679,-0.000910,0.009736,-0.004837,-86.414713,0.009736,
680,540,2.417857,-14.978464,0.999996,0.000240,-0.005203,0.010262,-0.000066,0.010262,-0.005204,-89.756784,0.010263,
810,1000,3.234713,-10.363297,0.999998,0.000166,-0.004027,0.010208,0.000392,0.010218,-0.004038,88.422876,0.010293,
980,1370,1.059751,-5.598620,0.999995,0.000272,-0.006401,0.010881,0.001860,0.011079,-0.006599,83.926643,0.011146,
720,1100,3.560471,-9.372910,0.999996,0.000236,-0.004504,0.009861,-0.000716,0.009897,-0.004539,-87.154623,0.009908,
630,1830,1.608973,-2.144553,0.999995,0.000276,-0.004835,0.010138,-0.000451,0.010151,-0.004849,-88.275595,0.010154,
800,40,0.094339,-20.009366,0.999998,0.000170,-0.000788,0.007055,0.001907,0.007494,-0.001227,77.032999,0.008039,
1310,1270,-0.226871,-5.064470,0.999995,0.000277,-0.003921,0.005074,-0.003895,0.006526,-0.005373,-69.554490,0.006966,
600,1130,4.033448,-9.184478,0.999997,0.000208,-0.004309,0.008906,-0.000449,0.008921,-0.004324,-88.054398,0.008922,
1840,380,-2.236277,-16.425337,0.999996,0.000237,-0.004918,0.010070,0.000119,0.010071,-0.004919,89.544178,0.010072,
1750,1480,-2.348902,-5.443314,0.999995,0.000263,-0.005355,0.010393,-0.000040,0.010393,-0.005355,-89.855592,0.010394,
1420,1270,-0.879198,-6.257314,0.999994,0.000273,-0.007390,0.011452,-0.003063,0.011937,-0.007875,-80.994699,0.012138,
1270,340,-0.080348,-18.047320,0.999998,0.000175,-0.002027,0.007072,0.000123,0.007074,-0.002029,89.226094,0.007285,
1500,150,-0.273287,-19.267085,0.999997,0.000182,-0.001616,0.007338,-0.000777,0.007405,-0.001683,-85.075881,0.007764,
1170,2010,0.011608,-0.153273,0.999998,0.000165,-0.000072,0.006021,-0.000142,0.006024,-0.000075,-88.661995,0.006913,
1710,760,-2.761149,-12.852842,0.999995,0.000265,-0.005683,0.010785,-0.000849,0.010828,-0.005727,-87.056654,0.010834,
1770,280,-1.552638,-17.665512,0.999995,0.000252,-0.004774,0.010049,-0.000366,0.010058,-0.004783,-88.588258,0.010062,
640,730,3.250562,-12.908395,0.999995,0.000238,-0.005025,0.010005,0.000520,0.010023,-0.005043,88.020479,0.010023,
1070,1110,1.789123,-7.879698,0.999974,0.000628,-0.005397,0.017011,0.007890,0.019510,-0.007896,72.421956,0.019628,
1720,1610,-1.832690,-4.004051,0.999996,0.000250,-0.004992,0.010125,-0.000218,0.010128,-0.004995,-89.172981,0.010129,
1750,1550,-2.146594,-4.714983,0.999996,0.000223,-0.005169,0.010268,-0.000190,0.010270,-0.005171,-89.294782,0.010270,
800,900,3.040964,-11.404957,0.999997,0.000248,-0.004940,0.010735,0.001322,0.010846,-0.005051,85.212867,0.010854,
990,1420,0.918359,-5.017966,0.999996,0.000234,-0.005632,0.009942,0.001857,0.010160,-0.005851,83.293319,0.010199,
650,660,2.955933,-13.648360,0.999997,0.000216,-0.005156,0.010258,0.000288,0.010264,-0.005161,88.929436,0.010264,
1160,1600,0.176083,-2.953075,0.999998,0.000167,-0.002652,0.007194,0.000534,0.007223,-0.002681,86.902669,0.007303,
1120,880,1.031923,-14.110246,0.999994,0.000298,-0.002684,0.005495,-0.004063,0.007170,-0.004359,-67.594523,0.007226,
1790,1720,-1.843614,-3.114093,0.999997,0.000229,-0.004849,0.010050,0.000006,0.010050,-0.004849,89.977274,0.010052,
1210,1410,0.049483,-4.137042,0.999998,0.000158,-0.002317,0.005410,0.000613,0.005459,-0.002365,85.490543,0.005475,
1890,960,-4.204253,-10.638977,0.999997,0.000203,-0.004064,0.008161,0.000025,0.008161,-0.004064,89.884096,0.008161,
1280,90,-0.022627,-19.731212,0.999998,0.000181,-0.000360,0.006171,-0.000125,0.006173,-0.000362,-88.902585,0.006929,
790,40,0.103825,-20.005658,0.999998,0.000172,-0.000772,0.007108,0.001966,0.007571,-0.001236,76.740998,0.008123,
910,1940,0.253692,-0.662586,0.999998,0.000186,-0.001070,0.007388,-0.001244,0.007567,-0.001249,-81.802237,0.008113,
890,1520,1.297319,-4.431857,0.999996,0.000222,-0.005167,0.010072,0.000826,0.010117,-0.005212,86.907126,0.010118,
680,1530,2.375640,-5.026930,0.999995,0.000244,-0.005180,0.010243,0.000101,0.010244,-0.005180,89.625831,0.010244,
760,1180,3.154611,-8.530329,0.999996,0.000228,-0.005023,0.010455,-0.001160,0.010541,-0.005110,-85.737905,0.010543,
1430,1010,-2.319967,-10.430784,0.999978,0.000590,-0.008181,0.020507,0.001069,0.020547,-0.008221,87.869892,0.020683,
1580,1740,-0.876270,-2.350144,0.999997,0.000193,-0.003787,0.009052,0.000083,0.009053,-0.003788,89.629856,0.009093,
1730,220,-1.116915,-18.383620,0.999996,0.000252,-0.003873,0.009778,-0.001161,0.009876,-0.003971,-85.171715,0.009939,
720,1080,3.591684,-9.570476,0.999996,0.000218,-0.004417,0.009682,-0.000394,0.009693,-0.004428,-88.398907,0.009705,
1560,510,-1.183897,-16.026218,0.999996,0.000254,-0.004954,0.009815,0.000837,0.009862,-0.005001,86.765845,0.009862,
1890,1820,-1.935674,-2.492548,0.999997,0.000188,-0.004838,0.009714,0.000152,0.009715,-0.004840,89.403229,0.009715,
1450,1990,-0.066493,-0.288249,0.999998,0.000185,-0.000347,0.006485,0.000710,0.006558,-0.000420,84.131190,0.007342,
960,1370,1.191102,-5.709317,0.999997,0.000232,-0.006505,0.011128,0.001531,0.011260,-0.006637,85.074567,0.011320,
1310,1250,-0.268933,-5.164151,0.999994,0.000293,-0.004255,0.004848,-0.003843,0.006253,-0.005660,-69.913857,0.006904,
1540,740,-1.600194,-13.621923,0.999995,0.000300,-0.007053,0.011995,0.000545,0.012010,-0.007068,88.361884,0.012073,
930,810,1.849654,-12.777840,0.999995,0.000259,-0.007231,0.012658,0.000214,0.012661,-0.007233,89.384125,0.012704,
1020,580,0.706198,-15.813119,0.999996,0.000252,-0.004644,0.009040,-0.001750,0.009260,-0.004865,-82.824684,0.009264,
840,1250,2.427368,-7.618318,0.999994,0.000301,-0.006198,0.011630,-0.001005,0.011686,-0.006255,-86.783184,0.011696,
1410,800,-0.860282,-13.832769,0.999994,0.000313,-0.007565,0.011393,0.003271,0.011942,-0.008113,80.479382,0.012195,
910,320,0.791749,-17.820858,0.999997,0.000214,-0.003278,0.008777,0.000105,0.008778,-0.003279,89.499814,0.008871,
930,510,1.055191,-16.118590,0.999997,0.000232,-0.004675,0.009568,-0.000930,0.009628,-0.004736,-86.281115,0.009629,
1380,2010,-0.025319,-0.156662,0.999998,0.000178,-0.000094,0.006146,0.000391,0.006170,-0.000119,86.425096,0.007057,
1840,360,-2.172644,-16.626401,0.999996,0.000252,-0.004892,0.010036,0.000075,0.010036,-0.004892,89.713505,0.010037,
1630,40,-0.081949,-20.015504,0.999998,0.000182,-0.000169,0.006923,-0.001804,0.007355,-0.000602,-76.519541,0.008168,
1250,340,-0.038974,-18.054985,0.999998,0.000165,-0.002059,0.007019,0.000144,0.007022,-0.002062,89.088495,0.007218,
1620,1270,-2.323101,-7.377235,0.999994,0.000302,-0.006340,0.011690,0.000812,0.011726,-0.006376,87.426108,0.011741,
760,370,1.539386,-16.964883,0.999995,0.000250,-0.004565,0.009866,0.000066,0.009866,-0.004565,89.738853,0.009876,
1580,1280,-2.017505,-7.132749,0.999994,0.000257,-0.006735,0.012015,0.000378,0.012023,-0.006743,88.846294,0.012052,
850,150,0.471396,-19.183352,0.999997,0.000226,-0.002013,0.008170,0.001441,0.008370,-0.002213,82.096765,0.008675,
980,140,0.224652,-19.350906,0.999997,0.000186,-0.001265,0.007129,0.000745,0.007195,-0.001331,84.965011,0.007656,
1450,1770,-0.432154,-1.877797,0.999997,0.000214,-0.002377,0.007852,0.000141,0.007853,-0.002379,89.212284,0.008054,
650,860,3.644965,-11.646737,0.999996,0.000234,-0.004732,0.009692,0.000818,0.009738,-0.004778,86.764470,0.009739,
1540,1000,-2.811017,-10.391930,0.999997,0.000208,-0.003705,0.011679,-0.000597,0.011702,-0.003728,-87.782298,0.011956,
1050,1040,2.151306,-9.782490,0.999953,0.000946,-0.010045,0.024197,0.001268,0.024244,-0.010091,87.882275,0.024357,
840,1130,2.939372,-8.991304,0.999996,0.000238,-0.004746,0.010938,-0.001347,0.011052,-0.004861,-85.127463,0.011079,
1610,1990,-0.156057,-0.316963,0.999997,0.000198,-0.000721,0.007236,0.001689,0.007580,-0.001064,78.498073,0.008207,
1720,1590,-1.884324,-4.206890,0.999997,0.000234,-0.005073,0.010158,-0.000259,0.010162,-0.005077,-89.024435,0.010162,
1890,950,-4.194902,-10.719520,0.999996,0.000251,-0.004111,0.008300,-0.000082,0.008300,-0.004112,-89.620238,0.008300,
630,660,3.057474,-13.591287,0.999997,0.000209,-0.005083,0.010175,0.000262,0.010179,-0.005088,89.017061,0.010179,
970,1440,1.003561,-4.916400,0.999996,0.000209,-0.005604,0.010060,0.001623,0.010226,-0.005770,84.146987,0.010254,
1750,1530,-2.203165,-4.923441,0.999995,0.000242,-0.005238,0.010284,-0.000170,0.010285,-0.005240,-89.371268,0.010286,
680,520,2.360405,-15.184500,0.999996,0.000256,-0.005164,0.010271,-0.000104,0.010271,-0.005164,-89.615280,0.010271,
1590,670,-1.710183,-14.219916,0.999994,0.000285,-0.006320,0.011234,0.000442,0.011245,-0.006331,88.557909,0.011275,
580,1490,3.004333,-5.751667,0.999996,0.000272,-0.005008,0.010184,-0.000020,0.010184,-0.005008,-89.922891,0.010185,
1580,1960,-0.225525,-0.526225,0.999998,0.000180,-0.001334,0.007280,0.001308,0.007474,-0.001528,81.554756,0.007898,
1580,1420,-1.552499,-5.511431,0.999995,0.000262,-0.006053,0.010906,-0.000732,0.010937,-0.006084,-87.532692,0.010960,
800,880,2.971350,-11.619418,0.999996,0.000263,-0.005128,0.010816,0.001272,0.010917,-0.005228,85.467136,0.010920,
990,50,0.050020,-19.966029,0.999997,0.000209,-0.000219,0.006409,0.000795,0.006503,-0.000313,83.255249,0.007335,
780,250,1.063851,-18.188361,0.999997,0.000186,-0.003979,0.009475,0.000770,0.009519,-0.004023,86.734060,0.009557,
1830,1880,-1.316435,-1.615427,0.999994,0.000275,-0.004714,0.010389,0.001010,0.010457,-0.004781,86.190905,0.010470,
890,1940,0.279628,-0.673693,0.999998,0.000191,-0.001451,0.007506,-0.001290,0.007688,-0.001633,-81.965359,0.008100,
1210,1370,0.044971,-4.340437,0.999998,0.000164,-0.002155,0.004696,0.000790,0.004786,-0.002245,83.505139,0.004789,
780,40,0.111592,-20.001774,0.999998,0.000202,-0.000590,0.007180,0.002111,0.007717,-0.001127,75.739522,0.008336,
800,730,2.371030,-13.297667,0.999996,0.000208,-0.006082,0.011197,0.000567,0.011215,-0.006100,88.122416,0.011230,
840,610,1.745650,-14.758225,0.999996,0.000218,-0.005837,0.010717,-0.000460,0.010729,-0.005850,-88.409313,0.010744,
1880,1590,-2.691671,-4.723064,0.999996,0.000258,-0.004987,0.010075,-0.000074,0.010075,-0.004987,-89.718736,0.010075,
1430,1000,-2.298777,-10.640116,0.999986,0.000460,-0.007919,0.020165,0.001564,0.020252,-0.008005,86.822935,0.020399,
1020,540,0.679360,-16.167357,0.999996,0.000241,-0.004284,0.008832,-0.001490,0.008999,-0.004451,-83.601265,0.008999,
1540,720,-1.532031,-13.858494,0.999995,0.000297,-0.006891,0.011733,0.000735,0.011762,-0.006920,87.743520,0.011823,
760,1160,3.220599,-8.741017,0.999996,0.000241,-0.004867,0.010426,-0.001225,0.010524,-0.004964,-85.448672,0.010529,
1260,90,-0.013787,-19.731997,0.999998,0.000157,-0.000464,0.006132,-0.000029,0.006132,-0.000464,-89.748002,0.006828,
1120,870,0.914510,-14.163341,0.999994,0.000316,-0.003271,0.005557,-0.003667,0.006882,-0.004595,-70.140562,0.007009,
860,430,1.229948,-16.672161,0.999997,0.000276,-0.004516,0.009687,-0.000397,0.009698,-0.004527,-88.399949,0.009705,
720,1060,3.606503,-9.765529,0.999997,0.000215,-0.004307,0.009660,-0.000306,0.009666,-0.004314,-88.745188,0.009685,
1750,1340,-2.815404,-6.916694,0.999997,0.000199,-0.005458,0.010460,0.000613,0.010484,-0.005482,87.799295,0.010487,
1620,40,-0.080968,-20.015048,0.999998,0.000173,-0.000171,0.006847,-0.001690,0.007233,-0.000557,-77.141528,0.008050,
1460,520,-0.737353,-16.284293,0.999996,0.000231,-0.004223,0.008902,0.001249,0.009020,-0.004340,84.610525,0.009022,
1450,820,-1.264847,-13.190924,0.999991,0.000335,-0.007865,0.012795,0.001766,0.012945,-0.008015,85.148912,0.013067,
830,1300,2.284126,-7.062598,0.999994,0.000314,-0.006288,0.011464,-0.000599,0.011484,-0.006308,-88.067969,0.011502,
1450,1970,-0.101790,-0.422526,0.999998,0.000172,-0.000548,0.006587,0.000692,0.006654,-0.000615,84.514900,0.007354,
1310,340,-0.158309,-18.030137,0.999997,0.000196,-0.002118,0.007161,0.000128,0.007163,-0.002120,89.209992,0.007359,
710,520,2.204716,-15.279402,0.999995,0.000264,-0.005236,0.010327,-0.000174,0.010329,-0.005238,-89.361290,0.010330,
850,860,2.615301,-11.919489,0.999994,0.000270,-0.005761,0.011527,0.001309,0.011625,-0.005859,85.694784,0.011625,
1340,1490,-0.294879,-3.823064,0.999997,0.000202,-0.003208,0.007293,-0.001409,0.007478,-0.003393,-82.490652,0.007489,
1570,1220,-2.231355,-7.836447,0.999992,0.000327,-0.006586,0.012268,0.000981,0.012319,-0.006637,87.030896,0.012331,
1580,1260,-2.106396,-7.376666,0.999995,0.000271,-0.006699,0.012163,0.000591,0.012182,-0.006717,88.205780,0.012203,
680,500,2.303547,-15.390648,0.999997,0.000230,-0.005140,0.010253,-0.000151,0.010255,-0.005141,-89.439001,0.010255,
1480,2010,-0.042941,-0.163301,0.999998,0.000196,-0.000233,0.006441,0.000794,0.006534,-0.000326,83.305305,0.007364,
1880,980,-4.180500,-10.484020,0.999998,0.000203,-0.004057,0.008303,-0.000062,0.008304,-0.004057,-89.711768,0.008304,
820,1130,3.034015,-9.008650,0.999997,0.000206,-0.004669,0.010709,-0.001243,0.010808,-0.004769,-85.408880,0.010833,
1720,1570,-1.938177,-4.411766,0.999996,0.000241,-0.005144,0.010243,-0.000257,0.010247,-0.005148,-89.043697,0.010247,
760,1140,3.287510,-8.950697,0.999997,0.000241,-0.004713,0.010198,-0.001049,0.010272,-0.004787,-85.994453,0.010280,
930,490,1.025680,-16.309077,0.999997,0.000227,-0.004571,0.009507,-0.000858,0.009559,-0.004623,-86.524795,0.009560,
1210,450,0.052810,-17.274258,0.999998,0.000160,-0.002438,0.006998,-0.000265,0.007006,-0.002446,-88.390318,0.007111,
1050,1030,2.161369,-10.019691,0.999955,0.000808,-0.010131,0.024398,0.000240,0.024400,-0.010133,89.602174,0.024516,
850,110,0.322812,-19.504010,0.999997,0.000212,-0.001427,0.007768,0.001585,0.008034,-0.001692,80.487765,0.008470,
780,230,0.984685,-18.380373,0.999998,0.000161,-0.003832,0.009424,0.000937,0.009489,-0.003898,85.976250,0.009540,
1640,970,-3.140797,-10.675985,0.999996,0.000225,-0.004198,0.010479,-0.000896,0.010533,-0.004253,-86.518892,0.010598,
890,1920,0.340985,-0.823904,0.999997,0.000203,-0.001734,0.007659,-0.001200,0.007810,-0.001885,-82.832627,0.008150,
990,40,0.033639,-20.029756,0.999998,0.000192,-0.000148,0.006365,0.000801,0.006462,-0.000245,83.088776,0.007325,
1100,40,0.020018,-20.033900,0.999998,0.000174,-0.000126,0.006052,0.000325,0.006069,-0.000143,87.001345,0.006927,
630,1050,4.006046,-9.875100,0.999997,0.000243,-0.004284,0.008985,-0.000270,0.008991,-0.004290,-88.835119,0.008994,
1750,1460,-2.410695,-5.651102,0.999997,0.000217,-0.005407,0.010433,0.000043,0.010433,-0.005407,89.845691,0.010435,
1540,980,-2.759260,-10.634055,0.999997,0.000211,-0.003958,0.011797,-0.000953,0.011854,-0.004015,-86.552337,0.012058,
610,580,2.900377,-14.348647,0.999998,0.000171,-0.005121,0.010174,0.000028,0.010174,-0.005121,89.896643,0.010174,
1470,1880,-0.280111,-1.057477,0.999998,0.000168,-0.001391,0.007276,0.000620,0.007320,-0.001436,85.930693,0.007758,
1750,1510,-2.262175,-5.129392,0.999996,0.000226,-0.005269,0.010352,-0.000106,0.010352,-0.005270,-89.612336,0.010353,
1580,1720,-0.926391,-2.537904,0.999997,0.000194,-0.003984,0.009169,-0.000052,0.009169,-0.003984,-89.773054,0.009195,
1430,280,-0.376609,-18.346714,0.999997,0.000241,-0.002394,0.007723,-0.000026,0.007723,-0.002394,-89.851116,0.007907,
1840,340,-2.104243,-16.829165,0.999997,0.000236,-0.004876,0.009975,0.000104,0.009976,-0.004876,89.599449,0.009977,
1430,1140,-1.790862,-8.075245,0.999991,0.000372,-0.006651,0.014647,-0.001988,0.014831,-0.006835,-84.713961,0.014846,
1460,740,-1.036371,-14.087894,0.999995,0.000293,-0.007072,0.011472,0.002204,0.011731,-0.007331,83.313244,0.011852,
630,1810,1.701615,-2.345806,0.999995,0.000257,-0.004852,0.010130,-0.000303,0.010136,-0.004858,-88.841765,0.010139,
1160,1580,0.178096,-3.097124,0.999998,0.000180,-0.002735,0.007111,0.000611,0.007149,-0.002773,86.465056,0.007208,
800,860,2.893961,-11.839945,0.999996,0.000263,-0.005356,0.011012,0.001291,0.011113,-0.005457,85.518325,0.011114,
930,790,1.756824,-13.028371,0.999994,0.000256,-0.007275,0.012518,-0.000093,0.012518,-0.007275,-89.730951,0.012573,
930,690,1.397347,-14.240407,0.999993,0.000298,-0.006595,0.011328,-0.001032,0.011387,-0.006655,-86.715000,0.011441,
1420,230,-0.284991,-18.737663,0.999997,0.000230,-0.002021,0.007392,-0.000197,0.007396,-0.002025,-88.798526,0.007644,
1880,1820,-1.888309,-2.448284,0.999998,0.000201,-0.004847,0.009791,0.000167,0.009793,-0.004849,89.347921,0.009793,
1450,1750,-0.461771,-2.035369,0.999996,0.000238,-0.002516,0.007868,-0.000019,0.007868,-0.002516,-89.893783,0.008036,
720,1040,3.625288,-9.957556,0.999996,0.000253,-0.004304,0.009660,-0.000255,0.009664,-0.004309,-88.954265,0.009683,
900,990,2.877480,-10.497208,0.999996,0.000255,-0.003825,0.011256,0.000747,0.011292,-0.003862,87.171180,0.011479,
1690,1020,-3.402347,-10.154734,0.999996,0.000242,-0.004188,0.009974,-0.000169,0.009976,-0.004190,-89.314839,0.010018,
1050,1970,0.078196,-0.412369,0.999998,0.000162,-0.000631,0.006471,-0.000505,0.006506,-0.000667,-85.951145,0.007159,
630,1440,2.909936,-6.106736,0.999996,0.000263,-0.005088,0.010187,-0.000116,0.010188,-0.005089,-89.564934,0.010188,
1600,1670,-1.120293,-3.051690,0.999997,0.000208,-0.004203,0.009373,-0.000206,0.009376,-0.004206,-89.129386,0.009393,
780,730,2.491570,-13.246327,0.999995,0.000265,-0.005911,0.011050,0.000629,0.011074,-0.005935,87.880801,0.011083,
1710,1890,-0.791254,-1.217126,0.999997,0.000213,-0.002838,0.009257,0.001904,0.009549,-0.003131,81.262224,0.009736,
1500,560,-0.964997,-15.757364,0.999997,0.000191,-0.004959,0.009677,0.001309,0.009794,-0.005075,84.927807,0.009796,
1610,40,-0.078402,-20.015148,0.999998,0.000189,-0.000270,0.006787,-0.001587,0.007128,-0.000611,-77.889584,0.007901,
790,1480,1.930735,-5.194312,0.999996,0.000225,-0.005495,0.010500,0.000231,0.010504,-0.005498,89.174192,0.010507,
1810,640,-2.874253,-13.864713,0.999996,0.000243,-0.005173,0.010254,-0.000234,0.010258,-0.005176,-89.131158,0.010258,
1580,1440,-1.505766,-5.292699,0.999994,0.000264,-0.005877,0.010702,-0.000782,0.010739,-0.005914,-87.304079,0.010758,
1830,1100,-3.948956,-9.424959,0.999996,0.000236,-0.004343,0.009077,0.000345,0.009086,-0.004352,88.528901,0.009089,
840,1500,1.608023,-4.815087,0.999995,0.000254,-0.005432,0.010416,0.000537,0.010434,-0.005450,88.060798,0.010438,
1730,1340,-2.704644,-6.868646,0.999994,0.000315,-0.005585,0.010651,0.000604,0.010673,-0.005608,87.870964,0.010678,
1680,450,-1.645461,-16.233054,0.999997,0.000220,-0.004971,0.010105,0.000272,0.010110,-0.004976,88.967189,0.010110,
1540,700,-1.474627,-14.092750,0.999995,0.000305,-0.006726,0.011498,0.000874,0.011539,-0.006768,87.261350,0.011597,
700,1250,3.213018,-7.884422,0.999996,0.000251,-0.005159,0.010300,-0.000952,0.010358,-0.005217,-86.488456,0.010358,
770,40,0.118587,-19.998319,0.999997,0.000235,-0.000406,0.007325,0.002297,0.007956,-0.001037,74.638373,0.008651,
1750,1400,-2.604143,-6.281472,0.999996,0.000269,-0.005494,0.010506,0.000327,0.010512,-0.005500,88.828421,0.010516,
1770,1720,-1.746578,-3.049047,0.999997,0.000184,-0.004835,0.010027,0.000034,0.010027,-0.004836,89.868397,0.010029,
1540,1260,-1.829525,-7.223129,0.999996,0.000221,-0.007185,0.012508,0.000126,0.012509,-0.007186,89.633181,0.012555,
1020,520,0.665861,-16.343778,0.999997,0.000236,-0.004213,0.008772,-0.001403,0.008922,-0.004363,-83.901349,0.008923,
680,920,3.663599,-11.104009,0.999997,0.000245,-0.004552,0.009520,0.000677,0.009552,-0.004584,87.253519,0.009555,
1540,1080,-2.741010,-9.465405,0.999995,0.000268,-0.004093,0.011763,0.001019,0.011828,-0.004158,86.339467,0.012001,
1680,1830,-0.953127,-1.726402,0.999998,0.000173,-0.003787,0.009308,0.000959,0.009378,-0.003856,85.832363,0.009427,
1500,240,-0.469231,-18.578003,0.999996,0.000216,-0.002561,0.007986,-0.000396,0.008000,-0.002575,-87.852719,0.008168,
610,560,2.838905,-14.552919,0.999995,0.000246,-0.005086,0.010214,-0.000015,0.010214,-0.005086,-89.944679,0.010214,
1500,40,-0.042098,-20.025291,0.999998,0.000154,-0.000381,0.006372,-0.000838,0.006474,-0.000483,-83.026948,0.007213,
630,1030,4.019792,-10.055451,0.999997,0.000238,-0.004266,0.009041,-0.000038,0.009041,-0.004266,-89.835401,0.009046,
850,840,2.525181,-12.151840,0.999994,0.000284,-0.005989,0.011677,0.001221,0.011761,-0.006073,86.064003,0.011763,
1080,1530,0.437084,-3.658264,0.999996,0.000232,-0.003565,0.007923,0.001412,0.008094,-0.003736,83.091833,0.008102,
1600,1550,-1.374052,-4.222834,0.999997,0.000303,-0.005033,0.010006,-0.000615,0.010031,-0.005058,-87.660441,0.010031,
1450,1940,-0.149883,-0.623081,0.999998,0.000201,-0.000817,0.006868,0.000707,0.006932,-0.000882,84.786976,0.007547,
790,440,1.583776,-16.358995,0.999996,0.000237,-0.004882,0.010021,-0.000278,0.010027,-0.004887,-88.931766,0.010028,
950,980,2.649941,-10.671547,0.999996,0.000214,-0.004184,0.012484,0.000866,0.012529,-0.004229,87.032681,0.012748,
1580,1680,-1.014944,-2.906300,0.999997,0.000207,-0.004191,0.009272,-0.000225,0.009276,-0.004194,-89.042510,0.009290,
1750,1490,-2.319904,-5.337099,0.999996,0.000235,-0.005324,0.010385,-0.000072,0.010386,-0.005324,-89.735673,0.010387,
1520,1150,-2.300969,-8.558609,0.999996,0.000232,-0.005988,0.012858,0.001247,0.012940,-0.006071,86.231780,0.012948,
1840,320,-2.039620,-17.027043,0.999997,0.000227,-0.004872,0.009959,0.000038,0.009959,-0.004872,89.854810,0.009960,
630,1790,1.793544,-2.553285,0.999995,0.000255,-0.004840,0.010157,-0.000239,0.010161,-0.004844,-89.086257,0.010165,
1580,1240,-2.200944,-7.623420,0.999995,0.000299,-0.006590,0.012150,0.000823,0.012186,-0.006626,87.490790,0.012202,
1090,40,0.020626,-20.034483,0.999998,0.000163,-0.000071,0.006078,0.000383,0.006102,-0.000094,86.451407,0.006992,
1050,1020,2.157654,-10.254763,0.999961,0.000746,-0.009905,0.024641,-0.000976,0.024668,-0.009933,-88.383384,0.024824,
1460,500,-0.719084,-16.461666,0.999996,0.000213,-0.004131,0.008830,0.001133,0.008928,-0.004229,85.042402,0.008932,
1060,230,0.251998,-18.754062,0.999997,0.000197,-0.001816,0.007262,0.000194,0.007266,-0.001820,88.779354,0.007561,
1450,1950,-0.129693,-0.552958,0.999998,0.000194,-0.000717,0.006759,0.000707,0.006825,-0.000783,84.647444,0.007470,
760,1120,3.334211,-9.150566,0.999997,0.000220,-0.004550,0.010099,-0.000880,0.010152,-0.004603,-86.575483,0.010167,
1610,1970,-0.238293,-0.468731,0.999998,0.000186,-0.001045,0.007378,0.001607,0.007674,-0.001341,79.559332,0.008197,
1590,650,-1.655298,-14.443861,0.999994,0.000272,-0.006164,0.011085,0.000565,0.011103,-0.006183,88.125306,0.011127,
980,120,0.186541,-19.490653,0.999998,0.000202,-0.001036,0.007015,0.000814,0.007097,-0.001117,84.285669,0.007632,
1570,2010,-0.070280,-0.173228,0.999998,0.000165,-0.000415,0.006721,0.001284,0.006945,-0.000639,80.105132,0.007677,
1160,1560,0.182208,-3.238895,0.999997,0.000194,-0.002794,0.007074,0.000720,0.007126,-0.002846,85.847622,0.007174,
1290,340,-0.120636,-18.038489,0.999998,0.000177,-0.001970,0.007106,0.000056,0.007107,-0.001970,89.644978,0.007338,
1510,580,-1.042891,-15.521257,0.999997,0.000182,-0.005304,0.009977,0.001356,0.010096,-0.005423,84.969503,0.010105,
800,840,2.812513,-12.063162,0.999996,0.000251,-0.005563,0.011020,0.001229,0.011110,-0.005653,85.784255,0.011111,
1670,1020,-3.321004,-10.157220,0.999997,0.000182,-0.004082,0.010093,-0.000173,0.010095,-0.004084,-89.301467,0.010156,
1450,1730,-0.487289,-2.195471,0.999996,0.000218,-0.002671,0.008063,-0.000092,0.008064,-0.002672,-89.508375,0.008216,
880,990,2.951190,-10.485932,0.999995,0.000284,-0.003871,0.010897,0.000654,0.010926,-0.003900,87.469060,0.011074,
780,710,2.416552,-13.468355,0.999994,0.000336,-0.005928,0.011031,0.000493,0.011045,-0.005942,88.336023,0.011056,
1310,1360,-0.188985,-4.575908,0.999995,0.000269,-0.003150,0.005882,-0.002598,0.006576,-0.003844,-75.046771,0.006607,
1580,1670,-1.037302,-2.998740,0.999997,0.000200,-0.004197,0.009336,-0.000263,0.009341,-0.004202,-88.886950,0.009357,
930,770,1.668307,-13.282283,0.999994,0.000254,-0.007234,0.012381,-0.000335,0.012387,-0.007240,-89.022770,0.012446,
1600,40,-0.074820,-20.015759,0.999997,0.000223,-0.000416,0.006717,-0.001472,0.007009,-0.000708,-78.783930,0.007717,
1090,1300,0.490768,-5.485423,0.999996,0.000267,-0.005801,0.008880,0.003951,0.009876,-0.006797,75.853056,0.010107,
690,600,2.550030,-14.385901,0.999996,0.000249,-0.005289,0.010396,0.000066,0.010396,-0.005290,89.757491,0.010397,
900,1250,2.035849,-7.439478,0.999993,0.000295,-0.006867,0.012391,-0.000550,0.012406,-0.006883,-88.365267,0.012431,
1490,1880,-0.309200,-1.069486,0.999996,0.000219,-0.001777,0.007403,0.000645,0.007448,-0.001822,86.000388,0.007765,
630,1450,2.878899,-6.005136,0.999995,0.000253,-0.005102,0.010150,-0.000106,0.010151,-0.005102,-89.601132,0.010151,
1400,1550,-0.489878,-3.550230,0.999995,0.000240,-0.003507,0.008103,-0.001176,0.008221,-0.003625,-84.272039,0.008240,
1060,1750,0.338220,-1.966096,0.999997,0.000200,-0.002392,0.007567,0.000134,0.007569,-0.002394,89.231778,0.007738,
630,1770,1.873169,-2.753110,0.999996,0.000233,-0.004830,0.010021,-0.000104,0.010022,-0.004831,-89.600691,0.010024,
1540,680,-1.418660,-14.320272,0.999995,0.000292,-0.006520,0.011283,0.000989,0.011337,-0.006575,86.830346,0.011386,
1870,480,-2.686306,-15.314710,0.999996,0.000225,-0.005002,0.010113,0.000053,0.010113,-0.005003,89.798386,0.010113,
900,50,0.081883,-19.954390,0.999998,0.000156,-0.000419,0.006744,0.001266,0.006962,-0.000636,80.264165,0.007697,
1640,830,-2.640898,-12.212960,0.999994,0.000274,-0.005852,0.011339,-0.001195,0.011422,-0.005935,-86.043108,0.011425,
1050,1950,0.102302,-0.543435,0.999998,0.000172,-0.000816,0.006612,-0.000512,0.006648,-0.000851,-86.075571,0.007235,
1470,1940,-0.164193,-0.629117,0.999998,0.000180,-0.000809,0.006953,0.000793,0.007033,-0.000890,84.223072,0.007659,
1660,170,-0.655947,-18.970306,0.999997,0.000190,-0.002922,0.008714,-0.001451,0.008892,-0.003100,-82.995549,0.009027,
1540,1240,-1.927004,-7.476164,0.999996,0.000247,-0.007121,0.012683,0.000371,0.012690,-0.007128,88.928161,0.012722,
1540,1150,-2.418034,-8.616924,0.999996,0.000261,-0.005747,0.012465,0.001435,0.012577,-0.005860,85.520851,0.012587,
1460,40,-0.035022,-20.027220,0.999998,0.000140,-0.000076,0.006204,-0.000732,0.006288,-0.000160,-83.443321,0.007171,
1540,1520,-1.125558,-4.305874,0.999996,0.000233,-0.005039,0.009880,-0.001007,0.009947,-0.005107,-86.156264,0.009948,
1020,500,0.648441,-16.520010,0.999996,0.000240,-0.004088,0.008671,-0.001271,0.008796,-0.004213,-84.363910,0.008799,
1840,300,-1.964313,-17.227247,0.999997,0.000212,-0.004858,0.010050,-0.000056,0.010051,-0.004858,-89.786067,0.010052,
680,940,3.708370,-10.909765,0.999996,0.000244,-0.004520,0.009602,0.000725,0.009639,-0.004557,87.069006,0.009644,
1460,460,-0.678082,-16.815423,0.999996,0.000225,-0.003941,0.008676,0.001001,0.008755,-0.004020,85.490517,0.008764,
1790,640,-2.767694,-13.921274,0.999997,0.000209,-0.005286,0.010303,-0.000273,0.010308,-0.005291,-88.997876,0.010309,
1450,1930,-0.169389,-0.694039,0.999998,0.000180,-0.000909,0.006927,0.000656,0.006982,-0.000964,85.247782,0.007567,
950,1620,0.853964,-3.274688,0.999996,0.000222,-0.003918,0.008989,0.000612,0.009018,-0.003947,87.289358,0.009041,
1750,1470,-2.379804,-5.547609,0.999995,0.000246,-0.005390,0.010419,0.000009,0.010419,-0.005390,89.967087,0.010421,
1580,1660,-1.059868,-3.091863,0.999997,0.000199,-0.004224,0.009362,-0.000301,0.009369,-0.004230,-88.731082,0.009383,
1500,220,-0.425322,-18.736565,0.999997,0.000215,-0.002394,0.007767,-0.000459,0.007788,-0.002415,-87.418648,0.007973,
1160,1760,0.127860,-1.803934,0.999998,0.000161,-0.001780,0.007060,-0.000028,0.007060,-0.001780,-89.820738,0.007344,
980,100,0.142378,-19.632602,0.999998,0.000217,-0.000829,0.006856,0.000831,0.006945,-0.000917,83.898585,0.007546,
1230,340,0.002275,-18.060759,0.999997,0.000200,-0.002108,0.006997,-0.000012,0.006997,-0.002108,-89.925978,0.007179,
960,230,0.455191,-18.653188,0.999997,0.000218,-0.002523,0.007929,0.000420,0.007946,-0.002540,87.702500,0.008117,
1030,2010,0.035908,-0.160584,0.999998,0.000178,-0.000251,0.006218,-0.000563,0.006267,-0.000300,-85.065853,0.007070,
1610,1950,-0.298621,-0.615495,0.999997,0.000195,-0.001377,0.007687,0.001547,0.007944,-0.001634,80.578796,0.008390,
870,1700,1.024337,-2.756179,0.999996,0.000226,-0.004064,0.009211,0.000085,0.009211,-0.004064,89.634883,0.009233,
1490,580,-0.941124,-15.606600,0.999995,0.000252,-0.005074,0.009732,0.001480,0.009879,-0.005221,84.346785,0.009884,
650,980,3.898092,-10.518748,0.999997,0.000211,-0.004349,0.009105,0.000195,0.009108,-0.004352,89.169319,0.009111,
1460,200,-0.309238,-18.925756,0.999998,0.000216,-0.001582,0.007431,-0.000557,0.007466,-0.001616,-86.476773,0.007855,
1580,1220,-2.295513,-7.866501,0.999993,0.000334,-0.006459,0.012116,0.001058,0.012177,-0.006519,86.750231,0.012187,
670,600,2.654241,-14.326037,0.999995,0.000291,-0.005219,0.010324,0.000106,0.010324,-0.005220,89.608095,0.010325,
1590,630,-1.601834,-14.666704,0.999994,0.000279,-0.006002,0.010891,0.000615,0.010913,-0.006024,87.918646,0.010933,
590,1040,4.180861,-9.972117,0.999998,0.000183,-0.004038,0.008571,-0.000202,0.008574,-0.004041,-89.084098,0.008579,
880,1250,2.171544,-7.506912,0.999995,0.000267,-0.006630,0.012160,-0.000761,0.012191,-0.006661,-87.684258,0.012208,
760,1100,3.379341,-9.354611,0.999996,0.000238,-0.004442,0.010102,-0.000877,0.010155,-0.004494,-86.559978,0.010177,
800,820,2.731185,-12.282007,0.999996,0.000236,-0.005704,0.011128,0.001144,0.011205,-0.005781,86.131019,0.011207,
680,190,1.197798,-18.538159,0.999997,0.000226,-0.004333,0.010050,0.001333,0.010172,-0.004456,84.747909,0.010198,
610,1440,3.009622,-6.168448,0.999996,0.000255,-0.005061,0.010172,-0.000086,0.010172,-0.005062,-89.675394,0.010172,
1050,1930,0.129425,-0.678785,0.999998,0.000154,-0.000984,0.006696,-0.000467,0.006725,-0.001012,-86.531140,0.007251,
700,850,3.370514,-11.815605,0.999994,0.000276,-0.004957,0.010005,0.000976,0.010069,-0.005021,86.284677,0.010069,
1040,1750,0.390619,-1.995061,0.999997,0.000245,-0.002625,0.007690,0.000147,0.007692,-0.002627,89.183054,0.007819,
900,40,0.054815,-20.021275,0.999998,0.000136,-0.000293,0.006646,0.001286,0.006877,-0.000523,79.829675,0.007657,
930,750,1.589230,-13.530787,0.999994,0.000268,-0.007143,0.012133,-0.000554,0.012149,-0.007159,-88.356315,0.012214,
680,960,3.750301,-10.716742,0.999995,0.000261,-0.004444,0.009491,0.000503,0.009510,-0.004463,87.936107,0.009515,
1360,1350,-0.382522,-4.962366,0.999996,0.000262,-0.004635,0.007761,-0.003343,0.008605,-0.005479,-75.829939,0.008712,
1870,470,-2.656466,-15.416179,0.999995,0.000269,-0.004987,0.010122,0.000070,0.010123,-0.004988,89.734724,0.010123,
1520,1810,-0.532652,-1.653610,0.999997,0.000220,-0.002614,0.008154,0.000469,0.008174,-0.002634,87.508381,0.008345,
630,1470,2.812791,-5.801130,0.999996,0.000233,-0.005101,0.010207,-0.000051,0.010207,-0.005102,-89.808563,0.010207,
1460,440,-0.656161,-16.989837,0.999996,0.000222,-0.003768,0.008585,0.000848,0.008643,-0.003826,86.088827,0.008662,
630,1990,0.462543,-0.460416,0.999993,0.000330,-0.004034,0.010219,-0.002848,0.010767,-0.004582,-79.108912,0.010806,
730,1180,3.303811,-8.561991,0.999996,0.000244,-0.004969,0.010227,-0.001109,0.010307,-0.005050,-85.847704,0.010308,
1500,960,-2.511800,-10.955402,0.999994,0.000319,-0.004732,0.012944,-0.001069,0.013008,-0.004797,-86.550796,0.013157,
1540,660,-1.369118,-14.545414,0.999995,0.000288,-0.006279,0.011065,0.001065,0.011130,-0.006344,86.498940,0.011166,
1720,570,-2.174314,-14.865685,0.999995,0.000276,-0.005424,0.010445,0.000103,0.010446,-0.005424,89.628522,0.010449,
1020,480,0.630253,-16.695525,0.999996,0.000224,-0.003924,0.008585,-0.001120,0.008685,-0.004024,-84.922209,0.008692,
1380,40,-0.020451,-20.032260,0.999999,0.000136,-0.000062,0.006055,-0.000403,0.006082,-0.000089,-86.248067,0.006972,
1540,1220,-2.028699,-7.733136,0.999996,0.000255,-0.006928,0.012716,0.000697,0.012740,-0.006952,87.971235,0.012758,
1750,1450,-2.440882,-5.755988,0.999996,0.000233,-0.005410,0.010440,0.000077,0.010440,-0.005411,89.720984,0.010442,
760,790,2.840000,-12.539653,0.999996,0.000260,-0.005597,0.010862,0.001023,0.010925,-0.005660,86.458020,0.010928,
1640,170,-0.605799,-18.992206,0.999997,0.000208,-0.002339,0.008537,-0.001496,0.008739,-0.002542,-82.307880,0.008990,
1890,1890,-1.548184,-1.799829,0.999996,0.000261,-0.004920,0.010109,0.000781,0.010149,-0.004961,87.032403,0.010150,
790,1580,1.675632,-4.157906,0.999995,0.000253,-0.005055,0.010121,0.000341,0.010129,-0.005063,88.713076,0.010129,
1500,200,-0.385317,-18.891124,0.999997,0.000195,-0.002177,0.007668,-0.000558,0.007699,-0.002209,-86.764933,0.007929,
1450,1910,-0.198734,-0.830623,0.999997,0.000184,-0.001105,0.007009,0.000635,0.007058,-0.001155,85.554248,0.007572,
1150,1590,0.204634,-3.043441,0.999998,0.000190,-0.002792,0.007246,0.000695,0.007294,-0.002840,86.057567,0.007353,
1540,1500,-1.161200,-4.509643,0.999996,0.000244,-0.005266,0.010051,-0.001079,0.010127,-0.005341,-85.988831,0.010132,
1070,1300,0.612124,-5.674832,0.999995,0.000261,-0.006344,0.009805,0.003675,0.010602,-0.007141,77.763964,0.010813,
1580,1640,-1.100259,-3.282016,0.999997,0.000219,-0.004293,0.009432,-0.000379,0.009442,-0.004304,-88.418485,0.009455,
850,1700,1.104324,-2.804482,0.999998,0.000162,-0.003919,0.009340,-0.000086,0.009340,-0.003919,-89.630360,0.009381,
1460,220,-0.348149,-18.773903,0.999997,0.000213,-0.001753,0.007521,-0.000467,0.007544,-0.001777,-87.122999,0.007888,
630,980,3.984812,-10.508689,0.999997,0.000234,-0.004265,0.008932,0.000159,0.008934,-0.004267,89.308171,0.008937,
1210,340,0.045573,-18.054594,0.999998,0.000175,-0.002060,0.007021,-0.000141,0.007023,-0.002063,-89.110642,0.007219,
580,1040,4.221455,-9.973503,0.999998,0.000171,-0.003880,0.008418,-0.000209,0.008421,-0.003884,-89.024330,0.008430,
1580,1200,-2.397776,-8.111496,0.999994,0.000302,-0.006187,0.012066,0.001248,0.012151,-0.006272,86.105486,0.012153,
870,1390,1.714565,-5.894664,0.999995,0.000259,-0.006256,0.011152,0.000439,0.011163,-0.006267,88.555149,0.011191,
1430,640,-0.692759,-15.323796,0.999993,0.000313,-0.005271,0.009274,0.002296,0.009628,-0.005625,81.240568,0.009673,
930,730,1.515493,-13.771668,0.999994,0.000291,-0.006973,0.011855,-0.000738,0.011884,-0.007001,-87.759653,0.011947,
760,1080,3.419675,-9.558187,0.999995,0.000264,-0.004311,0.009978,-0.000568,0.010000,-0.004334,-87.727324,0.010030,
1410,280,-0.328941,-18.374153,0.999996,0.000216,-0.002318,0.007559,0.000015,0.007559,-0.002318,89.914313,0.007745,
800,800,2.647840,-12.510849,0.999995,0.000278,-0.005840,0.011230,0.001042,0.011294,-0.005904,86.520385,0.011298,
1350,40,-0.018611,-20.033586,0.999999,0.000137,-0.000146,0.005969,-0.000274,0.005982,-0.000158,-87.443159,0.006818,
1790,1220,-3.456410,-8.232684,0.999997,0.000255,-0.004878,0.009851,0.000845,0.009899,-0.004926,86.728865,0.009899,
680,980,3.767981,-10.529557,0.999996,0.000244,-0.004364,0.009368,0.000263,0.009373,-0.004369,88.904492,0.009380,
630,1750,1.949104,-2.955321,0.999997,0.000218,-0.004824,0.010017,-0.000067,0.010018,-0.004825,-89.741766,0.010020,
1040,1730,0.416547,-2.153709,0.999996,0.000255,-0.002789,0.007819,0.000234,0.007824,-0.002794,88.736052,0.007929,
1440,230,-0.324320,-18.718885,0.999997,0.000231,-0.001942,0.007511,-0.000288,0.007520,-0.001951,-88.254589,0.007805,
1630,1980,-0.211162,-0.398888,0.999997,0.000201,-0.000758,0.007478,0.001892,0.007892,-0.001172,77.660313,0.008517,
980,80,0.107300,-19.767637,0.999998,0.000179,-0.000598,0.006709,0.000853,0.006807,-0.000697,83.426026,0.007491,
950,1180,2.071648,-8.136585,0.999993,0.000317,-0.006751,0.013132,-0.000864,0.013169,-0.006789,-87.515965,0.013171,
1870,460,-2.627178,-15.518319,0.999995,0.000268,-0.004985,0.010093,0.000084,0.010094,-0.004986,89.680051,0.010094,
630,1670,2.217145,-3.762799,0.999996,0.000230,-0.004978,0.010078,0.000106,0.010079,-0.004979,89.596566,0.010079,
740,1570,1.953059,-4.422734,0.999997,0.000217,-0.005125,0.010238,0.000256,0.010243,-0.005129,89.046867,0.010243,
1460,420,-0.629633,-17.165048,0.999997,0.000208,-0.003545,0.008470,0.000672,0.008507,-0.003582,86.809694,0.008542,
760,770,2.759653,-12.759970,0.999996,0.000248,-0.005666,0.010902,0.000923,0.010953,-0.005718,86.820169,0.010957,
880,710,1.790595,-13.791247,0.999995,0.000240,-0.006617,0.011618,-0.000220,0.011621,-0.006620,-89.307443,0.011658,
680,170,1.089232,-18.735412,0.999996,0.000237,-0.004114,0.010074,0.001672,0.010268,-0.004309,83.368981,0.010313,
1500,940,-2.401391,-11.215935,0.999993,0.000333,-0.005320,0.013214,-0.001160,0.013287,-0.005392,-86.432500,0.013365,
1610,1930,-0.379131,-0.777959,0.999997,0.000217,-0.001672,0.007854,0.001511,0.008088,-0.001906,81.200147,0.008457,
750,1180,3.205051,-8.541909,0.999996,0.000242,-0.005001,0.010375,-0.001136,0.010459,-0.005084,-85.796290,0.010460,
1370,40,-0.019177,-20.033345,0.999999,0.000138,-0.000057,0.006025,-0.000355,0.006046,-0.000077,-86.671311,0.006937,
1880,1890,-1.497743,-1.750749,0.999996,0.000257,-0.004912,0.010168,0.000787,0.010209,-0.004953,87.020922,0.010210,
1160,660,0.172574,-15.815230,0.999998,0.000193,-0.002861,0.006007,-0.001887,0.006392,-0.003246,-78.470747,0.006392,
900,690,1.596604,-14.102031,0.999995,0.000272,-0.006548,0.011348,-0.000612,0.011369,-0.006568,-88.044655,0.011414,
1590,610,-1.551684,-14.882564,0.999994,0.000279,-0.005826,0.010609,0.000676,0.010637,-0.005854,87.647130,0.010655,
1020,460,0.610312,-16.869257,0.999997,0.000229,-0.003704,0.008470,-0.000954,0.008545,-0.003779,-85.544930,0.008564,
1540,1200,-2.136791,-7.987418,0.999995,0.000256,-0.006715,0.012705,0.000945,0.012751,-0.006761,87.220576,0.012759,
1700,310,-1.343818,-17.567667,0.999994,0.000290,-0.004320,0.009753,-0.000320,0.009760,-0.004328,-88.697493,0.009781,
1770,700,-2.870011,-13.349917,0.999997,0.000225,-0.005316,0.010394,-0.000522,0.010411,-0.005333,-88.097405,0.010413,
1050,1910,0.155199,-0.812753,0.999998,0.000209,-0.001211,0.006838,-0.000443,0.006862,-0.001235,-86.859988,0.007316,
1750,1430,-2.505743,-5.965882,0.999995,0.000260,-0.005428,0.010448,0.000159,0.010449,-0.005429,89.426101,0.010452,
1500,180,-0.339101,-19.043868,0.999998,0.000175,-0.001980,0.007503,-0.000644,0.007546,-0.002024,-86.134766,0.007812,
1460,240,-0.379786,-18.622887,0.999997,0.000208,-0.001959,0.007711,-0.000383,0.007726,-0.001974,-87.734237,0.008028,
1540,1480,-1.198586,-4.713486,0.999997,0.000232,-0.005392,0.010190,-0.001091,0.010266,-0.005468,-86.013876,0.010274,
570,1040,4.256104,-9.974220,0.999930,0.000960,-0.003811,0.008269,-0.000218,0.008272,-0.003815,-88.967610,0.008281,
1050,860,1.230391,-13.073903,0.999992,0.000324,-0.007323,0.012748,-0.002785,0.013127,-0.007702,-82.245545,0.013193,
1070,1280,0.657446,-5.876583,0.999991,0.000327,-0.006687,0.010138,0.003798,0.010956,-0.007504,77.852399,0.011203,
1450,1890,-0.239326,-0.975263,0.999997,0.000193,-0.001308,0.007110,0.000595,0.007152,-0.001349,85.976871,0.007600,
860,590,1.578304,-15.047312,0.999995,0.000262,-0.005677,0.010554,-0.000610,0.010577,-0.005700,-87.850599,0.010587,
1370,1700,-0.307906,-2.307344,0.999997,0.000228,-0.002349,0.007522,-0.000249,0.007529,-0.002355,-88.556030,0.007702,
1580,1620,-1.138899,-3.471901,0.999997,0.000240,-0.004378,0.009519,-0.000460,0.009534,-0.004394,-88.107229,0.009544,
1070,280,0.290207,-18.393740,0.999997,0.000231,-0.002019,0.007464,0.000052,0.007465,-0.002019,89.687048,0.007722,
1190,340,0.086330,-18.046182,0.999998,0.000183,-0.002003,0.007079,-0.000108,0.007080,-0.002004,-89.316173,0.007299,
1580,1180,-2.495514,-8.350939,0.999994,0.000303,-0.005927,0.011955,0.001367,0.012059,-0.006031,85.652780,0.012059,
930,450,0.958819,-16.689834,0.999998,0.000187,-0.004388,0.009303,-0.000740,0.009343,-0.004428,-86.915197,0.009347,
650,720,3.164605,-13.035370,0.999997,0.000195,-0.005071,0.010138,0.000510,0.010155,-0.005088,88.080269,0.010155,
680,1420,2.714248,-6.165248,0.999996,0.000239,-0.005320,0.010331,-0.000260,0.010335,-0.005324,-89.049722,0.010337,
760,1060,3.435881,-9.756528,0.999996,0.000254,-0.004233,0.009893,-0.000371,0.009903,-0.004243,-88.498519,0.009936,
630,1650,2.277936,-3.965622,0.999995,0.000264,-0.005005,0.010064,0.000118,0.010065,-0.005006,89.551759,0.010065,
720,1570,2.056059,-4.485905,0.999996,0.000246,-0.005113,0.010250,0.000221,0.010254,-0.005116,89.174646,0.010254,
800,780,2.566674,-12.733607,0.999994,0.000290,-0.005938,0.011213,0.000918,0.011262,-0.005987,86.943277,0.011270,
930,1180,2.203370,-8.214855,0.999995,0.000277,-0.006462,0.012776,-0.001143,0.012843,-0.006529,-86.610329,0.012844,
840,1750,1.013999,-2.356489,0.999997,0.000199,-0.003647,0.009212,-0.000314,0.009220,-0.003654,-88.603322,0.009286,
1500,660,-1.117539,-14.740968,0.999996,0.000252,-0.006190,0.010715,0.001599,0.010865,-0.006340,84.643973,0.010916,
1360,40,-0.018464,-20.033601,0.999998,0.000148,-0.000092,0.006002,-0.000306,0.006017,-0.000107,-87.133452,0.006887,
1120,1230,0.526211,-5.708224,0.999994,0.000345,-0.005503,0.007232,0.004361,0.008582,-0.006853,72.796770,0.009077,
630,1710,2.088208,-3.356776,0.999997,0.000239,-0.004857,0.010038,0.000036,0.010038,-0.004857,89.859740,0.010040,
1340,40,-0.016595,-20.034330,0.999998,0.000159,-0.000211,0.005951,-0.000232,0.005959,-0.000220,-87.847037,0.006758,
1460,400,-0.609010,-17.333406,0.999996,0.000226,-0.003295,0.008382,0.000506,0.008404,-0.003317,87.525383,0.008465,
1700,1150,-3.242270,-8.843978,0.999995,0.000295,-0.004831,0.010376,0.001165,0.010465,-0.004920,85.644864,0.010471,
590,60,0.599270,-19.607954,0.999994,0.000281,-0.003591,0.011815,0.004128,0.012852,-0.004628,75.905827,0.013019,
1870,1890,-1.449430,-1.700940,0.999996,0.000243,-0.004902,0.010218,0.000797,0.010260,-0.004944,86.990663,0.010262,
1540,1180,-2.251207,-8.242332,0.999995,0.000266,-0.006354,0.012672,0.001200,0.012747,-0.006429,86.403954,0.012747,
610,720,3.365170,-12.928748,0.999994,0.000263,-0.004974,0.009909,0.000351,0.009918,-0.004982,88.648596,0.009918,
730,720,2.739562,-13.228862,0.999996,0.000251,-0.005602,0.010640,0.000656,0.010666,-0.005629,87.690232,0.010672,
1160,620,0.181464,-16.061080,0.999997,0.000212,-0.002871,0.006353,-0.001571,0.006613,-0.003131,-80.595892,0.006616,
1020,440,0.595190,-17.035667,0.999997,0.000228,-0.003462,0.008331,-0.000773,0.008382,-0.003513,-86.268223,0.008418,
1780,1410,-2.732588,-6.261533,0.999995,0.000277,-0.005304,0.010369,0.000286,0.010375,-0.005309,88.956703,0.010376,
1460,870,-1.653991,-12.429398,0.999992,0.000331,-0.007657,0.013932,0.000598,0.013949,-0.007673,88.414117,0.013972,
1460,260,-0.417759,-18.465820,0.999997,0.000199,-0.002136,0.007758,-0.000282,0.007766,-0.002144,-88.371607,0.008021,
1830,1020,-4.003605,-10.149043,0.999997,0.000207,-0.004291,0.009072,-0.000150,0.009074,-0.004293,-89.355932,0.009078,
720,270,1.385489,-17.853817,0.999997,0.000254,-0.004573,0.009943,0.000584,0.009967,-0.004596,87.698152,0.009977,
1750,1650,-1.867996,-3.693525,0.999997,0.000225,-0.004925,0.010125,-0.000138,0.010127,-0.004926,-89.474937,0.010128,
860,570,1.533598,-15.257442,0.999994,0.000270,-0.005552,0.010467,-0.000635,0.010492,-0.005577,-87.731835,0.010499,
1500,380,-0.724695,-17.403626,0.999996,0.000235,-0.003682,0.008689,0.000447,0.008705,-0.003698,87.931725,0.008738,
1580,1600,-1.176075,-3.661968,0.999997,0.000223,-0.004530,0.009626,-0.000548,0.009647,-0.004551,-87.787700,0.009652,
790,1560,1.724467,-4.361458,0.999995,0.000265,-0.005127,0.010225,0.000351,0.010233,-0.005135,88.690651,0.010233,
1350,1700,-0.260737,-2.282220,0.999997,0.000223,-0.002397,0.007418,-0.000330,0.007429,-0.002408,-88.075131,0.007581,
1580,1160,-2.596273,-8.590208,0.999995,0.000303,-0.005512,0.011855,0.001486,0.011981,-0.005638,85.143821,0.011988,
1510,320,-0.655429,-17.902029,0.999997,0.000224,-0.003248,0.008573,0.000032,0.008573,-0.003248,89.847291,0.008656,
1430,740,-0.826250,-14.318210,0.999994,0.000344,-0.006766,0.010846,0.002895,0.011309,-0.007230,80.900541,0.011455,
760,1040,3.455652,-9.953233,0.999996,0.000232,-0.004203,0.009891,-0.000269,0.009896,-0.004208,-88.907253,0.009933,
930,710,1.455993,-14.009336,0.999994,0.000287,-0.006810,0.011597,-0.000890,0.011640,-0.006853,-87.239332,0.011701,
1530,40,-0.054012,-20.021405,0.999997,0.000202,-0.000177,0.006526,-0.001025,0.006679,-0.000330,-81.494977,0.007529,
680,1400,2.782953,-6.373765,0.999995,0.000251,-0.005300,0.010401,-0.000318,0.010407,-0.005306,-88.840560,0.010408,
800,760,2.486549,-12.959794,0.999994,0.000295,-0.006015,0.011221,0.000773,0.011256,-0.006049,87.435730,0.011266,
630,1630,2.339758,-4.167024,0.999996,0.000247,-0.005011,0.010070,0.000112,0.010071,-0.005012,89.573082,0.010071,
910,1180,2.331467,-8.283046,0.999996,0.000253,-0.006199,0.012416,-0.001273,0.012503,-0.006286,-86.104966,0.012503,
1360,1570,-0.344177,-3.277745,0.999998,0.000178,-0.003060,0.007651,-0.000981,0.007740,-0.003150,-84.809243,0.007784,
1000,40,0.034292,-20.028857,0.999998,0.000175,-0.000053,0.006322,0.000766,0.006413,-0.000144,83.246528,0.007323,
1460,380,-0.587292,-17.497003,0.999996,0.000228,-0.003096,0.008373,0.000365,0.008384,-0.003108,88.179859,0.008477,
630,1690,2.155051,-3.559687,0.999996,0.000237,-0.004920,0.010061,0.000040,0.010061,-0.004920,89.845668,0.010062,
1120,1210,0.644032,-5.855405,0.999992,0.000395,-0.004808,0.006843,0.004016,0.008094,-0.006058,72.708185,0.008420,
1640,1970,-0.261732,-0.477137,0.999998,0.000183,-0.001022,0.007614,0.001907,0.008016,-0.001425,78.084956,0.008553,
980,60,0.068217,-19.902140,0.999998,0.000185,-0.000424,0.006529,0.000822,0.006625,-0.000520,83.348033,0.007368,
1590,590,-1.505211,-15.093255,0.999994,0.000284,-0.005672,0.010513,0.000711,0.010545,-0.005703,87.490663,0.010556,
1500,920,-2.276442,-11.485817,0.999994,0.000321,-0.005875,0.013297,-0.001093,0.013360,-0.005937,-86.747176,0.013387,
1610,1910,-0.445441,-0.930805,0.999997,0.000231,-0.001974,0.008000,0.001411,0.008195,-0.002169,82.100875,0.008493,
1520,230,-0.495604,-18.634411,0.999996,0.000230,-0.002453,0.008043,-0.000533,0.008070,-0.002480,-87.100331,0.008268,
1500,540,-0.941152,-15.951379,0.999996,0.000224,-0.004808,0.009517,0.001242,0.009624,-0.004915,85.081996,0.009625,
1810,1100,-3.861305,-9.410635,0.999997,0.000223,-0.004420,0.009292,0.000463,0.009307,-0.004435,88.067104,0.009311,
660,730,3.149216,-12.959631,0.999996,0.000222,-0.005114,0.010177,0.000586,0.010199,-0.005136,87.808249,0.010199,
1540,1460,-1.232453,-4.919103,0.999996,0.000255,-0.005566,0.010274,-0.001083,0.010347,-0.005640,-86.105542,0.010361,
770,1480,2.042647,-5.261702,0.999994,0.000317,-0.005492,0.010506,0.000170,0.010508,-0.005494,89.392094,0.010511,
840,1480,1.653863,-5.025054,0.999995,0.000246,-0.005569,0.010501,0.000510,0.010518,-0.005585,88.184845,0.010524,
640,1630,2.288192,-4.134748,0.999996,0.000261,-0.005017,0.010095,0.000118,0.010095,-0.005018,89.552157,0.010096,
1830,1000,-3.987462,-10.330417,0.999997,0.000240,-0.004294,0.009021,-0.000305,0.009028,-0.004301,-88.689393,0.009031,
960,770,1.446600,-13.449987,0.999991,0.000343,-0.007433,0.012409,-0.000917,0.012451,-0.007476,-87.358479,0.012535,
1870,1880,-1.512561,-1.804762,0.999996,0.000257,-0.004891,0.010199,0.000707,0.010232,-0.004924,87.323778,0.010234,
1460,700,-0.941721,-14.538947,0.999996,0.000278,-0.006448,0.010782,0.002239,0.011068,-0.006734,82.716777,0.011155,
1160,80,0.025305,-19.792611,0.999998,0.000160,-0.000317,0.006171,0.000220,0.006178,-0.000325,88.059216,0.006954,
1040,950,2.017357,-11.631055,0.999982,0.000518,-0.006866,0.016640,-0.003512,0.017153,-0.007379,-81.682250,0.017209,
1440,1580,-0.613184,-3.411876,0.999997,0.000217,-0.003808,0.008501,-0.001070,0.008593,-0.003900,-85.070486,0.008605,
860,550,1.486497,-15.466828,0.999994,0.000303,-0.005427,0.010363,-0.000646,0.010389,-0.005453,-87.659599,0.010393,
1790,180,-1.176070,-18.618835,0.999996,0.000242,-0.004174,0.010107,-0.001573,0.010278,-0.004345,-83.786660,0.010319,
1050,1080,2.061774,-8.843730,0.999974,0.000625,-0.008263,0.020918,0.004919,0.021725,-0.009070,80.684731,0.021823,
1750,700,-2.762078,-13.400005,0.999995,0.000263,-0.005464,0.010544,-0.000514,0.010560,-0.005481,-88.163012,0.010563,
650,1180,3.692673,-8.660272,0.999996,0.000225,-0.004687,0.009606,-0.000784,0.009648,-0.004730,-86.871212,0.009649,
710,720,2.849805,-13.182727,0.999996,0.000206,-0.005458,0.010453,0.000647,0.010479,-0.005484,87.676588,0.010483,
1210,430,0.050714,-17.416391,0.999998,0.000184,-0.002405,0.007062,-0.000247,0.007068,-0.002411,-88.508923,0.007186,
1750,1410,-2.569112,-6.177106,0.999995,0.000271,-0.005474,0.010488,0.000254,0.010492,-0.005478,89.089545,0.010495,
1580,50,-0.088835,-19.953413,0.999998,0.000161,-0.000627,0.006809,-0.001340,0.007043,-0.000861,-80.090997,0.007684,
590,1440,3.111696,-6.229299,0.999995,0.000284,-0.004959,0.010158,-0.000054,0.010158,-0.004959,-89.797169,0.010159,
1430,760,-0.873947,-14.095990,0.999995,0.000290,-0.007084,0.011188,0.002859,0.011625,-0.007521,81.310671,0.011791,
1530,160,-0.347762,-19.168855,0.999997,0.000196,-0.001643,0.007621,-0.000962,0.007720,-0.001742,-84.132113,0.008098,
1340,1570,-0.287354,-3.237139,0.999997,0.000205,-0.002869,0.007415,-0.000833,0.007482,-0.002936,-85.398098,0.007540,
1720,130,-0.628641,-19.253435,0.999996,0.000244,-0.002253,0.008929,-0.002356,0.009405,-0.002730,-78.574465,0.009677,
1720,1810,-1.186180,-2.002309,0.999997,0.000202,-0.003906,0.009816,0.001026,0.009892,-0.003983,85.748780,0.009954,
980,40,0.034305,-20.028534,0.999998,0.000190,-0.000273,0.006372,0.000797,0.006466,-0.000368,83.252204,0.007264,
1020,420,0.576055,-17.200771,0.999997,0.000248,-0.003263,0.008260,-0.000618,0.008293,-0.003296,-86.937998,0.008351,
1050,1890,0.184030,-0.952527,0.999998,0.000211,-0.001385,0.006915,-0.000403,0.006934,-0.001405,-87.224879,0.007332,
1710,1870,-0.885032,-1.400461,0.999997,0.000208,-0.003113,0.009351,0.001639,0.009563,-0.003325,82.631515,0.009709,
1510,300,-0.618520,-18.069549,0.999997,0.000231,-0.003120,0.008283,-0.000054,0.008284,-0.003121,-89.726202,0.008367,
1580,1140,-2.685930,-8.827099,0.999996,0.000249,-0.005154,0.011569,0.001449,0.011693,-0.005279,85.085152,0.011712,
630,1610,2.398053,-4.368441,0.999996,0.000221,-0.005037,0.010109,0.000126,0.010110,-0.005038,89.524969,0.010110,
800,740,2.409564,-13.185387,0.999995,0.000261,-0.006062,0.011198,0.000632,0.011221,-0.006086,87.905350,0.011235,
1570,40,-0.056605,-20.021117,0.999998,0.000173,-0.000359,0.006677,-0.001260,0.006895,-0.000578,-80.145254,0.007650,
1150,1870,0.083488,-1.043240,0.999998,0.000179,-0.001114,0.006670,-0.000138,0.006672,-0.001116,-88.983543,0.007148,
580,40,0.364631,-19.833074,0.999992,0.000341,-0.000851,0.013033,0.007529,0.016332,-0.004150,66.339285,0.016977,
1500,880,-2.014240,-12.021771,0.999994,0.000316,-0.006884,0.013409,-0.000709,0.013434,-0.006909,-88.002759,0.013435,
820,1750,1.086739,-2.399617,0.999997,0.000206,-0.003841,0.009417,-0.000374,0.009427,-0.003851,-88.384314,0.009480,
1450,1870,-0.266452,-1.116942,0.999997,0.000199,-0.001460,0.007238,0.000517,0.007269,-0.001490,86.613264,0.007679,
720,1020,3.630299,-10.151093,0.999996,0.000240,-0.004315,0.009738,0.000160,0.009739,-0.004317,89.349622,0.009760,
1460,360,-0.562354,-17.665471,0.999997,0.000215,-0.002928,0.008182,0.000262,0.008188,-0.002934,88.650417,0.008297,
1320,1510,-0.235251,-3.632913,0.999997,0.000202,-0.002921,0.007052,-0.001110,0.007175,-0.003043,-83.725127,0.007202,
760,760,2.722545,-12.868758,0.999995,0.000281,-0.005685,0.010849,0.000853,0.010893,-0.005729,87.054763,0.010898,
1050,1300,0.742537,-5.858222,0.999997,0.000207,-0.006772,0.010567,0.003264,0.011161,-0.007366,79.683213,0.011350,
1580,1460,-1.459787,-5.080755,0.999995,0.000261,-0.005745,0.010509,-0.000774,0.010545,-0.005781,-87.280339,0.010562,
1740,1910,-0.766635,-1.069763,0.999994,0.000265,-0.003420,0.009367,0.001935,0.009653,-0.003706,81.580345,0.009740,
1640,1950,-0.340595,-0.630135,0.999997,0.000207,-0.001345,0.007887,0.001805,0.008227,-0.001686,79.323286,0.008691,
1610,1890,-0.524626,-1.099788,0.999997,0.000234,-0.002275,0.008231,0.001320,0.008395,-0.002438,82.948217,0.008637,
1460,680,-0.909072,-14.752496,0.999994,0.000311,-0.006144,0.010449,0.002224,0.010742,-0.006437,82.496516,0.010813,
1430,720,-0.787146,-14.533314,0.999994,0.000310,-0.006419,0.010430,0.002807,0.010886,-0.006874,80.786814,0.011010,
830,1180,2.793507,-8.444442,0.999994,0.000267,-0.005422,0.011278,-0.001371,0.011389,-0.005534,-85.339345,0.011391,
840,1460,1.704826,-5.239711,0.999996,0.000248,-0.005706,0.010638,0.000496,0.010653,-0.005721,88.261958,0.010663,
1160,60,0.015192,-19.916073,0.999998,0.000176,-0.000182,0.006077,0.000194,0.006083,-0.000188,88.228402,0.006918,
1210,410,0.048765,-17.558950,0.999998,0.000205,-0.002366,0.007092,-0.000238,0.007098,-0.002372,-88.561884,0.007227,
1830,860,-3.724748,-11.620415,0.999995,0.000271,-0.004679,0.009589,-0.000724,0.009626,-0.004716,-87.102764,0.009627,
1050,340,0.403913,-17.908454,0.999998,0.000223,-0.002814,0.007747,-0.000344,0.007759,-0.002825,-88.138006,0.007853,
1500,1670,-0.733297,-2.800771,0.999997,0.000204,-0.003689,0.008706,-0.000456,0.008723,-0.003706,-87.896193,0.008756,
1500,640,-1.083706,-14.949160,0.999995,0.000267,-0.005933,0.010377,0.001600,0.010532,-0.006088,84.449940,0.010575,
780,850,2.962235,-11.919656,0.999996,0.000227,-0.005353,0.010850,0.001246,0.010946,-0.005448,85.628232,0.010946,
900,670,1.539248,-14.331200,0.999997,0.000225,-0.006378,0.011275,-0.000728,0.011305,-0.006408,-87.643113,0.011339,
1050,1070,2.102265,-9.053931,0.999977,0.000569,-0.008853,0.022588,0.004204,0.023140,-0.009405,82.514128,0.023275,
1790,160,-1.055426,-18.822836,0.999997,0.000251,-0.003963,0.010168,-0.001935,0.010428,-0.004223,-82.343482,0.010491,
1820,230,-1.570004,-18.017713,0.999995,0.000272,-0.004707,0.010163,-0.000647,0.010191,-0.004735,-87.514200,0.010199,
1770,1020,-3.742832,-10.152095,0.999998,0.000188,-0.004328,0.009532,-0.000143,0.009533,-0.004330,-89.408701,0.009547,
1590,790,-2.149437,-12.815534,0.999995,0.000257,-0.006614,0.011996,-0.000666,0.012020,-0.006638,-87.953622,0.012042,
1570,50,-0.083456,-19.954402,0.999998,0.000163,-0.000506,0.006770,-0.001280,0.006989,-0.000725,-80.308842,0.007686,
580,1440,3.161362,-6.260636,0.999996,0.000236,-0.004702,0.010176,-0.000016,0.010176,-0.004702,-89.939838,0.010185,
1450,760,-1.016476,-13.931703,0.999994,0.000285,-0.007316,0.011667,0.002326,0.011948,-0.007597,83.114766,0.012094,
1520,40,-0.051673,-20.021860,0.999998,0.000171,-0.000263,0.006463,-0.000934,0.006590,-0.000391,-82.237050,0.007395,
1750,1370,-2.709182,-6.598719,0.999996,0.000250,-0.005467,0.010566,0.000443,0.010578,-0.005479,88.418537,0.010581,
930,670,1.346164,-14.467438,0.999995,0.000278,-0.006393,0.011178,-0.001145,0.011252,-0.006468,-86.288748,0.011294,
1470,1540,-0.774748,-3.865161,0.999996,0.000219,-0.004294,0.008997,-0.001209,0.009106,-0.004403,-84.843664,0.009107,
630,240,1.679209,-17.863268,0.999997,0.000207,-0.004800,0.010085,0.000347,0.010093,-0.004808,88.665282,0.010097,
1720,1790,-1.268239,-2.198101,0.999996,0.000239,-0.004056,0.009803,0.000809,0.009850,-0.004103,86.672424,0.009895,
910,360,0.873178,-17.461743,0.999996,0.000222,-0.003618,0.009023,-0.000036,0.009023,-0.003618,-89.837984,0.009082,
1580,1120,-2.773180,-9.056634,0.999995,0.000258,-0.004725,0.011390,0.001444,0.011518,-0.004853,84.918141,0.011565,
630,1590,2.457328,-4.573386,0.999995,0.000245,-0.005058,0.010150,0.000128,0.010151,-0.005059,89.517282,0.010151,
800,720,2.333927,-13.409884,0.999995,0.000256,-0.006078,0.011186,0.000494,0.011200,-0.006093,88.361367,0.011215,
1050,1870,0.207763,-1.090037,0.999998,0.000202,-0.001578,0.007059,-0.000333,0.007072,-0.001591,-87.795132,0.007420,
970,1990,0.084615,-0.291694,0.999998,0.000159,-0.000587,0.006627,-0.000866,0.006729,-0.000690,-83.250643,0.007404,
1540,40,-0.054673,-20.020954,0.999998,0.000179,-0.000110,0.006584,-0.001122,0.006767,-0.000293,-80.732098,0.007651,
920,40,0.053524,-20.021371,0.999999,0.000147,-0.000101,0.006537,0.001148,0.006730,-0.000294,80.460933,0.007607,
1360,830,-0.651907,-14.164020,0.999995,0.000263,-0.006260,0.008802,0.004425,0.010006,-0.007464,74.782017,0.010402,
1020,400,0.557462,-17.362555,0.999997,0.000240,-0.003126,0.008202,-0.000486,0.008223,-0.003147,-87.546900,0.008298,
1180,1370,0.116056,-4.411376,0.999998,0.000216,-0.002604,0.005209,0.001799,0.005603,-0.002999,77.637531,0.005608,
1540,1440,-1.269435,-5.126062,0.999995,0.000267,-0.005798,0.010473,-0.001114,0.010549,-0.005874,-86.102429,0.010572,
1150,1850,0.097192,-1.178644,0.999998,0.000184,-0.001255,0.006796,-0.000114,0.006798,-0.001257,-89.188016,0.007234,
870,1560,1.320809,-4.098337,0.999996,0.000253,-0.004980,0.009930,0.000641,0.009958,-0.005007,87.542902,0.009958,
580,1710,2.330749,-3.540585,0.999997,0.000203,-0.005045,0.009777,-0.000179,0.009780,-0.005047,-89.307386,0.009781,
580,60,0.639210,-19.572067,0.999988,0.000406,-0.003760,0.012604,0.004832,0.013925,-0.005080,74.716951,0.014093,
1350,1480,-0.331237,-3.930450,0.999997,0.000215,-0.003455,0.007430,-0.001680,0.007683,-0.003708,-81.423362,0.007685,
760,1020,3.457722,-10.154631,0.999996,0.000241,-0.004208,0.009925,0.000171,0.009927,-0.004210,89.307651,0.009965,
1450,1850,-0.304252,-1.266426,0.999998,0.000191,-0.001644,0.007418,0.000489,0.007444,-0.001671,86.921873,0.007812,
1710,1720,-1.462853,-2.865956,0.999996,0.000247,-0.004451,0.009893,0.000205,0.009896,-0.004454,89.180814,0.009912,
840,1440,1.758637,-5.454833,0.999995,0.000277,-0.005839,0.010746,0.000444,0.010758,-0.005851,88.467204,0.010772,
1460,890,-1.800817,-12.147692,0.999990,0.000363,-0.007257,0.014074,0.000262,0.014078,-0.007260,89.297231,0.014080,
1580,2010,-0.076052,-0.174942,0.999998,0.000167,-0.000576,0.006777,0.001328,0.007009,-0.000809,80.072267,0.007669,
1620,250,-0.837946,-18.309129,0.999997,0.000201,-0.003197,0.009005,-0.000783,0.009055,-0.003247,-86.341960,0.009175,
1430,580,-0.650700,-15.866709,0.999994,0.000285,-0.004483,0.008808,0.001797,0.009047,-0.004722,82.434721,0.009050,
680,410,2.044020,-16.308859,0.999996,0.000230,-0.004978,0.010129,-0.000141,0.010130,-0.004980,-89.465257,0.010130,
720,1000,3.611476,-10.349157,0.999995,0.000235,-0.004303,0.009702,0.000348,0.009710,-0.004312,88.577341,0.009731,
570,1440,3.209292,-6.294670,0.999949,0.000858,-0.004561,0.010192,-0.000006,0.010192,-0.004561,-89.976305,0.010211,
1050,1060,2.128341,-9.288661,0.999974,0.000657,-0.009383,0.023890,0.003294,0.024213,-0.009706,84.400825,0.024372,
1580,1480,-1.415221,-4.870242,0.999994,0.000292,-0.005622,0.010398,-0.000801,0.010438,-0.005662,-87.144962,0.010450,
1820,210,-1.468192,-18.222157,0.999993,0.000316,-0.004642,0.010259,-0.000814,0.010304,-0.004686,-86.884362,0.010318,
600,250,1.870867,-17.638386,0.999996,0.000270,-0.004848,0.009884,0.000158,0.009886,-0.004850,89.387031,0.009886,
900,650,1.486896,-14.555073,0.999994,0.000281,-0.006209,0.011040,-0.000830,0.011080,-0.006249,-87.251019,0.011110,
1870,490,-2.716428,-15.213928,0.999996,0.000227,-0.005026,0.010096,0.000042,0.010096,-0.005026,89.840054,0.010096,
1610,1870,-0.589344,-1.259289,0.999997,0.000224,-0.002525,0.008415,0.001152,0.008535,-0.002645,84.054859,0.008738,
1510,40,-0.046083,-20.025167,0.999998,0.000167,-0.000353,0.006417,-0.000878,0.006529,-0.000465,-82.726528,0.007285,
760,850,3.067174,-11.893870,0.999995,0.000261,-0.005216,0.010624,0.001196,0.010714,-0.005306,85.708024,0.010714,
1870,980,-4.140178,-10.488100,0.999998,0.000200,-0.004137,0.008459,-0.000094,0.008459,-0.004138,-89.573482,0.008460,
1420,670,-0.665720,-15.097174,0.999996,0.000272,-0.005493,0.009408,0.002652,0.009866,-0.005951,80.204008,0.009936,
1210,390,0.047626,-17.701705,0.999998,0.000183,-0.002280,0.007086,-0.000217,0.007091,-0.002285,-88.671193,0.007239,
1090,1700,0.315471,-2.310832,0.999998,0.000183,-0.002347,0.007525,0.000244,0.007531,-0.002353,88.583063,0.007706,
670,340,1.873864,-16.985340,0.999997,0.000200,-0.004874,0.010035,0.000009,0.010035,-0.004874,89.967273,0.010036,
1750,1350,-2.780371,-6.813219,0.999996,0.000225,-0.005454,0.010508,0.000550,0.010527,-0.005473,88.029790,0.010529,
930,650,1.302763,-14.686959,0.999994,0.000276,-0.006177,0.010881,-0.001179,0.010962,-0.006258,-86.066310,0.010999,
1580,1100,-2.848684,-9.282776,0.999995,0.000259,-0.004391,0.011185,0.001191,0.011276,-0.004481,85.651797,0.011354,
1050,1850,0.240293,-1.236385,0.999998,0.000197,-0.001722,0.007186,-0.000297,0.007195,-0.001732,-88.092506,0.007511,
1680,1810,-1.032456,-1.916673,0.999997,0.000203,-0.003954,0.009454,0.000790,0.009501,-0.004001,86.639118,0.009540,
610,260,1.865817,-17.578914,0.999997,0.000239,-0.004854,0.010004,0.000162,0.010006,-0.004856,89.374214,0.010007,
800,700,2.259292,-13.635184,0.999995,0.000280,-0.006030,0.011146,0.000329,0.011152,-0.006036,88.904242,0.011164,
1550,40,-0.054457,-20.022000,0.999998,0.000163,-0.000109,0.006636,-0.001204,0.006845,-0.000317,-80.179430,0.007727,
1510,400,-0.792710,-17.204111,0.999996,0.000238,-0.003729,0.008808,0.000454,0.008824,-0.003745,87.930490,0.008858,
630,1570,2.513766,-4.778227,0.999995,0.000263,-0.005064,0.010161,0.000110,0.010162,-0.005065,89.585646,0.010162,
1020,380,0.536473,-17.529658,0.999996,0.000239,-0.003017,0.008246,-0.000377,0.008259,-0.003030,-88.086448,0.008356,
970,1970,0.125210,-0.431442,0.999998,0.000161,-0.000804,0.006814,-0.000856,0.006909,-0.000899,-83.664030,0.007513,
1370,820,-0.659116,-14.107944,0.999987,0.000410,-0.006575,0.009591,0.004312,0.010669,-0.007654,75.959520,0.011000,
1150,1830,0.108149,-1.315379,0.999998,0.000187,-0.001393,0.006869,-0.000067,0.006870,-0.001393,-89.535329,0.007263,
1590,2000,-0.109862,-0.244451,0.999998,0.000160,-0.000732,0.006942,0.001435,0.007202,-0.000992,79.749672,0.007806,
1730,1720,-1.554763,-2.921764,0.999996,0.000239,-0.004703,0.009933,0.000145,0.009935,-0.004704,89.433066,0.009939,
580,1700,2.365044,-3.639478,0.999997,0.000231,-0.005441,0.009908,-0.000299,0.009913,-0.005447,-88.884166,0.009930,
850,440,1.298681,-16.542136,0.999996,0.000296,-0.004703,0.009825,-0.000419,0.009837,-0.004715,-88.348192,0.009840,
760,980,3.425204,-10.551253,0.999995,0.000268,-0.004349,0.009961,0.000438,0.009974,-0.004362,88.248810,0.010001,
840,1420,1.811990,-5.672453,0.999994,0.000276,-0.005984,0.010958,0.000349,0.010965,-0.005991,88.820241,0.010981,
760,390,1.595873,-16.767009,0.999997,0.000245,-0.004737,0.009956,-0.000067,0.009956,-0.004738,-89.739866,0.009960,
1310,1240,-0.311290,-5.213470,0.999995,0.000257,-0.004392,0.004762,-0.003722,0.006085,-0.005715,-70.439535,0.006822,
1320,1490,-0.236210,-3.774666,0.999997,0.000217,-0.002972,0.006996,-0.001234,0.007147,-0.003123,-83.046374,0.007166,
1610,1850,-0.660241,-1.438622,0.999997,0.000233,-0.002775,0.008663,0.001050,0.008758,-0.002870,84.798305,0.008930,
720,980,3.595006,-10.542836,0.999995,0.000259,-0.004342,0.009650,0.000349,0.009658,-0.004351,88.571411,0.009674,
1840,550,-2.743715,-14.696388,0.999996,0.000236,-0.005092,0.010226,0.000037,0.010226,-0.005092,89.862631,0.010226,
1040,1080,2.154464,-8.981720,0.999977,0.000619,-0.007860,0.019162,0.003400,0.019583,-0.008281,82.936411,0.019660,
1450,1830,-0.334341,-1.412447,0.999997,0.000202,-0.001822,0.007501,0.000376,0.007516,-0.001838,87.692663,0.007836,
1870,420,-2.507640,-15.920506,0.999995,0.000254,-0.004964,0.009960,0.000101,0.009961,-0.004965,89.611233,0.009961,
740,850,3.170747,-11.867179,0.999996,0.000246,-0.005139,0.010395,0.001117,0.010475,-0.005219,85.906561,0.010475,
1500,860,-1.887228,-12.289235,0.999993,0.000353,-0.007235,0.013393,-0.000379,0.013400,-0.007242,-88.948408,0.013414,
980,570,0.894271,-15.731599,0.999997,0.000209,-0.004961,0.009582,-0.001501,0.009736,-0.005114,-84.169048,0.009740,
1730,240,-1.203468,-18.187301,0.999996,0.000228,-0.004016,0.009847,-0.000957,0.009913,-0.004081,-86.069833,0.009964,
1580,1920,-0.353502,-0.828798,0.999997,0.000203,-0.001852,0.007696,0.001210,0.007847,-0.002003,82.888923,0.008154,
700,1050,3.702039,-9.863309,0.999997,0.000231,-0.004314,0.009518,-0.000314,0.009525,-0.004322,-88.702093,0.009538,
1870,450,-2.597183,-15.618788,0.999996,0.000233,-0.004967,0.010050,0.000094,0.010051,-0.004967,89.640513,0.010051,
1080,40,0.020039,-20.033904,0.999999,0.000149,-0.000039,0.006104,0.000418,0.006132,-0.000068,86.123795,0.007042,
1210,370,0.048235,-17.842026,0.999998,0.000188,-0.002177,0.007062,-0.000189,0.007065,-0.002181,-88.828472,0.007236,
610,240,1.776141,-17.780450,0.999996,0.000271,-0.004857,0.009943,0.000215,0.009946,-0.004860,89.169080,0.009947,
640,1250,3.516860,-7.998965,0.999995,0.000290,-0.004863,0.009734,-0.000700,0.009768,-0.004896,-87.258909,0.009768,
1460,660,-0.878106,-14.959221,0.999995,0.000275,-0.005826,0.010143,0.002148,0.010427,-0.006110,82.472432,0.010478,
1550,50,-0.079085,-19.955127,0.999998,0.000192,-0.000252,0.006687,-0.001187,0.006884,-0.000450,-80.554050,0.007702,
720,530,2.180567,-15.207343,0.999996,0.000204,-0.005269,0.010358,-0.000184,0.010360,-0.005271,-89.325033,0.010361,
1750,1330,-2.852250,-7.020994,0.999996,0.000230,-0.005455,0.010441,0.000666,0.010469,-0.005483,87.603425,0.010473,
1760,90,-0.495422,-19.556181,0.999995,0.000242,-0.002865,0.008729,-0.002540,0.009261,-0.003396,-78.171478,0.009370,
1330,1700,-0.212027,-2.256623,0.999997,0.000201,-0.002418,0.007337,-0.000347,0.007350,-0.002431,-87.962987,0.007489,
1580,1080,-2.906647,-9.503936,0.999996,0.000258,-0.004026,0.011058,0.000984,0.011122,-0.004090,86.283513,0.011251,
1290,280,-0.099606,-18.466865,0.999998,0.000155,-0.001640,0.007056,-0.000051,0.007057,-0.001641,-89.660881,0.007386,
1560,1150,-2.534453,-8.671476,0.999995,0.000271,-0.005501,0.012094,0.001487,0.012219,-0.005626,85.201713,0.012232,
1150,1990,0.019790,-0.274251,0.999998,0.000140,-0.000272,0.006120,-0.000233,0.006128,-0.000281,-87.916132,0.006920,
1460,830,-1.400258,-12.972154,0.999989,0.000406,-0.007882,0.013159,0.001307,0.013240,-0.007962,86.459899,0.013330,
630,1550,2.573126,-4.982298,0.999995,0.000269,-0.005081,0.010140,0.000090,0.010141,-0.005081,89.662313,0.010141,
800,1120,3.153846,-9.129058,0.999996,0.000261,-0.004578,0.010411,-0.001004,0.010478,-0.004645,-86.183583,0.010500,
1580,960,-2.858516,-10.822569,0.999997,0.000232,-0.004283,0.011136,-0.001122,0.011217,-0.004364,-85.860950,0.011309,
1500,680,-1.159373,-14.521928,0.999997,0.000236,-0.006444,0.011021,0.001564,0.011160,-0.006583,84.921950,0.011219,
580,1690,2.399628,-3.738087,0.999996,0.000248,-0.005761,0.009969,-0.000305,0.009975,-0.005767,-88.888603,0.010016,
990,1300,1.169421,-6.335464,0.999995,0.000325,-0.007356,0.011927,0.001774,0.012089,-0.007518,84.788071,0.012208,
1460,1010,-2.503541,-10.351582,0.999980,0.000512,-0.005182,0.016035,0.000127,0.016036,-0.005183,89.657137,0.016367,
1580,2000,-0.104001,-0.241858,0.999998,0.000170,-0.000708,0.006875,0.001362,0.007113,-0.000945,80.117823,0.007725,
1020,360,0.511359,-17.694522,0.999996,0.000223,-0.002925,0.008080,-0.000344,0.008091,-0.002936,-88.212181,0.008192,
1710,1850,-0.978345,-1.594551,0.999997,0.000195,-0.003421,0.009634,0.001450,0.009793,-0.003580,83.738369,0.009910,
1540,1420,-1.312002,-5.342400,0.999994,0.000269,-0.006042,0.010754,-0.001107,0.010827,-0.006115,-86.245138,0.010857,
870,1540,1.360399,-4.298961,0.999994,0.000270,-0.005100,0.010073,0.000671,0.010103,-0.005130,87.473048,0.010103,
1150,1810,0.119265,-1.453341,0.999997,0.000190,-0.001524,0.006948,-0.000060,0.006949,-0.001525,-89.593934,0.007304,
1180,1350,0.112713,-4.513309,0.999997,0.000205,-0.002579,0.004882,0.002022,0.005395,-0.003092,75.768250,0.005414,
1670,640,-2.103519,-14.273456,0.999998,0.000146,-0.005817,0.010833,0.000009,0.010833,-0.005817,89.968355,0.010843,
840,1400,1.872830,-5.894489,0.999995,0.000277,-0.006122,0.011051,0.000239,0.011054,-0.006126,89.201706,0.011076,
1870,410,-2.477617,-16.020838,0.999995,0.000263,-0.004960,0.009924,0.000100,0.009925,-0.004961,89.613450,0.009925,
1200,1510,0.079407,-3.541688,0.999997,0.000245,-0.002553,0.006571,0.000447,0.006593,-0.002575,87.204273,0.006646,
1740,1530,-2.150752,-4.889128,0.999995,0.000245,-0.005227,0.010304,-0.000185,0.010306,-0.005230,-89.319300,0.010307,
760,960,3.391961,-10.755470,0.999996,0.000247,-0.004458,0.010099,0.000800,0.010143,-0.004502,86.862327,0.010164,
740,390,1.692033,-16.705269,0.999996,0.000254,-0.004869,0.010072,-0.000075,0.010072,-0.004869,-89.712113,0.010074,
1840,530,-2.682861,-14.900608,0.999996,0.000237,-0.005091,0.010155,0.000057,0.010155,-0.005092,89.784282,0.010155,
1410,970,-2.022727,-11.466933,0.999980,0.000562,-0.007860,0.020729,0.005532,0.021762,-0.008893,79.422249,0.021883,
1050,1830,0.262789,-1.378862,0.999997,0.000208,-0.001923,0.007297,-0.000189,0.007301,-0.001927,-88.823406,0.007567,
1700,770,-2.743424,-12.766176,0.999997,0.000234,-0.005713,0.010871,-0.000900,0.010920,-0.005762,-86.904264,0.010925,
930,630,1.258034,-14.902769,0.999995,0.000258,-0.005959,0.010587,-0.001183,0.010671,-0.006043,-85.932289,0.010703,
1150,220,0.106620,-18.877375,0.999998,0.000161,-0.001388,0.006806,0.000099,0.006807,-0.001389,89.310806,0.007194,
1610,1830,-0.726230,-1.608199,0.999996,0.000258,-0.002980,0.008676,0.000885,0.008742,-0.003047,85.684615,0.008875,
890,50,0.085271,-19.954098,0.999998,0.000147,-0.000567,0.006795,0.001298,0.007017,-0.000789,80.286146,0.007687,
1580,1900,-0.419454,-0.987372,0.999997,0.000213,-0.002091,0.007884,0.001168,0.008018,-0.002226,83.411596,0.008279,
1210,350,0.046384,-17.984477,0.999997,0.000194,-0.002101,0.007017,-0.000163,0.007020,-0.002104,-88.977854,0.007205,
1620,570,-1.625163,-15.196890,0.999995,0.000248,-0.005524,0.010489,0.000525,0.010506,-0.005542,88.124435,0.010511,
590,40,0.353996,-19.840678,0.999971,0.000692,-0.000769,0.012025,0.006371,0.014656,-0.003400,67.557823,0.015342,
1290,1240,-0.231727,-5.000638,0.999997,0.000226,-0.004013,0.003513,-0.002840,0.004464,-0.004964,-71.480829,0.005467,
1450,1810,-0.369473,-1.570579,0.999997,0.000189,-0.002028,0.007682,0.000316,0.007692,-0.002038,88.138138,0.007971,
720,960,3.571623,-10.736493,0.999995,0.000273,-0.004429,0.009809,0.000671,0.009840,-0.004460,87.309360,0.009855,
970,1950,0.164607,-0.567151,0.999997,0.000182,-0.001066,0.006965,-0.000875,0.007059,-0.001160,-83.851569,0.007571,
1470,1220,-1.504672,-7.335393,0.999992,0.000346,-0.007825,0.013290,-0.000860,0.013325,-0.007860,-87.671765,0.013396,
1620,230,-0.769979,-18.494197,0.999997,0.000216,-0.002963,0.008884,-0.000908,0.008953,-0.003032,-85.642590,0.009107,
630,1530,2.633195,-5.185654,0.999996,0.000236,-0.005073,0.010170,0.000066,0.010170,-0.005074,89.751953,0.010170,
1730,120,-0.588581,-19.335619,0.999996,0.000251,-0.002444,0.008992,-0.002412,0.009480,-0.002932,-78.564733,0.009707,
1750,1310,-2.925310,-7.232307,0.999996,0.000234,-0.005410,0.010505,0.000754,0.010540,-0.005446,87.293539,0.010542,
1720,430,-1.789174,-16.307509,0.999995,0.000246,-0.004953,0.010108,0.000215,0.010111,-0.004956,89.182763,0.010112,
810,1180,2.901989,-8.475365,0.999995,0.000268,-0.005271,0.010994,-0.001299,0.011097,-0.005374,-85.462769,0.011099,
1580,1580,-1.214879,-3.855345,0.999996,0.000232,-0.004775,0.009737,-0.000633,0.009764,-0.004802,-87.506715,0.009765,
680,1080,3.765088,-9.582423,0.999997,0.000210,-0.004380,0.009369,-0.000286,0.009375,-0.004386,-88.807865,0.009382,
800,1140,3.094952,-8.918310,0.999995,0.000293,-0.004796,0.010638,-0.001229,0.010735,-0.004893,-85.476013,0.010749,
970,1300,1.318756,-6.467846,0.999991,0.000368,-0.007330,0.012129,0.001262,0.012211,-0.007411,86.303918,0.012304,
1780,150,-0.953089,-18.948992,0.999996,0.000236,-0.003922,0.009912,-0.001979,0.010189,-0.004199,-82.015296,0.010241,
1580,1060,-2.949661,-9.727147,0.999996,0.000263,-0.003810,0.010877,0.000573,0.010900,-0.003832,87.770466,0.011059,
1430,900,-1.667330,-12.303130,0.999992,0.000310,-0.006832,0.014362,0.001894,0.014530,-0.007000,84.933175,0.014533,
1510,460,-0.875783,-16.668397,0.999997,0.000215,-0.004150,0.009121,0.000780,0.009167,-0.004195,86.646736,0.009178,
1710,1680,-1.584960,-3.264285,0.999995,0.000263,-0.004670,0.009936,0.000014,0.009936,-0.004670,89.945445,0.009942,
1760,1650,-1.916957,-3.725819,0.999997,0.000189,-0.004921,0.010116,-0.000147,0.010118,-0.004922,-89.438413,0.010119,
1150,1790,0.129419,-1.594399,0.999998,0.000175,-0.001664,0.007034,-0.000010,0.007034,-0.001664,-89.935710,0.007352,
970,2000,0.064724,-0.228020,0.999998,0.000164,-0.000491,0.006478,-0.000839,0.006578,-0.000591,-83.230265,0.007278,
1540,1400,-1.356533,-5.560445,0.999994,0.000279,-0.006250,0.011011,-0.001075,0.011078,-0.006316,-86.451506,0.011114,
1840,1590,-2.491873,-4.597183,0.999996,0.000290,-0.005055,0.010141,-0.000125,0.010142,-0.005056,-89.529362,0.010142,
1810,1020,-3.917316,-10.148958,0.999997,0.000196,-0.004318,0.009249,-0.000157,0.009251,-0.004320,-89.338230,0.009257,
1710,1830,-1.066583,-1.786895,0.999997,0.000183,-0.003621,0.009608,0.001204,0.009717,-0.003729,84.840043,0.009804,
1590,1340,-1.854437,-6.455940,0.999997,0.000195,-0.006588,0.011642,-0.000138,0.011643,-0.006589,-89.567273,0.011677,
630,720,3.265273,-12.982934,0.999994,0.000272,-0.005030,0.010029,0.000442,0.010042,-0.005043,88.319983,0.010042,
850,50,0.111263,-19.946674,0.999997,0.000188,-0.000406,0.006961,0.001611,0.007298,-0.000743,78.187099,0.008033,
1300,830,-0.336527,-14.998288,0.999993,0.000299,-0.004426,0.003869,0.002570,0.004600,-0.005158,74.107032,0.005662,
1470,840,-1.536637,-12.757731,0.999990,0.000385,-0.007821,0.013369,0.000801,0.013399,-0.007851,87.837563,0.013465,
940,1250,1.750412,-7.265192,0.999993,0.000300,-0.007399,0.012752,0.000033,0.012752,-0.007399,89.906299,0.012807,
590,1240,3.783748,-8.204213,0.999996,0.000231,-0.004629,0.009237,-0.000280,0.009243,-0.004635,-88.842215,0.009243,
680,1380,2.851884,-6.584394,0.999996,0.000239,-0.005288,0.010368,-0.000389,0.010378,-0.005297,-88.577697,0.010379,
1500,520,-0.914546,-16.139790,0.999996,0.000238,-0.004685,0.009401,0.001176,0.009498,-0.004783,85.262135,0.009498,
1540,230,-0.544558,-18.609802,0.999996,0.000256,-0.002334,0.008199,-0.000682,0.008243,-0.002378,-86.311195,0.008485,
840,1380,1.932563,-6.116223,0.999994,0.000304,-0.006210,0.011142,0.000117,0.011143,-0.006210,89.612104,0.011168,
1200,1950,0.018061,-0.521095,0.999998,0.000184,-0.000543,0.006273,-0.000084,0.006274,-0.000544,-89.292407,0.006951,
630,1730,2.023080,-3.155215,0.999996,0.000248,-0.004843,0.009995,0.000027,0.009995,-0.004843,89.894152,0.009996,
1700,430,-1.692126,-16.372601,0.999996,0.000233,-0.004907,0.010077,0.000224,0.010080,-0.004911,89.142335,0.010081,
1820,550,-2.639690,-14.758058,0.999996,0.000230,-0.005114,0.010237,0.000052,0.010237,-0.005115,89.807052,0.010237,
1750,1290,-2.999962,-7.446417,0.999996,0.000244,-0.005338,0.010538,0.000856,0.010584,-0.005384,86.920751,0.010584,
1610,1810,-0.792182,-1.788051,0.999997,0.000234,-0.003202,0.008871,0.000754,0.008918,-0.003249,86.440941,0.009027,
700,1640,1.961956,-3.837713,0.999997,0.000210,-0.004949,0.010105,0.000162,0.010107,-0.004951,89.383803,0.010107,
980,710,1.117221,-14.279908,0.999997,0.000225,-0.006692,0.011267,-0.001777,0.011441,-0.006866,-84.403474,0.011518,
760,940,3.345586,-10.958179,0.999995,0.000268,-0.004529,0.010073,0.000898,0.010128,-0.004584,86.495079,0.010143,
1180,1510,0.130382,-3.559124,0.999998,0.000161,-0.002646,0.006716,0.000650,0.006761,-0.002691,86.048026,0.006808,
1700,750,-2.666131,-12.983605,0.999995,0.000271,-0.005775,0.010852,-0.000785,0.010889,-0.005812,-87.304404,0.010898,
1730,100,-0.469902,-19.513719,0.999996,0.000266,-0.002079,0.008515,-0.002400,0.009033,-0.002598,-77.812855,0.009301,
1620,550,-1.579265,-15.407464,0.999994,0.000259,-0.005401,0.010378,0.000556,0.010398,-0.005420,87.983605,0.010401,
1020,560,0.695899,-15.989022,0.999996,0.000246,-0.004431,0.008892,-0.001596,0.009081,-0.004619,-83.262387,0.009081,
1210,330,0.045231,-18.124670,0.999998,0.000161,-0.002026,0.007053,-0.000132,0.007055,-0.002028,-89.169229,0.007264,
830,600,1.776339,-14.832422,0.999995,0.000248,-0.005737,0.010707,-0.000400,0.010717,-0.005747,-88.608214,0.010726,
1700,2010,-0.148376,-0.198626,0.999997,0.000229,-0.000442,0.007417,0.002270,0.008025,-0.001051,74.995343,0.008723,
1780,190,-1.186245,-18.545267,0.999996,0.000233,-0.004361,0.010068,-0.001307,0.010185,-0.004479,-84.864441,0.010210,
1510,420,-0.821547,-17.027192,0.999996,0.000236,-0.003797,0.008852,0.000546,0.008876,-0.003821,87.534579,0.008904,
1690,1680,-1.494398,-3.205458,0.999995,0.000260,-0.004551,0.009807,-0.000015,0.009807,-0.004551,-89.938256,0.009815,
800,1160,3.023934,-8.700360,0.999996,0.000259,-0.005015,0.010713,-0.001285,0.010818,-0.005119,-85.358440,0.010823,
710,1120,3.560846,-9.180427,0.999996,0.000201,-0.004591,0.009773,-0.000804,0.009818,-0.004636,-86.805524,0.009823,
1470,2010,-0.042837,-0.162829,0.999998,0.000196,-0.000141,0.006396,0.000765,0.006485,-0.000229,83.412095,0.007359,
1150,1770,0.139603,-1.736274,0.999998,0.000174,-0.001795,0.007081,0.000007,0.007081,-0.001795,89.958038,0.007362,
1130,220,0.135252,-18.867224,0.999998,0.000175,-0.001525,0.006865,0.000054,0.006865,-0.001526,89.630410,0.007209,
1740,1650,-1.818192,-3.661327,0.999997,0.000269,-0.004929,0.010125,-0.000142,0.010126,-0.004930,-89.457831,0.010127,
720,410,1.847473,-16.438066,0.999997,0.000231,-0.004876,0.010118,-0.000136,0.010119,-0.004877,-89.478911,0.010121,
1640,50,-0.121352,-19.943819,0.999998,0.000192,-0.000456,0.007096,-0.001842,0.007522,-0.000882,-77.001304,0.008224,
580,1250,3.797679,-8.138715,0.999997,0.000227,-0.004905,0.009151,-0.000089,0.009151,-0.004906,-89.636136,0.009159,
1530,760,-1.606260,-13.424058,0.999994,0.000278,-0.007233,0.012257,0.000499,0.012270,-0.007246,88.535180,0.012337,
680,1060,3.779326,-9.773366,0.999998,0.000176,-0.004358,0.009411,-0.000292,0.009417,-0.004364,-88.784288,0.009425,
610,1240,3.691123,-8.157565,0.999996,0.000232,-0.004673,0.009356,-0.000466,0.009371,-0.004689,-88.097785,0.009371,
1330,40,-0.012931,-20.035093,0.999998,0.000171,-0.000242,0.005957,-0.000195,0.005963,-0.000248,-88.198656,0.006747,
1560,50,-0.081334,-19.955277,0.999998,0.000168,-0.000355,0.006729,-0.001242,0.006941,-0.000566,-80.339864,0.007708,
1820,1410,-2.940303,-6.376596,0.999996,0.000224,-0.005141,0.010239,0.000221,0.010242,-0.005144,89.177162,0.010242,
720,940,3.526295,-10.935561,0.999995,0.000249,-0.004551,0.009853,0.000842,0.009902,-0.004600,86.667078,0.009911,
1580,1880,-0.480432,-1.144940,0.999997,0.000222,-0.002373,0.008025,0.001016,0.008123,-0.002471,84.470245,0.008328,
970,1930,0.208307,-0.709290,0.999998,0.000176,-0.001277,0.007062,-0.000805,0.007139,-0.001354,-84.538464,0.007584,
1450,1790,-0.400062,-1.720618,0.999997,0.000184,-0.002190,0.007676,0.000207,0.007680,-0.002194,88.798669,0.007912,
1570,700,-1.673608,-13.959576,0.999995,0.000314,-0.006614,0.011490,0.000468,0.011502,-0.006626,88.521147,0.011547,
1620,60,-0.144268,-19.878591,0.999997,0.000187,-0.000530,0.007207,-0.001730,0.007577,-0.000900,-77.951781,0.008278,
1780,170,-1.076255,-18.743701,0.999996,0.000250,-0.004134,0.010032,-0.001687,0.010230,-0.004332,-83.303032,0.010270,
1050,1810,0.292682,-1.528436,0.999997,0.000222,-0.002077,0.007401,-0.000112,0.007402,-0.002078,-89.324910,0.007635,
1360,350,-0.280745,-17.901569,0.999998,0.000180,-0.002358,0.007394,0.000290,0.007402,-0.002366,88.299016,0.007561,
1160,160,0.061743,-19.282237,0.999998,0.000175,-0.000805,0.006568,0.000196,0.006574,-0.000810,88.480679,0.007169,
1180,1950,0.027779,-0.523372,0.999998,0.000167,-0.000427,0.006286,-0.000152,0.006289,-0.000430,-88.699802,0.007027,
680,1890,1.058816,-1.373438,0.999996,0.000262,-0.004111,0.010132,-0.001757,0.010346,-0.004324,-83.071556,0.010392,
840,1360,1.998700,-6.342763,0.999994,0.000297,-0.006292,0.011333,-0.000023,0.011333,-0.006292,-89.925990,0.011356,
590,1250,3.752739,-8.110708,0.999996,0.000258,-0.004692,0.009240,-0.000258,0.009245,-0.004697,-88.939103,0.009245,
1690,1660,-1.548525,-3.403443,0.999997,0.000216,-0.004656,0.009914,-0.000094,0.009915,-0.004657,-89.631632,0.009921,
1210,310,0.042237,-18.268604,0.999998,0.000161,-0.001930,0.007001,-0.000117,0.007003,-0.001931,-89.246394,0.007234,
680,90,0.565786,-19.525266,0.999993,0.000302,-0.002428,0.009297,0.003124,0.010077,-0.003208,75.975259,0.010296,
1410,900,-1.530572,-12.575015,0.999988,0.000379,-0.006532,0.013331,0.003488,0.013926,-0.007127,80.324755,0.013927,
1890,700,-3.479650,-13.014584,0.999996,0.000291,-0.004923,0.009846,-0.000123,0.009847,-0.004924,-89.522104,0.009847,
1500,1270,-1.489659,-6.886979,0.999994,0.000293,-0.007576,0.012605,-0.000787,0.012636,-0.007607,-87.770376,0.012723,
1010,750,1.009614,-14.024688,0.999995,0.000259,-0.007191,0.011551,-0.002316,0.011833,-0.007473,-83.058290,0.011968,
1740,350,-1.652828,-17.055999,0.999995,0.000248,-0.004866,0.010009,-0.000052,0.010009,-0.004866,-89.798200,0.010010,
1790,1020,-3.830650,-10.150166,0.999997,0.000180,-0.004339,0.009391,-0.000159,0.009392,-0.004341,-89.336012,0.009401,
1150,160,0.071268,-19.281207,0.999998,0.000167,-0.000911,0.006588,0.000180,0.006593,-0.000916,88.626586,0.007143,
950,280,0.588188,-18.231170,0.999996,0.000230,-0.002975,0.008338,0.000240,0.008343,-0.002981,88.783411,0.008455,
1450,1540,-0.690220,-3.797847,0.999994,0.000288,-0.004227,0.008803,-0.001334,0.008939,-0.004362,-84.212403,0.008940,
970,980,2.566554,-10.707479,0.999994,0.000260,-0.004431,0.013187,0.000740,0.013219,-0.004462,87.597918,0.013449,
1160,1510,0.185603,-3.595417,0.999997,0.000210,-0.002868,0.006907,0.001042,0.007017,-0.002977,83.984648,0.007044,
830,540,1.626180,-15.466832,0.999996,0.000224,-0.005359,0.010347,-0.000481,0.010362,-0.005374,-88.246437,0.010364,
1750,1270,-3.074179,-7.654050,0.999997,0.000241,-0.005278,0.010376,0.000927,0.010431,-0.005333,86.624064,0.010432,
1410,1050,-2.117806,-9.499658,0.999968,0.000663,-0.009774,0.025155,-0.002710,0.025364,-0.009983,-85.590551,0.025555,
1570,440,-1.105010,-16.671275,0.999997,0.000212,-0.004369,0.009486,0.000512,0.009505,-0.004388,87.886274,0.009514,
1460,640,-0.853154,-15.157936,0.999996,0.000233,-0.005514,0.009810,0.002026,0.010073,-0.005777,82.592289,0.010109,
1150,1750,0.150227,-1.877756,0.999998,0.000173,-0.001954,0.007114,0.000067,0.007115,-0.001955,89.579416,0.007352,
730,520,2.100599,-15.345422,0.999997,0.000208,-0.005215,0.010341,-0.000216,0.010344,-0.005218,-89.205398,0.010345,
1410,220,-0.251311,-18.820555,0.999997,0.000211,-0.001834,0.007212,-0.000218,0.007217,-0.001839,-88.619676,0.007500,
1710,1810,-1.148372,-1.982605,0.999997,0.000189,-0.003843,0.009730,0.001008,0.009804,-0.003918,85.775026,0.009870,
590,720,3.463888,-12.871341,0.999995,0.000291,-0.005188,0.009818,0.000348,0.009826,-0.005196,88.672581,0.009832,
1500,500,-0.886460,-16.330303,0.999996,0.000244,-0.004490,0.009307,0.001088,0.009392,-0.004575,85.519783,0.009393,
680,1360,2.918572,-6.791567,0.999997,0.000232,-0.005262,0.010295,-0.000495,0.010311,-0.005278,-88.177629,0.010312,
630,420,2.324170,-16.043136,0.999996,0.000251,-0.004970,0.010047,-0.000146,0.010048,-0.004971,-89.444393,0.010048,
670,1690,1.956056,-3.426623,0.999996,0.000230,-0.004894,0.010075,0.000022,0.010075,-0.004894,89.916529,0.010076,
760,920,3.299444,-11.159191,0.999995,0.000258,-0.004684,0.010163,0.000968,0.010226,-0.004747,86.284900,0.010234,
970,1910,0.247317,-0.848911,0.999997,0.000189,-0.001520,0.007233,-0.000761,0.007298,-0.001586,-85.068262,0.007678,
770,1440,2.158437,-5.687056,0.999995,0.000271,-0.005647,0.010658,0.000028,0.010658,-0.005647,89.900953,0.010664,
680,1040,3.797680,-9.961355,0.999998,0.000180,-0.004350,0.009412,-0.000219,0.009416,-0.004353,-89.089066,0.009424,
790,1240,2.769067,-7.838721,0.999994,0.000280,-0.005663,0.011028,-0.001108,0.011101,-0.005737,-86.219437,0.011103,
830,1980,0.213356,-0.397965,0.999997,0.000196,-0.000791,0.007488,-0.001919,0.007911,-0.001215,-77.562875,0.008521,
1510,760,-1.460614,-13.532020,0.999994,0.000302,-0.007331,0.012275,0.000886,0.012315,-0.007371,87.418923,0.012394,
1540,1380,-1.404567,-5.783916,0.999995,0.000271,-0.006479,0.011234,-0.001006,0.011291,-0.006536,-86.760160,0.011337,
1580,1980,-0.168023,-0.384767,0.999998,0.000174,-0.000988,0.007122,0.001374,0.007348,-0.001214,80.641990,0.007878,
1620,50,-0.114492,-19.946386,0.999998,0.000167,-0.000367,0.006981,-0.001683,0.007348,-0.000734,-77.692332,0.008094,
1740,1630,-1.875763,-3.864259,0.999997,0.000230,-0.004934,0.010104,-0.000169,0.010106,-0.004936,-89.356374,0.010107,
1150,1970,0.029671,-0.399096,0.999998,0.000169,-0.000417,0.006253,-0.000224,0.006261,-0.000425,-88.077087,0.006997,
1320,1950,-0.044642,-0.525565,0.999998,0.000193,-0.000581,0.006339,0.000215,0.006346,-0.000587,88.224817,0.007013,
1580,1860,-0.543808,-1.310312,0.999997,0.000226,-0.002612,0.008303,0.000921,0.008380,-0.002689,85.210612,0.008557,
1500,840,-1.768234,-12.554966,0.999993,0.000344,-0.007500,0.013242,-0.000027,0.013242,-0.007500,-89.926495,0.013281,
1630,50,-0.118063,-19.945269,0.999998,0.000188,-0.000353,0.007034,-0.001779,0.007441,-0.000759,-77.138386,0.008189,
960,990,2.642301,-10.561639,0.999997,0.000198,-0.004095,0.012924,0.000652,0.012949,-0.004120,87.808407,0.013231,
1500,1120,-2.372889,-8.879995,0.999994,0.000280,-0.005447,0.013212,0.001151,0.013283,-0.005518,86.482481,0.013346,
1170,40,0.009417,-20.035828,0.999999,0.000134,-0.000052,0.005992,0.000146,0.005995,-0.000055,88.620216,0.006891,
720,470,2.015784,-15.828207,0.999997,0.000208,-0.005075,0.010193,-0.000234,0.010197,-0.005078,-89.122217,0.010197,
1510,160,-0.315389,-19.182996,0.999998,0.000171,-0.001751,0.007486,-0.000803,0.007556,-0.001820,-85.070323,0.007887,
1390,280,-0.284732,-18.397009,0.999997,0.000192,-0.001966,0.007450,-0.000071,0.007450,-0.001966,-89.570135,0.007722,
1160,600,0.184725,-16.191446,0.999998,0.000201,-0.002887,0.006530,-0.001427,0.006742,-0.003098,-81.567376,0.006749,
1480,1270,-1.334521,-6.753466,0.999995,0.000275,-0.007675,0.012509,-0.001301,0.012592,-0.007758,-86.326480,0.012705,
610,460,2.542040,-15.573395,0.999995,0.000284,-0.005014,0.010120,-0.000119,0.010121,-0.005014,-89.549287,0.010121,
660,90,0.612280,-19.501192,0.999996,0.000219,-0.002304,0.009923,0.003565,0.010886,-0.003268,74.876732,0.011172,
1010,1770,0.438806,-1.882653,0.999996,0.000218,-0.002337,0.007882,-0.000144,0.007884,-0.002339,-89.190164,0.008098,
1890,940,-4.180212,-10.803953,0.999996,0.000251,-0.004172,0.008483,-0.000201,0.008487,-0.004175,-89.088158,0.008487,
1050,1790,0.315913,-1.674107,0.999997,0.000208,-0.002231,0.007466,-0.000038,0.007467,-0.002231,-89.777075,0.007665,
1210,290,0.041035,-18.405113,0.999998,0.000174,-0.001804,0.006964,-0.000080,0.006965,-0.001805,-89.475436,0.007229,
950,840,1.863594,-12.487286,0.999995,0.000267,-0.007313,0.013103,0.000317,0.013108,-0.007318,89.109268,0.013137,
720,920,3.481263,-11.133044,0.999996,0.000240,-0.004630,0.009818,0.000809,0.009863,-0.004675,86.803709,0.009868,
1460,930,-2.103218,-11.569441,0.999990,0.000368,-0.006214,0.014465,0.000031,0.014465,-0.006214,89.914049,0.014512,
1530,1540,-1.047715,-4.078433,0.999998,0.000213,-0.004720,0.009581,-0.000945,0.009643,-0.004782,-86.237709,0.009644,
1890,1220,-3.922067,-8.436067,0.999997,0.000199,-0.004483,0.009260,0.000253,0.009264,-0.004488,88.945768,0.009266,
1630,640,-1.869378,-14.407753,0.999995,0.000266,-0.005981,0.010977,0.000240,0.010980,-0.005985,89.190465,0.010995,
1120,1750,0.212502,-1.907349,0.999998,0.000171,-0.002102,0.007226,0.000195,0.007230,-0.002106,88.804958,0.007437,
990,980,2.476382,-10.770507,0.999994,0.000285,-0.004905,0.014144,0.000329,0.014150,-0.004911,89.010843,0.014369,
860,730,1.995512,-13.480172,0.999996,0.000226,-0.006503,0.011658,0.000146,0.011660,-0.006505,89.538457,0.011686,
1500,480,-0.861849,-16.517560,0.999996,0.000240,-0.004257,0.009124,0.000937,0.009189,-0.004323,86.014697,0.009194,
680,1340,2.991218,-6.995620,0.999996,0.000240,-0.005236,0.010265,-0.000606,0.010289,-0.005260,-87.765844,0.010289,
670,1670,2.019944,-3.628509,0.999997,0.000215,-0.004908,0.010084,0.000079,0.010084,-0.004908,89.697378,0.010086,
770,380,1.520755,-16.896265,0.999996,0.000239,-0.004597,0.009839,-0.000031,0.009839,-0.004597,-89.875035,0.009846,
1460,620,-0.832271,-15.351346,0.999997,0.000214,-0.005285,0.009648,0.001917,0.009890,-0.005528,82.799107,0.009913,
680,1020,3.800276,-10.150909,0.999997,0.000210,-0.004338,0.009440,0.000163,0.009441,-0.004340,89.323945,0.009452,
980,160,0.265791,-19.206303,0.999997,0.000202,-0.001460,0.007324,0.000732,0.007384,-0.001520,85.265869,0.007799,
1370,160,-0.131467,-19.260185,0.999997,0.000195,-0.000959,0.006780,-0.000374,0.006798,-0.000977,-87.239538,0.007350,
800,1180,2.953850,-8.487025,0.999995,0.000258,-0.005183,0.010860,-0.001271,0.010960,-0.005283,-85.499176,0.010962,
1580,1210,-2.345194,-7.988829,0.999994,0.000328,-0.006333,0.012107,0.001167,0.012180,-0.006407,86.393896,0.012186,
1590,1920,-0.374049,-0.837562,0.999998,0.000188,-0.001929,0.007745,0.001259,0.007906,-0.002090,82.705817,0.008193,
750,1440,2.271635,-5.749454,0.999997,0.000211,-0.005548,0.010566,-0.000040,0.010566,-0.005548,-89.858157,0.010571,
1500,1100,-2.483691,-9.137936,0.999993,0.000283,-0.004896,0.013058,0.001082,0.013123,-0.004961,86.563189,0.013252,
1150,1950,0.041261,-0.522974,0.999998,0.000183,-0.000552,0.006311,-0.000212,0.006317,-0.000558,-88.231612,0.006994,
760,900,3.241372,-11.366229,0.999995,0.000267,-0.004841,0.010420,0.001199,0.010514,-0.004934,85.536664,0.010520,
940,990,2.724228,-10.529430,0.999994,0.000299,-0.003892,0.012241,0.000770,0.012278,-0.003928,87.275240,0.012540,
810,1980,0.231115,-0.403011,0.999997,0.000222,-0.001089,0.007591,-0.001968,0.008016,-0.001515,-77.805640,0.008518,
1500,820,-1.657660,-12.818780,0.999992,0.000362,-0.007622,0.013049,0.000279,0.013053,-0.007626,89.227280,0.013114,
1070,40,0.020528,-20.033182,0.999999,0.000148,-0.000133,0.006135,0.000441,0.006166,-0.000163,85.999272,0.007027,
1390,220,-0.220816,-18.834065,0.999998,0.000177,-0.001504,0.007109,-0.000246,0.007116,-0.001511,-88.362312,0.007499,
870,50,0.098831,-19.949639,0.999998,0.000168,-0.000612,0.006885,0.001433,0.007150,-0.000876,79.539786,0.007799,
1480,1250,-1.422827,-7.008415,0.999993,0.000328,-0.007817,0.012846,-0.001042,0.012898,-0.007870,-87.121220,0.013002,
1720,60,-0.233409,-19.843312,0.999997,0.000208,-0.000814,0.007847,-0.002582,0.008558,-0.001525,-74.597030,0.009130,
1580,1940,-0.292876,-0.678654,0.999997,0.000215,-0.001577,0.007583,0.001316,0.007768,-0.001763,81.985444,0.008145,
720,510,2.125036,-15.417189,0.999996,0.000235,-0.005189,0.010296,-0.000215,0.010299,-0.005192,-89.203430,0.010299,
1780,570,-2.493362,-14.676257,0.999995,0.000239,-0.005253,0.010302,0.000001,0.010302,-0.005253,89.997007,0.010303,
1540,1360,-1.458432,-6.008043,0.999994,0.000285,-0.006672,0.011411,-0.000871,0.011453,-0.006714,-87.248552,0.011509,
1740,330,-1.587356,-17.258364,0.999995,0.000250,-0.004753,0.010013,-0.000104,0.010014,-0.004753,-89.597391,0.010018,
1580,1840,-0.603474,-1.477549,0.999997,0.000209,-0.002859,0.008383,0.000788,0.008438,-0.002914,86.008138,0.008572,
720,900,3.434328,-11.331404,0.999996,0.000241,-0.004791,0.010036,0.000984,0.010101,-0.004856,86.219404,0.010104,
1010,1730,0.497229,-2.199695,0.999997,0.000207,-0.002646,0.008067,0.000060,0.008067,-0.002647,89.678986,0.008225,
1210,270,0.036100,-18.545829,0.999998,0.000179,-0.001698,0.006968,-0.000066,0.006968,-0.001698,-89.562514,0.007267,
1850,640,-3.076104,-13.744770,0.999995,0.000250,-0.005051,0.010140,-0.000179,0.010142,-0.005053,-89.324121,0.010142,
660,530,2.494513,-15.017265,0.999996,0.000283,-0.005181,0.010222,-0.000084,0.010222,-0.005181,-89.686363,0.010223,
920,1250,1.897285,-7.360904,0.999993,0.000306,-0.007113,0.012564,-0.000289,0.012568,-0.007117,-89.160004,0.012605,
700,40,0.160183,-19.986514,0.999997,0.000217,-0.000989,0.008129,0.003205,0.009143,-0.002003,72.444458,0.009613,
1270,1700,-0.081810,-2.218711,0.999998,0.000199,-0.002099,0.007085,-0.000152,0.007087,-0.002102,-89.054710,0.007280,
1460,910,-1.953131,-11.862841,0.999993,0.000303,-0.006748,0.014232,0.000038,0.014232,-0.006748,89.896876,0.014239,
1160,580,0.185610,-16.324993,0.999998,0.000185,-0.002882,0.006715,-0.001303,0.006889,-0.003056,-82.401355,0.006904,
1890,930,-4.158593,-10.891191,0.999998,0.000195,-0.004222,0.008586,-0.000295,0.008593,-0.004229,-88.681813,0.008593,
1050,1770,0.343387,-1.828504,0.999997,0.000207,-0.002389,0.007603,0.000046,0.007604,-0.002389,89.738373,0.007776,
1460,600,-0.810724,-15.545046,0.999997,0.000189,-0.005120,0.009526,0.001850,0.009756,-0.005350,82.909984,0.009771,
1040,1570,0.558259,-3.448797,0.999997,0.000200,-0.003581,0.008347,0.001061,0.008441,-0.003675,84.958041,0.008464,
1510,620,-1.107957,-15.110835,0.999995,0.000260,-0.005716,0.010289,0.001421,0.010414,-0.005841,84.966646,0.010440,
940,630,1.199784,-14.950557,0.999996,0.000232,-0.005889,0.010483,-0.001290,0.010584,-0.005990,-85.523675,0.010614,
1490,160,-0.277576,-19.200553,0.999998,0.000193,-0.001575,0.007337,-0.000727,0.007396,-0.001634,-85.366427,0.007770,
970,350,0.649291,-17.681286,0.999997,0.000215,-0.003421,0.008392,-0.000345,0.008402,-0.003431,-88.329491,0.008448,
1770,920,-3.604594,-11.112705,0.999996,0.000245,-0.004579,0.009631,-0.000720,0.009667,-0.004615,-87.108239,0.009671,
680,1000,3.784269,-10.339745,0.999996,0.000220,-0.004325,0.009430,0.000307,0.009437,-0.004332,88.723362,0.009447,
1330,160,-0.089292,-19.270721,0.999999,0.000114,-0.001075,0.006609,-0.000195,0.006614,-0.001080,-88.544343,0.007097,
1150,1930,0.051426,-0.650879,0.999998,0.000163,-0.000673,0.006418,-0.000221,0.006425,-0.000680,-88.214663,0.007059,
1560,1210,-2.214627,-7.926361,0.999994,0.000281,-0.006585,0.012372,0.001036,0.012429,-0.006641,86.881782,0.012439,
720,490,2.070326,-15.621346,0.999998,0.000193,-0.005132,0.010230,-0.000231,0.010233,-0.005135,-89.140494,0.010233,
860,50,0.105630,-19.948545,0.999998,0.000160,-0.000497,0.006925,0.001518,0.007224,-0.000796,78.873904,0.007922,
750,1420,2.333926,-5.961797,0.999994,0.000290,-0.005597,0.010643,-0.000117,0.010644,-0.005598,-89.585689,0.010649,
1500,1080,-2.579439,-9.402516,0.999995,0.000242,-0.004438,0.012900,0.000835,0.012940,-0.004479,87.249811,0.013143,
1570,1920,-0.334714,-0.823198,0.999996,0.000223,-0.001648,0.007633,0.001194,0.007784,-0.001800,82.784922,0.008151,
1090,220,0.196193,-18.842951,0.999998,0.000184,-0.001407,0.007004,0.000211,0.007010,-0.001413,88.564072,0.007414,
1580,1400,-1.605983,-5.730691,0.999995,0.000257,-0.006240,0.011088,-0.000619,0.011110,-0.006262,-87.958017,0.011140,
890,1300,1.890460,-6.866291,0.999994,0.000286,-0.006811,0.011989,-0.000076,0.011989,-0.006811,-89.767502,0.012026,
1730,320,-1.507792,-17.388540,0.999995,0.000261,-0.004602,0.009955,-0.000238,0.009959,-0.004606,-89.062541,0.009969,
1710,250,-1.169493,-18.127919,0.999996,0.000227,-0.003906,0.009731,-0.000956,0.009798,-0.003973,-86.011341,0.009856,
790,160,0.654572,-19.034598,0.999997,0.000217,-0.003018,0.008812,0.001618,0.009029,-0.003236,82.352773,0.009149,
1010,1190,1.563579,-7.597689,0.999992,0.000345,-0.007773,0.013854,0.000948,0.013896,-0.007815,87.493694,0.013932,
1780,550,-2.433619,-14.884867,0.999996,0.000240,-0.005238,0.010279,0.000059,0.010279,-0.005238,89.780964,0.010279,
1830,700,-3.181309,-13.194243,0.999998,0.000189,-0.005054,0.010087,-0.000403,0.010098,-0.005065,-88.475034,0.010098,
600,470,2.620470,-15.439818,0.999996,0.000249,-0.005017,0.010120,-0.000080,0.010120,-0.005018,-89.697919,0.010120,
1580,1820,-0.664031,-1.645868,0.999997,0.000222,-0.003083,0.008539,0.000653,0.008576,-0.003120,86.795440,0.008681,
1210,250,0.034166,-18.685439,0.999998,0.000186,-0.001564,0.006862,-0.000057,0.006863,-0.001564,-89.609940,0.007193,
1160,560,0.185871,-16.462551,0.999997,0.000193,-0.002888,0.006792,-0.001140,0.006925,-0.003020,-83.371239,0.006944,
870,1180,2.569523,-8.375835,0.999994,0.000301,-0.005762,0.011783,-0.001394,0.011893,-0.005872,-85.486053,0.011894,
1050,1750,0.363797,-1.979579,0.999997,0.000222,-0.002569,0.007632,0.000166,0.007635,-0.002572,89.068121,0.007769,
1520,950,-2.553406,-11.028510,0.999992,0.000348,-0.004785,0.012452,-0.001280,0.012546,-0.004879,-85.775783,0.012649,
1720,90,-0.400804,-19.600358,0.999997,0.000215,-0.001510,0.008188,-0.002431,0.008763,-0.002085,-76.688411,0.009156,
1380,1410,-0.454506,-4.606691,0.999995,0.000240,-0.004456,0.008145,-0.002589,0.008656,-0.004967,-78.832388,0.008688,
1530,1020,-2.797456,-10.166505,0.999996,0.000252,-0.003604,0.011548,-0.000154,0.011550,-0.003606,-89.416148,0.011819,
1460,580,-0.791743,-15.736816,0.999997,0.000214,-0.004938,0.009330,0.001728,0.009536,-0.005145,83.191768,0.009546,
830,520,1.578067,-15.672912,0.999995,0.000263,-0.005270,0.010259,-0.000492,0.010274,-0.005286,-88.187847,0.010276,
1400,960,-1.904109,-11.855447,0.999971,0.000684,-0.006624,0.019754,0.007244,0.021613,-0.008482,75.611610,0.021779,
1570,420,-1.066184,-16.860302,0.999996,0.000243,-0.004298,0.009406,0.000447,0.009420,-0.004313,88.132159,0.009431,
1750,1250,-3.147120,-7.862398,0.999996,0.000268,-0.005241,0.010340,0.000994,0.010403,-0.005304,86.364224,0.010404,
1140,1510,0.244315,-3.642464,0.999997,0.000181,-0.002947,0.007094,0.001130,0.007219,-0.003073,83.659252,0.007246,
1150,1730,0.158460,-2.021284,0.999998,0.000174,-0.002053,0.007194,0.000112,0.007196,-0.002055,89.304327,0.007413,
970,1370,1.124338,-5.654554,0.999996,0.000260,-0.006467,0.011020,0.001693,0.011182,-0.006629,84.519432,0.011246,
1510,600,-1.075092,-15.317302,0.999996,0.000223,-0.005527,0.010171,0.001421,0.010298,-0.005654,84.869686,0.010315,
1630,320,-1.078367,-17.650444,0.999997,0.000199,-0.003814,0.009348,-0.000214,0.009351,-0.003817,-89.067929,0.009404,
680,1200,3.485708,-8.420051,0.999995,0.000284,-0.004866,0.009861,-0.000930,0.009920,-0.004925,-86.399305,0.009920,
1380,1550,-0.419895,-3.491583,0.999996,0.000217,-0.003516,0.007908,-0.001313,0.008056,-0.003665,-83.529009,0.008067,
1310,160,-0.069625,-19.280326,0.999998,0.000158,-0.000880,0.006550,-0.000180,0.006554,-0.000885,-88.614253,0.007113,
1760,1210,-3.340321,-8.289033,0.999995,0.000249,-0.004982,0.010077,0.000989,0.010142,-0.005046,86.259960,0.010142,
1070,1240,0.798463,-6.302075,0.999996,0.000256,-0.007277,0.011088,0.003731,0.011817,-0.008006,78.945056,0.012063,
1040,930,1.867760,-11.945073,0.999995,0.000257,-0.006566,0.014838,-0.002942,0.015236,-0.006963,-82.313345,0.015254,
1250,1700,-0.039894,-2.209059,0.999998,0.000161,-0.002139,0.007050,-0.000175,0.007053,-0.002143,-88.908937,0.007232,
620,410,2.342468,-16.110670,0.999996,0.000235,-0.004960,0.010029,-0.000135,0.010031,-0.004961,-89.484903,0.010031,
680,1250,3.316883,-7.919795,0.999996,0.000248,-0.005079,0.010134,-0.000917,0.010190,-0.005134,-86.563770,0.010190,
650,1600,2.324938,-4.407265,0.999995,0.000258,-0.005073,0.010157,0.000155,0.010159,-0.005074,89.415435,0.010159,
680,1320,3.064910,-7.204036,0.999997,0.000227,-0.005212,0.010305,-0.000664,0.010333,-0.005240,-87.554021,0.010333,
610,340,2.168676,-16.781262,0.999996,0.000217,-0.004853,0.009897,-0.000135,0.009898,-0.004854,-89.476022,0.009899,
1500,1060,-2.649273,-9.662540,0.999995,0.000249,-0.004079,0.013142,0.000555,0.013160,-0.004097,88.157204,0.013468,
870,1300,2.023708,-6.937768,0.999997,0.000199,-0.006634,0.011844,-0.000291,0.011849,-0.006638,-89.098569,0.011878,
670,1650,2.080283,-3.832416,0.999997,0.000215,-0.004944,0.010127,0.000140,0.010128,-0.004946,89.468560,0.010129,
840,730,2.120951,-13.416266,0.999994,0.000302,-0.006362,0.011513,0.000315,0.011518,-0.006368,88.991470,0.011540,
1150,1910,0.061446,-0.781758,0.999998,0.000156,-0.000805,0.006505,-0.000208,0.006511,-0.000811,-88.367508,0.007096,
1500,460,-0.835822,-16.697517,0.999997,0.000205,-0.004024,0.008989,0.000793,0.009037,-0.004072,86.525899,0.009052,
1690,440,-1.668646,-16.303074,0.999996,0.000211,-0.004946,0.010081,0.000250,0.010085,-0.004950,89.045963,0.010086,
1580,1380,-1.661709,-5.953950,0.999996,0.000247,-0.006403,0.011287,-0.000516,0.011302,-0.006418,-88.331138,0.011337,
1800,1410,-2.838758,-6.318293,0.999996,0.000248,-0.005218,0.010304,0.000251,0.010308,-0.005222,89.072558,0.010309,
1300,1950,-0.034612,-0.522734,0.999998,0.000178,-0.000428,0.006313,0.000183,0.006318,-0.000433,88.446818,0.007059,
1010,1170,1.708657,-7.882292,0.999992,0.000331,-0.007410,0.014046,0.000567,0.014061,-0.007425,88.486457,0.014068,
1160,540,0.185951,-16.600319,0.999997,0.000189,-0.002872,0.006930,-0.001011,0.007033,-0.002975,-84.171331,0.007061,
1570,300,-0.803267,-17.962845,0.999997,0.000211,-0.003448,0.008837,-0.000241,0.008842,-0.003452,-88.874951,0.008912,
1630,360,-1.182482,-17.267719,0.999996,0.000198,-0.004089,0.009487,-0.000100,0.009488,-0.004089,-89.576384,0.009518,
570,850,3.981572,-11.577368,0.999996,0.000220,-0.004436,0.009032,0.000203,0.009035,-0.004439,89.136289,0.009036,
1810,920,-3.786497,-11.079150,0.999997,0.000206,-0.004510,0.009357,-0.000640,0.009387,-0.004539,-87.364861,0.009388,
1760,570,-2.388004,-14.740583,0.999994,0.000291,-0.005294,0.010345,0.000018,0.010345,-0.005294,89.935067,0.010346,
1550,1020,-2.868983,-10.162532,0.999997,0.000219,-0.003557,0.011181,-0.000185,0.011183,-0.003559,-89.280093,0.011427,
1710,1270,-2.859119,-7.578900,0.999996,0.000258,-0.005570,0.010835,0.000961,0.010891,-0.005626,86.660449,0.010893,
1460,560,-0.768765,-15.923480,0.999996,0.000234,-0.004677,0.009167,0.001541,0.009337,-0.004846,83.725450,0.009339,
1580,1800,-0.718885,-1.820604,0.999997,0.000205,-0.003309,0.008629,0.000499,0.008650,-0.003330,87.608603,0.008726,
1590,480,-1.274273,-16.218957,0.999994,0.000256,-0.004900,0.009854,0.000632,0.009881,-0.004927,87.550413,0.009881,
970,1330,1.221362,-6.109634,0.999996,0.000250,-0.006946,0.011536,0.001542,0.011663,-0.007074,85.264653,0.011751,
1630,300,-1.025299,-17.832837,0.999997,0.000179,-0.003633,0.009266,-0.000417,0.009279,-0.003646,-88.151348,0.009350,
670,1390,2.868861,-6.506600,0.999996,0.000243,-0.005213,0.010362,-0.000339,0.010370,-0.005220,-88.752072,0.010370,
1250,160,-0.019196,-19.287189,0.999998,0.000171,-0.000948,0.006516,0.000004,0.006516,-0.000948,89.966918,0.007041,
750,600,2.224742,-14.569116,0.999996,0.000229,-0.005509,0.010587,-0.000025,0.010587,-0.005509,-89.911017,0.010590,
850,1180,2.682935,-8.413799,0.999993,0.000331,-0.005551,0.011541,-0.001425,0.011659,-0.005669,-85.267210,0.011661,
1050,1730,0.387438,-2.136301,0.999996,0.000233,-0.002731,0.007725,0.000230,0.007730,-0.002736,88.741427,0.007839,
1210,230,0.030999,-18.822701,0.999998,0.000202,-0.001440,0.006767,-0.000034,0.006767,-0.001440,-89.764792,0.007129,
1770,960,-3.692985,-10.722835,0.999998,0.000195,-0.004475,0.009561,-0.000568,0.009584,-0.004498,-87.684535,0.009590,
910,520,1.166478,-15.953021,0.999996,0.000267,-0.005016,0.009816,-0.000914,0.009872,-0.005072,-86.485884,0.009873,
1500,1040,-2.682680,-9.924343,0.999995,0.000270,-0.003872,0.012779,0.000230,0.012782,-0.003875,89.207048,0.013108,
1150,1890,0.074657,-0.912136,0.999998,0.000152,-0.000971,0.006559,-0.000178,0.006563,-0.000975,-88.643624,0.007083,
1080,1570,0.420016,-3.338707,0.999995,0.000248,-0.003424,0.007936,0.001180,0.008057,-0.003546,84.132898,0.008077,
1830,1660,-2.232446,-3.854648,0.999997,0.000214,-0.004979,0.010086,-0.000138,0.010087,-0.004980,-89.477076,0.010087,
610,1300,3.486465,-7.576723,0.999995,0.000259,-0.004924,0.009835,-0.000424,0.009848,-0.004936,-88.354625,0.009848,
610,280,1.950307,-17.378180,0.999997,0.000247,-0.004842,0.009904,0.000062,0.009904,-0.004842,89.760089,0.009905,
1670,440,-1.569641,-16.366949,0.999995,0.000271,-0.004877,0.010005,0.000269,0.010010,-0.004882,88.965945,0.010011,
1540,1210,-2.082227,-7.859597,0.999995,0.000257,-0.006834,0.012690,0.000823,0.012725,-0.006869,87.591019,0.012738,
1010,1150,1.866893,-8.172379,0.999993,0.000308,-0.006906,0.014327,0.000379,0.014334,-0.006913,88.977240,0.014337,
1300,1410,-0.168385,-4.243530,0.999998,0.000208,-0.002808,0.006091,-0.001745,0.006421,-0.003138,-79.294647,0.006421,
1280,1950,-0.024756,-0.521565,0.999998,0.000174,-0.000485,0.006304,0.000147,0.006307,-0.000489,88.758050,0.007018,
1630,380,-1.234165,-17.077739,0.999996,0.000215,-0.004288,0.009565,0.000058,0.009565,-0.004288,89.759482,0.009582,
1160,520,0.184257,-16.741974,0.999997,0.000200,-0.002837,0.007040,-0.000882,0.007118,-0.002915,-84.939068,0.007157,
1030,640,0.707196,-15.306964,0.999993,0.000312,-0.005270,0.009321,-0.002323,0.009682,-0.005631,-81.169864,0.009725,
1810,700,-3.080693,-13.246862,0.999997,0.000231,-0.005162,0.010159,-0.000470,0.010173,-0.005176,-88.245578,0.010174,
1560,810,-2.039335,-12.671620,0.999993,0.000303,-0.006899,0.012419,-0.000587,0.012437,-0.006917,-88.259893,0.012463,
1250,220,-0.025050,-18.890060,0.999998,0.000206,-0.001385,0.006706,0.000046,0.006706,-0.001385,89.671937,0.007081,
1710,1230,-3.010393,-8.009137,0.999997,0.000215,-0.005356,0.010631,0.001137,0.010712,-0.005437,85.952219,0.010712,
670,980,3.811527,-10.526954,0.999996,0.000256,-0.004354,0.009292,0.000256,0.009297,-0.004359,88.926468,0.009303,
1580,1780,-0.775016,-1.994836,0.999997,0.000200,-0.003487,0.008784,0.000376,0.008795,-0.003499,88.246757,0.008856,
1730,300,-1.439351,-17.589399,0.999994,0.000287,-0.004459,0.009948,-0.000425,0.009961,-0.004472,-88.313271,0.009978,
1460,540,-0.752694,-16.107896,0.999996,0.000229,-0.004413,0.009046,0.001391,0.009188,-0.004555,84.159054,0.009188,
1040,1250,0.978229,-6.522448,0.999995,0.000299,-0.007708,0.011919,0.002733,0.012292,-0.008082,82.220114,0.012494,
830,760,2.302643,-13.039877,0.999992,0.000329,-0.006316,0.011494,0.000642,0.011518,-0.006339,87.938217,0.011537,
1050,1240,0.950381,-6.535220,0.999995,0.000290,-0.007714,0.011904,0.003019,0.012358,-0.008168,81.447261,0.012569,
1130,1700,0.219347,-2.260687,0.999997,0.000179,-0.002443,0.007362,0.000351,0.007374,-0.002455,87.952997,0.007510,
680,460,2.188378,-15.801205,0.999996,0.000231,-0.005050,0.010142,-0.000171,0.010143,-0.005052,-89.356839,0.010143,
1230,160,0.001026,-19.290123,0.999998,0.000160,-0.000973,0.006485,0.000008,0.006485,-0.000973,89.937769,0.006995,
1610,480,-1.373327,-16.154387,0.999992,0.000326,-0.004891,0.009928,0.000539,0.009948,-0.004911,87.917951,0.009948,
1820,1590,-2.390366,-4.531970,0.999996,0.000244,-0.005053,0.010150,-0.000138,0.010151,-0.005054,-89.479520,0.010152,
700,1290,3.067945,-7.472831,0.999997,0.000254,-0.005241,0.010337,-0.000842,0.010383,-0.005286,-86.914893,0.010383,
1210,210,0.027843,-18.956109,0.999998,0.000194,-0.001281,0.006673,-0.000023,0.006673,-0.001281,-89.836421,0.007083,
1500,1020,-2.692876,-10.173158,0.999996,0.000263,-0.003849,0.012626,-0.000107,0.012626,-0.003850,-89.629536,0.012943,
1050,1710,0.408547,-2.287928,0.999996,0.000232,-0.002856,0.007791,0.000378,0.007804,-0.002869,87.966814,0.007895,
1720,70,-0.286935,-19.763533,0.999997,0.000202,-0.001056,0.007972,-0.002557,0.008646,-0.001730,-75.236308,0.009149,
740,1050,3.530398,-9.856746,0.999996,0.000217,-0.004272,0.009751,-0.000341,0.009759,-0.004280,-88.608407,0.009783,
940,1690,0.783245,-2.680646,0.999997,0.000211,-0.003464,0.008684,0.000224,0.008688,-0.003469,88.944378,0.008747,
1080,1550,0.429649,-3.498576,0.999996,0.000214,-0.003512,0.007939,0.001306,0.008086,-0.003659,83.576372,0.008098,
1210,160,0.022015,-19.286666,0.999998,0.000176,-0.000949,0.006493,0.000030,0.006493,-0.000950,89.766872,0.007014,
1160,300,0.129782,-18.319946,0.999998,0.000161,-0.001802,0.007084,-0.000001,0.007084,-0.001802,-89.991209,0.007363,
970,790,1.457358,-13.252225,0.999994,0.000299,-0.007634,0.012681,-0.000919,0.012722,-0.007676,-87.414377,0.012813,
1510,560,-1.014558,-15.720049,0.999997,0.000178,-0.005038,0.009791,0.001252,0.009896,-0.005143,85.207803,0.009899,
840,1340,2.067006,-6.570390,0.999996,0.000264,-0.006361,0.011440,-0.000187,0.011442,-0.006363,-89.397256,0.011466,
1500,440,-0.811949,-16.874470,0.999997,0.000191,-0.003869,0.008889,0.000677,0.008924,-0.003904,86.972144,0.008948,
680,1300,3.138754,-7.412157,0.999997,0.000214,-0.005185,0.010225,-0.000728,0.010259,-0.005219,-87.301814,0.010260,
670,1630,2.137577,-4.035677,0.999997,0.000212,-0.005006,0.010130,0.000167,0.010132,-0.005008,89.369134,0.010132,
1740,570,-2.282370,-14.801128,0.999995,0.000258,-0.005367,0.010382,0.000062,0.010382,-0.005367,89.774543,0.010384,
1010,1130,2.022423,-8.471440,0.999992,0.000335,-0.006375,0.014555,0.000389,0.014562,-0.006383,88.934767,0.014599,
1310,1420,-0.197847,-4.214336,0.999998,0.000182,-0.002949,0.006377,-0.001756,0.006697,-0.003269,-79.682392,0.006697,
570,180,1.665096,-18.202342,0.999821,0.001492,-0.005732,0.009408,0.000618,0.009433,-0.005757,87.665711,0.009510,
1520,1210,-1.941498,-7.771489,0.999995,0.000274,-0.007131,0.012996,0.000538,0.013010,-0.007146,88.471057,0.013031,
1660,1270,-2.569288,-7.473466,0.999993,0.000312,-0.005965,0.011246,0.000940,0.011297,-0.006016,86.883205,0.011305,
1750,960,-3.602011,-10.733228,0.999996,0.000250,-0.004457,0.009770,-0.000632,0.009798,-0.004485,-87.461884,0.009809,
1210,220,0.029073,-18.890000,0.999998,0.000206,-0.001362,0.006712,-0.000039,0.006713,-0.001362,-89.721698,0.007097,
1400,1950,-0.093182,-0.539723,0.999998,0.000196,-0.000702,0.006579,0.000486,0.006611,-0.000734,86.200536,0.007248,
800,990,3.265276,-10.463079,0.999996,0.000230,-0.004115,0.010142,0.000451,0.010157,-0.004129,88.189946,0.010216,
1640,810,-2.554323,-12.443456,0.999993,0.000297,-0.006022,0.011487,-0.001078,0.011553,-0.006088,-86.490209,0.011559,
1710,690,-2.502579,-13.615276,0.999994,0.000303,-0.005715,0.010796,-0.000434,0.010807,-0.005727,-88.494561,0.010814,
790,320,1.258011,-17.541446,0.999997,0.000226,-0.004426,0.009727,0.000188,0.009730,-0.004428,89.238129,0.009743,
990,480,0.751725,-16.598111,0.999996,0.000240,-0.004028,0.008871,-0.001003,0.008948,-0.004106,-85.581905,0.008959,
1790,700,-2.974180,-13.299386,0.999998,0.000205,-0.005249,0.010269,-0.000511,0.010286,-0.005266,-88.116962,0.010287,
1580,1760,-0.825131,-2.171112,0.999998,0.000189,-0.003630,0.008849,0.000229,0.008853,-0.003634,88.946877,0.008901,
1040,350,0.442391,-17.812326,0.999998,0.000222,-0.002919,0.007879,-0.000412,0.007895,-0.002935,-87.817589,0.007981,
1550,560,-1.224333,-15.559906,0.999995,0.000285,-0.005322,0.010128,0.000997,0.010192,-0.005386,86.322233,0.010197,
1210,190,0.025147,-19.090788,0.999998,0.000178,-0.001155,0.006626,0.000008,0.006626,-0.001155,89.939503,0.007079,
680,420,2.072614,-16.205482,0.999996,0.000214,-0.004994,0.010144,-0.000143,0.010146,-0.004996,-89.457053,0.010146,
650,120,0.867078,-19.186264,0.999996,0.000254,-0.003631,0.010403,0.002469,0.010825,-0.004053,80.306579,0.010938,
1190,160,0.040548,-19.285522,0.999999,0.000146,-0.000884,0.006528,0.000105,0.006529,-0.000886,89.188515,0.007083,
1160,500,0.182967,-16.885869,0.999997,0.000205,-0.002774,0.007044,-0.000771,0.007104,-0.002834,-85.537122,0.007153,
1050,1690,0.428885,-2.449982,0.999996,0.000231,-0.002972,0.008013,0.000455,0.008032,-0.002990,87.632789,0.008119,
1500,1000,-2.661639,-10.428463,0.999994,0.000323,-0.004004,0.013137,-0.000508,0.013152,-0.004019,-88.303264,0.013479,
760,1050,3.445221,-9.855468,0.999996,0.000248,-0.004212,0.009875,-0.000364,0.009884,-0.004221,-88.519863,0.009919,
1260,1690,-0.063229,-2.284670,0.999998,0.000179,-0.002160,0.007099,-0.000182,0.007102,-0.002164,-88.873298,0.007281,
1760,150,-0.874504,-18.995533,0.999997,0.000231,-0.004044,0.009680,-0.001780,0.009907,-0.004271,-82.728056,0.009938,
970,770,1.371742,-13.507761,0.999992,0.000331,-0.007485,0.012363,-0.001132,0.012427,-0.007549,-86.747481,0.012523,
1430,160,-0.202127,-19.230914,0.999997,0.000217,-0.001344,0.007022,-0.000500,0.007052,-0.001374,-86.594636,0.007477,
930,1240,1.875523,-7.444005,0.999995,0.000244,-0.007225,0.012756,-0.000267,0.012760,-0.007229,-89.235206,0.012797,
1290,1420,-0.141365,-4.149466,0.999997,0.000193,-0.002759,0.005985,-0.001518,0.006241,-0.003015,-80.427169,0.006242,
1510,540,-0.988582,-15.914160,0.999996,0.000214,-0.004810,0.009600,0.001173,0.009695,-0.004905,85.376346,0.009695,
1550,1220,-2.096915,-7.769249,0.999995,0.000267,-0.006787,0.012548,0.000817,0.012582,-0.006822,87.585049,0.012597,
1720,150,-0.734672,-19.072970,0.999996,0.000238,-0.002628,0.009193,-0.002083,0.009549,-0.002984,-80.292542,0.009770,
670,1610,2.196038,-4.238652,0.999996,0.000240,-0.005046,0.010136,0.000175,0.010138,-0.005048,89.338445,0.010138,
1540,1670,-0.877279,-2.892967,0.999998,0.000187,-0.003659,0.008926,-0.000271,0.008932,-0.003665,-88.765912,0.008980,
680,1280,3.207545,-7.613983,0.999997,0.000225,-0.005134,0.010145,-0.000801,0.010187,-0.005176,-87.008559,0.010188,
900,710,1.658323,-13.871571,0.999994,0.000277,-0.006721,0.011625,-0.000483,0.011637,-0.006733,-88.494236,0.011685,
1500,420,-0.783811,-17.051380,0.999997,0.000211,-0.003780,0.008795,0.000599,0.008823,-0.003809,87.280651,0.008851,
770,1240,2.879604,-7.874052,0.999996,0.000262,-0.005531,0.010784,-0.001098,0.010857,-0.005605,-86.167911,0.010859,
850,600,1.659871,-14.903035,0.999995,0.000244,-0.005791,0.010651,-0.000539,0.010669,-0.005809,-88.123463,0.010683,
1160,280,0.119432,-18.463410,0.999998,0.000183,-0.001666,0.007062,0.000043,0.007062,-0.001667,89.717395,0.007383,
740,1550,2.008518,-4.628357,0.999995,0.000251,-0.005166,0.010292,0.000231,0.010296,-0.005170,89.142233,0.010296,
1010,1110,2.169903,-8.765426,0.999990,0.000346,-0.005979,0.015122,0.000483,0.015133,-0.005990,88.690551,0.015242,
1640,1270,-2.449318,-7.427834,0.999994,0.000282,-0.006174,0.011451,0.000878,0.011495,-0.006217,87.153584,0.011508,
1150,1710,0.167471,-2.165063,0.999998,0.000169,-0.002184,0.007216,0.000162,0.007219,-0.002187,89.014711,0.007403,
820,990,3.186263,-10.466498,0.999998,0.000158,-0.004039,0.010295,0.000507,0.010313,-0.004057,87.978121,0.010391,
1590,960,-2.902512,-10.812750,0.999997,0.000223,-0.004294,0.010995,-0.001082,0.011071,-0.004370,-85.970741,0.011152,
1630,340,-1.128934,-17.458961,0.999997,0.000221,-0.003952,0.009565,-0.000173,0.009568,-0.003954,-89.268379,0.009615,
1710,670,-2.430881,-13.830326,0.999994,0.000305,-0.005692,0.010719,-0.000332,0.010726,-0.005699,-88.841254,0.010733,
1160,1690,0.153650,-2.305342,0.999998,0.000148,-0.002190,0.007190,0.000138,0.007192,-0.002192,89.157196,0.007373,
1720,1490,-2.160252,-5.241295,0.999995,0.000259,-0.005387,0.010436,-0.000140,0.010437,-0.005388,-89.491483,0.010439,
1630,1450,-1.772681,-5.373589,0.999996,0.000219,-0.005774,0.010710,-0.000418,0.010721,-0.005785,-88.548956,0.010732,
970,1180,1.934658,-8.032075,0.999995,0.000268,-0.007095,0.013464,-0.000501,0.013476,-0.007107,-88.605765,0.013483,
1050,1670,0.449681,-2.611810,0.999996,0.000235,-0.003092,0.007997,0.000544,0.008024,-0.003118,87.196073,0.008090,
1380,1950,-0.080084,-0.535955,0.999998,0.000200,-0.000502,0.006504,0.000435,0.006531,-0.000529,86.459345,0.007255,
1160,480,0.179693,-17.027229,0.999997,0.000212,-0.002746,0.007118,-0.000666,0.007163,-0.002791,-86.153346,0.007221,
620,1990,0.511600,-0.501017,0.999991,0.000361,-0.004403,0.010553,-0.002784,0.011054,-0.004904,-79.787990,0.011078,
1640,790,-2.469182,-12.674039,0.999996,0.000275,-0.006144,0.011452,-0.000924,0.011501,-0.006193,-87.001394,0.011512,
1430,500,-0.595121,-16.564340,0.999996,0.000221,-0.003890,0.008515,0.001256,0.008641,-0.004016,84.277769,0.008648,
1120,1510,0.303339,-3.687100,0.999998,0.000170,-0.003193,0.007364,0.001267,0.007514,-0.003343,83.250061,0.007530,
1450,1000,-2.428192,-10.552097,0.999982,0.000524,-0.005818,0.017011,0.000454,0.017020,-0.005828,88.861872,0.017299,
1810,240,-1.569824,-17.947187,0.999996,0.000238,-0.004647,0.010164,-0.000698,0.010197,-0.004679,-87.308278,0.010208,
770,360,1.465999,-17.090385,0.999994,0.000275,-0.004464,0.009787,0.000082,0.009787,-0.004464,89.671138,0.009800,
1740,150,-0.794596,-19.044366,0.999996,0.000277,-0.003453,0.009429,-0.001883,0.009699,-0.003723,-81.853638,0.009786,
1880,1400,-3.277724,-6.659630,0.999997,0.000217,-0.005014,0.010079,0.000125,0.010080,-0.005015,89.526931,0.010080,
660,130,0.909512,-19.097911,0.999995,0.000262,-0.003527,0.010234,0.002514,0.010679,-0.003972,79.966129,0.010795,
1410,860,-1.209501,-13.115504,0.999991,0.000343,-0.007284,0.012565,0.002872,0.012972,-0.007691,81.931018,0.013047,
1210,170,0.023751,-19.222033,0.999998,0.000171,-0.001016,0.006526,0.000010,0.006526,-0.001016,89.927500,0.007023,
990,280,0.475702,-18.293642,0.999997,0.000200,-0.002388,0.007983,0.000224,0.007988,-0.002393,88.760757,0.008199,
1520,1670,-0.805645,-2.847478,0.999998,0.000165,-0.003621,0.008768,-0.000372,0.008780,-0.003632,-88.283564,0.008823,
1240,1350,-0.017464,-4.408500,0.999998,0.000154,-0.001979,0.004186,-0.000384,0.004210,-0.002003,-86.451950,0.004212,
1460,1270,-1.182667,-6.611554,0.999995,0.000282,-0.007651,0.012347,-0.001832,0.012513,-0.007818,-84.809880,0.012642,
670,1830,1.423067,-2.009311,0.999995,0.000260,-0.004520,0.010058,-0.000956,0.010120,-0.004583,-86.262446,0.010135,
1200,350,0.066383,-17.979993,0.999996,0.000240,-0.002067,0.007041,-0.000164,0.007044,-0.002070,-88.970525,0.007240,
980,470,0.780611,-16.657653,0.999997,0.000207,-0.004005,0.008891,-0.000897,0.008953,-0.004067,-86.038665,0.008965,
910,1240,2.014810,-7.525830,0.999994,0.000285,-0.006943,0.012544,-0.000564,0.012560,-0.006960,-88.342292,0.012585,
1820,1210,-3.630196,-8.379633,0.999997,0.000212,-0.004762,0.009608,0.000757,0.009648,-0.004802,86.991697,0.009648,
1480,670,-1.014048,-14.739221,0.999994,0.000271,-0.006138,0.010604,0.001879,0.010812,-0.006347,83.673083,0.010867,
1570,960,-2.817099,-10.832167,0.999996,0.000258,-0.004255,0.011279,-0.001148,0.011364,-0.004339,-85.795632,0.011469,
1280,290,-0.088208,-18.397165,0.999998,0.000139,-0.001726,0.007048,-0.000012,0.007048,-0.001726,-89.921761,0.007348,
720,850,3.272578,-11.841896,0.999996,0.000249,-0.005023,0.010159,0.001034,0.010229,-0.005093,86.120569,0.010229,
1500,620,-1.052065,-15.156472,0.999996,0.000241,-0.005699,0.010196,0.001561,0.010348,-0.005850,84.444080,0.010377,
670,1590,2.254346,-4.442565,0.999995,0.000265,-0.005078,0.010183,0.000175,0.010185,-0.005080,89.342552,0.010185,
1470,160,-0.249758,-19.212878,0.999998,0.000151,-0.001257,0.007226,-0.000707,0.007284,-0.001315,-85.270842,0.007764,
680,1260,3.279746,-7.817719,0.999996,0.000237,-0.005107,0.010140,-0.000879,0.010191,-0.005158,-86.711702,0.010191,
1110,1560,0.326089,-3.337107,0.999998,0.000164,-0.003022,0.007540,0.000963,0.007627,-0.003109,84.830035,0.007670,
1530,1220,-1.957167,-7.687008,0.999996,0.000241,-0.007098,0.012866,0.000543,0.012881,-0.007113,88.441835,0.012904,
1320,1690,-0.192505,-2.319129,0.999998,0.000182,-0.002378,0.007324,-0.000303,0.007334,-0.002388,-88.214053,0.007481,
1700,1490,-2.052331,-5.177904,0.999994,0.000286,-0.005440,0.010458,-0.000172,0.010460,-0.005442,-89.380034,0.010463,
1370,220,-0.191846,-18.844803,0.999997,0.000193,-0.001436,0.007006,-0.000197,0.007011,-0.001441,-88.665683,0.007405,
1890,830,-3.907249,-11.771956,0.999996,0.000228,-0.004495,0.009191,-0.000248,0.009195,-0.004499,-88.962129,0.009196,
1620,1340,-2.047705,-6.560642,0.999995,0.000273,-0.006332,0.011440,0.000174,0.011442,-0.006334,89.440609,0.011464,
1050,1650,0.468718,-2.773108,0.999996,0.000242,-0.003181,0.008033,0.000674,0.008074,-0.003221,86.572222,0.008129,
1750,1230,-3.221352,-8.072287,0.999995,0.000274,-0.005144,0.010312,0.001066,0.010386,-0.005217,86.071997,0.010386,
1830,120,-0.938047,-19.125497,0.999995,0.000220,-0.004455,0.010559,-0.001732,0.010757,-0.004653,-83.504551,0.010789,
840,1320,2.140849,-6.803501,0.999995,0.000265,-0.006400,0.011501,-0.000358,0.011508,-0.006407,-88.853703,0.011533,
800,1620,1.524287,-3.721775,0.999995,0.000271,-0.004791,0.009937,0.000264,0.009941,-0.004796,88.972354,0.009944,
1150,1690,0.175389,-2.309049,0.999998,0.000164,-0.002301,0.007271,0.000233,0.007276,-0.002307,88.606906,0.007437,
1170,160,0.055376,-19.282417,0.999997,0.000182,-0.000790,0.006557,0.000174,0.006561,-0.000794,88.647256,0.007162,
970,750,1.302139,-13.752502,0.999992,0.000308,-0.007273,0.012002,-0.001337,0.012094,-0.007366,-86.049813,0.012190,
1070,930,1.690669,-12.510657,0.999981,0.000538,-0.004895,0.014553,-0.007171,0.016911,-0.007253,-71.796176,0.016968,
930,1620,0.933370,-3.330129,0.999996,0.000220,-0.004190,0.009238,0.000645,0.009269,-0.004221,87.255045,0.009282,
1160,460,0.177678,-17.171910,0.999997,0.000216,-0.002683,0.007182,-0.000525,0.007209,-0.002710,-86.962609,0.007283,
1500,980,-2.599048,-10.696090,0.999995,0.000319,-0.004316,0.012980,-0.000801,0.013017,-0.004353,-87.355158,0.013253,
590,1970,0.839949,-0.860796,0.999996,0.000252,-0.004512,0.011789,-0.002710,0.012228,-0.004950,-80.803782,0.012302,
670,580,2.591610,-14.533948,0.999996,0.000248,-0.005192,0.010308,0.000024,0.010308,-0.005192,89.912151,0.010308,
990,500,0.771974,-16.419650,0.999998,0.000197,-0.004147,0.008966,-0.001097,0.009057,-0.004238,-85.249911,0.009064,
760,880,3.171512,-11.577425,0.999995,0.000256,-0.005009,0.010432,0.001186,0.010523,-0.005100,85.633901,0.010524,
1210,150,0.018560,-19.352484,0.999998,0.000154,-0.000902,0.006440,0.000036,0.006440,-0.000902,89.715322,0.006974,
1160,2010,0.011024,-0.154231,0.999998,0.000150,-0.000071,0.006016,-0.000180,0.006021,-0.000076,-88.308058,0.006909,
1500,800,-1.553886,-13.081425,0.999992,0.000367,-0.007629,0.012815,0.000588,0.012832,-0.007646,88.353541,0.012910,
1010,1090,2.296622,-9.079180,0.999988,0.000418,-0.005753,0.015526,0.000542,0.015540,-0.005767,88.542569,0.015711,
1080,1950,0.081814,-0.536785,0.999998,0.000173,-0.000519,0.006486,-0.000450,0.006515,-0.000548,-86.335680,0.007227,
700,410,1.945272,-16.373675,0.999998,0.000184,-0.004918,0.010116,-0.000152,0.010118,-0.004919,-89.419852,0.010119,
810,540,1.731187,-15.399345,0.999996,0.000236,-0.005360,0.010381,-0.000424,0.010392,-0.005371,-88.457429,0.010394,
1110,1700,0.267351,-2.285850,0.999997,0.000199,-0.002389,0.007439,0.000311,0.007449,-0.002399,88.187129,0.007604,
640,230,1.584126,-18.005988,0.999996,0.000245,-0.004708,0.010159,0.000580,0.010182,-0.004731,87.769445,0.010190,
1660,790,-2.589114,-12.630210,0.999997,0.000268,-0.005973,0.011272,-0.000998,0.011330,-0.006030,-86.699966,0.011338,
1630,420,-1.332953,-16.686473,0.999996,0.000222,-0.004639,0.009805,0.000303,0.009811,-0.004646,88.798564,0.009816,
1500,400,-0.755361,-17.229824,0.999996,0.000239,-0.003738,0.008776,0.000503,0.008796,-0.003758,87.700229,0.008827,
1630,960,-3.072198,-10.788923,0.999997,0.000192,-0.004278,0.010581,-0.001022,0.010651,-0.004348,-86.084312,0.010711,
1260,290,-0.053301,-18.403813,0.999997,0.000205,-0.001795,0.007008,0.000069,0.007009,-0.001795,89.551733,0.007281,
1120,350,0.240322,-17.923324,0.999996,0.000227,-0.002417,0.007326,-0.000347,0.007338,-0.002429,-87.963355,0.007477,
980,450,0.756764,-16.833344,0.999996,0.000234,-0.003922,0.008786,-0.000808,0.008838,-0.003973,-86.374517,0.008852,
890,1240,2.152555,-7.598867,0.999994,0.000266,-0.006686,0.012314,-0.000798,0.012348,-0.006719,-87.599409,0.012364,
970,280,0.528888,-18.262762,0.999996,0.000232,-0.002816,0.008153,0.000180,0.008156,-0.002819,89.057952,0.008285,
670,1810,1.513593,-2.211650,0.999995,0.000273,-0.004617,0.010157,-0.000721,0.010192,-0.004652,-87.214479,0.010205,
1390,860,-1.055940,-13.392416,0.999994,0.000288,-0.007001,0.011165,0.003662,0.011876,-0.007712,79.020938,0.012051,
1800,1210,-3.535668,-8.346705,0.999994,0.000284,-0.004792,0.009760,0.000828,0.009807,-0.004839,86.755709,0.009807,
1240,1690,-0.018625,-2.275982,0.999998,0.000193,-0.002199,0.007078,-0.000099,0.007079,-0.002200,-89.389820,0.007246,
1460,290,-0.462702,-18.228271,0.999996,0.000237,-0.002389,0.007946,-0.000178,0.007949,-0.002392,-89.012028,0.008156,
1780,1510,-2.418831,-5.225236,0.999995,0.000251,-0.005223,0.010300,-0.000055,0.010300,-0.005223,-89.796897,0.010300,
1750,360,-1.733261,-16.923421,0.999994,0.000287,-0.004855,0.010031,0.000000,0.010031,-0.004855,89.999158,0.010033,
1060,120,0.111487,-19.519865,0.999998,0.000190,-0.000838,0.006673,0.000494,0.006706,-0.000871,86.251531,0.007293,
680,1240,3.355130,-8.024805,0.999995,0.000265,-0.005033,0.010076,-0.000933,0.010134,-0.005091,-86.479241,0.010134,
670,1570,2.311938,-4.648872,0.999995,0.000258,-0.005116,0.010198,0.000168,0.010200,-0.005118,89.371965,0.010200,
1880,830,-3.862436,-11.798394,0.999996,0.000220,-0.004530,0.009224,-0.000291,0.009230,-0.004536,-88.788269,0.009230,
1770,1980,-0.424324,-0.490710,0.999995,0.000256,-0.002139,0.009097,0.003275,0.009982,-0.003024,74.881898,0.010237,
920,350,0.821424,-17.570397,0.999996,0.000253,-0.003305,0.008944,0.000052,0.008944,-0.003306,89.756772,0.009045,
1030,1050,2.330723,-9.639286,0.999979,0.000540,-0.007774,0.019879,0.001149,0.019926,-0.007822,87.624097,0.020079,
970,730,1.236155,-13.991774,0.999993,0.000293,-0.007032,0.011637,-0.001489,0.011754,-0.007150,-85.469104,0.011846,
810,460,1.537523,-16.218052,0.999997,0.000191,-0.004892,0.010064,-0.000346,0.010072,-0.004900,-88.676909,0.010073,
1620,1380,-1.913946,-6.104952,0.999997,0.000203,-0.006188,0.011181,-0.000139,0.011182,-0.006189,-89.540155,0.011203,
1150,1670,0.182933,-2.457872,0.999998,0.000171,-0.002429,0.007248,0.000327,0.007259,-0.002440,88.064731,0.007387,
1160,440,0.172868,-17.315205,0.999998,0.000197,-0.002588,0.007223,-0.000432,0.007242,-0.002607,-87.483718,0.007336,
1310,220,-0.101476,-18.879023,0.999997,0.000215,-0.001353,0.006818,-0.000097,0.006819,-0.001354,-89.317496,0.007220,
1750,1210,-3.291186,-8.276581,0.999995,0.000265,-0.005014,0.010165,0.001033,0.010235,-0.005084,86.124647,0.010235,
910,1620,1.021230,-3.391727,0.999997,0.000180,-0.004358,0.009431,0.000588,0.009456,-0.004383,87.563062,0.009464,
800,1600,1.572240,-3.922848,0.999995,0.000282,-0.004937,0.010002,0.000326,0.010009,-0.004944,88.751737,0.010010,
1120,1690,0.250105,-2.349066,0.999997,0.000205,-0.002475,0.007473,0.000364,0.007486,-0.002489,87.908518,0.007625,
1760,1710,-1.732342,-3.117008,0.999995,0.000266,-0.004807,0.010027,0.000031,0.010027,-0.004807,89.879690,0.010030,
1650,460,-1.522790,-16.228254,0.999995,0.000288,-0.004923,0.009984,0.000359,0.009993,-0.004931,88.622840,0.009993,
1190,800,0.125874,-15.338292,0.999997,0.000219,-0.003287,0.002856,-0.002248,0.003591,-0.004022,-71.900350,0.004416,
1210,130,0.015780,-19.480123,0.999998,0.000144,-0.000738,0.006362,0.000006,0.006362,-0.000738,89.952648,0.006959,
660,410,2.144904,-16.244544,0.999995,0.000248,-0.005026,0.010123,-0.000126,0.010124,-0.005027,-89.522049,0.010124,
1700,1450,-2.167677,-5.602553,0.999996,0.000268,-0.005587,0.010626,-0.000078,0.010626,-0.005588,-89.724457,0.010631,
1160,1950,0.036364,-0.522825,0.999998,0.000197,-0.000464,0.006297,-0.000205,0.006303,-0.000470,-88.262145,0.007022,
1100,350,0.288382,-17.898481,0.999997,0.000220,-0.002345,0.007417,-0.000269,0.007425,-0.002353,-88.425011,0.007589,
900,1630,1.046401,-3.326507,0.999997,0.000214,-0.004314,0.009424,0.000495,0.009442,-0.004332,87.939791,0.009453,
820,810,2.573868,-12.437073,0.999994,0.000322,-0.005985,0.011420,0.001075,0.011486,-0.006051,86.477842,0.011492,
940,1050,2.753872,-9.813613,0.999997,0.000236,-0.003688,0.012065,-0.000490,0.012080,-0.003703,-88.218275,0.012377,
1500,360,-0.690841,-17.579551,0.999997,0.000229,-0.003592,0.008516,0.000385,0.008528,-0.003605,88.179824,0.008562,
1780,1210,-3.437773,-8.317003,0.999994,0.000289,-0.004913,0.009909,0.000889,0.009962,-0.004966,86.578069,0.009962,
640,210,1.481249,-18.212192,0.999995,0.000274,-0.004690,0.010261,0.000761,0.010299,-0.004729,87.093961,0.010311,
1440,370,-0.515551,-17.618437,0.999996,0.000216,-0.003008,0.008203,0.000354,0.008214,-0.003019,88.192527,0.008309,
1360,290,-0.239537,-18.346795,0.999998,0.000182,-0.001997,0.007359,0.000011,0.007359,-0.001997,89.933473,0.007611,
800,1970,0.288566,-0.487324,0.999997,0.000193,-0.001447,0.007757,-0.001941,0.008149,-0.001840,-78.562922,0.008548,
690,1240,3.302503,-8.005701,0.999994,0.000278,-0.005081,0.010175,-0.000971,0.010237,-0.005142,-86.371152,0.010237,
670,1790,1.601193,-2.415343,0.999996,0.000240,-0.004697,0.010121,-0.000555,0.010142,-0.004717,-87.857498,0.010150,
1510,440,-0.849130,-16.849243,0.999997,0.000212,-0.003935,0.008978,0.000637,0.009010,-0.003966,87.184728,0.009031,
670,1550,2.368547,-4.852695,0.999995,0.000258,-0.005143,0.010206,0.000136,0.010207,-0.005144,89.493462,0.010207,
680,480,2.244923,-15.597920,0.999997,0.000210,-0.005121,0.010214,-0.000180,0.010216,-0.005123,-89.329045,0.010216,
1760,1490,-2.373748,-5.369627,0.999995,0.000259,-0.005292,0.010364,-0.000047,0.010364,-0.005293,-89.827612,0.010365,
1750,400,-1.853393,-16.517816,0.999997,0.000223,-0.004918,0.010159,0.000106,0.010159,-0.004919,89.595305,0.010161,
1690,960,-3.334886,-10.758880,0.999996,0.000251,-0.004409,0.010155,-0.000853,0.010205,-0.004458,-86.661361,0.010232,
1060,140,0.137082,-19.386233,0.999998,0.000148,-0.001041,0.006769,0.000427,0.006792,-0.001064,86.877950,0.007306,
1630,890,-2.839786,-11.548969,0.999996,0.000248,-0.005215,0.011112,-0.001350,0.011223,-0.005326,-85.306602,0.011228,
1770,1960,-0.555869,-0.659527,0.999996,0.000211,-0.002899,0.008928,0.002636,0.009489,-0.003460,77.988405,0.009604,
1160,420,0.170522,-17.459841,0.999997,0.000227,-0.002466,0.007225,-0.000340,0.007237,-0.002478,-87.992223,0.007356,
1110,1180,1.000499,-6.226697,0.999996,0.000251,-0.003330,0.006556,0.004258,0.008137,-0.004911,69.629811,0.008195,
1210,110,0.014504,-19.608273,0.999998,0.000160,-0.000608,0.006310,0.000020,0.006310,-0.000609,89.837687,0.006962,
1150,1650,0.190966,-2.600789,0.999998,0.000175,-0.002520,0.007297,0.000433,0.007316,-0.002539,87.480451,0.007429,
1600,1570,-1.334295,-4.023366,0.999995,0.000290,-0.004931,0.009914,-0.000577,0.009937,-0.004954,-87.776135,0.009937,
1650,440,-1.474529,-16.427332,0.999996,0.000248,-0.004783,0.009905,0.000304,0.009911,-0.004789,88.816167,0.009913,
800,1580,1.625000,-4.123648,0.999994,0.000285,-0.005064,0.010108,0.000373,0.010117,-0.005073,88.590887,0.010117,
970,710,1.181314,-14.222641,0.999996,0.000253,-0.006763,0.011364,-0.001592,0.011503,-0.006901,-85.017978,0.011580,
1040,290,0.374924,-18.278529,0.999996,0.000230,-0.002481,0.007696,-0.000057,0.007697,-0.002482,-89.676532,0.007857,
1270,160,-0.037847,-19.285552,0.999998,0.000173,-0.000882,0.006549,-0.000075,0.006549,-0.000882,-89.423902,0.007108,
800,1730,1.227740,-2.640764,0.999997,0.000206,-0.004367,0.009681,-0.000147,0.009682,-0.004369,-89.399187,0.009698,
1700,1430,-2.228639,-5.816566,0.999996,0.000271,-0.005637,0.010679,0.000030,0.010679,-0.005637,89.894060,0.010685,
1500,410,-0.769608,-17.139923,0.999997,0.000226,-0.003761,0.008788,0.000550,0.008812,-0.003785,87.494570,0.008841,
990,720,1.073150,-14.231195,0.999996,0.000275,-0.006809,0.011282,-0.001944,0.011489,-0.007015,-83.935682,0.011582,
640,410,2.245503,-16.178368,0.999996,0.000223,-0.004985,0.010064,-0.000138,0.010065,-0.004987,-89.476455,0.010065,
1100,1690,0.298140,-2.374733,0.999998,0.000171,-0.002400,0.007557,0.000295,0.007566,-0.002409,88.306547,0.007731,
1060,1950,0.094274,-0.541042,0.999998,0.000175,-0.000728,0.006569,-0.000486,0.006602,-0.000761,-86.204509,0.007224,
1630,730,-2.164563,-13.394023,0.999996,0.000267,-0.006332,0.011456,-0.000361,0.011463,-0.006339,-88.839042,0.011484,
850,460,1.342846,-16.343450,0.999997,0.000232,-0.004816,0.009899,-0.000491,0.009916,-0.004832,-88.090649,0.009917,
980,510,0.822864,-16.297265,0.999996,0.000277,-0.004359,0.009142,-0.001137,0.009237,-0.004454,-85.219309,0.009239,
1500,340,-0.661335,-17.746361,0.999997,0.000222,-0.003426,0.008547,0.000236,0.008552,-0.003431,88.871095,0.008607,
1030,1080,2.225447,-9.082548,0.999983,0.000533,-0.007063,0.017675,0.002139,0.017858,-0.007247,85.094754,0.017964,
610,380,2.301130,-16.379938,0.999996,0.000243,-0.004938,0.010018,-0.000104,0.010018,-0.004938,-89.601476,0.010019,
1600,1210,-2.469553,-8.036545,0.999993,0.000329,-0.006086,0.011823,0.001230,0.011907,-0.006170,86.090145,0.011910,
720,1050,3.614755,-9.861868,0.999997,0.000233,-0.004314,0.009650,-0.000334,0.009658,-0.004322,-88.631618,0.009676,
1280,1510,-0.122730,-3.556574,0.999998,0.000167,-0.002610,0.006679,-0.000581,0.006715,-0.002646,-86.432028,0.006765,
980,530,0.846294,-16.112176,0.999996,0.000249,-0.004626,0.009269,-0.001293,0.009389,-0.004746,-84.728505,0.009389,
670,1770,1.682505,-2.617166,0.999995,0.000257,-0.004748,0.010122,-0.000373,0.010131,-0.004757,-88.563354,0.010138,
1650,780,-2.488456,-12.765064,0.999996,0.000290,-0.006103,0.011326,-0.000883,0.011370,-0.006147,-87.106921,0.011383,
1510,1600,-0.868447,-3.444497,0.999998,0.000181,-0.004089,0.009111,-0.000757,0.009154,-0.004132,-86.729580,0.009168,
1100,290,0.243158,-18.343694,0.999998,0.000184,-0.001965,0.007330,-0.000002,0.007330,-0.001965,-89.988638,0.007589,
1300,2000,-0.014449,-0.213771,0.999998,0.000158,-0.000160,0.006054,0.000173,0.006059,-0.000165,88.410949,0.006903,
920,410,0.933182,-17.032170,0.999998,0.000161,-0.004048,0.009140,-0.000465,0.009157,-0.004065,-87.985087,0.009176,
930,1560,1.031934,-3.897792,0.999996,0.000236,-0.004601,0.009498,0.000864,0.009551,-0.004654,86.506525,0.009552,
1060,160,0.164187,-19.249051,0.999998,0.000150,-0.001221,0.006868,0.000402,0.006888,-0.001241,87.164536,0.007343,
670,120,0.801220,-19.220152,0.999994,0.000287,-0.003300,0.010087,0.002710,0.010614,-0.003828,78.980866,0.010751,
680,1220,3.420709,-8.222189,0.999995,0.000270,-0.004938,0.009883,-0.000896,0.009937,-0.004992,-86.553276,0.009937,
670,1530,2.427465,-5.059586,0.999995,0.000250,-0.005174,0.010221,0.000102,0.010222,-0.005174,89.620796,0.010222,
630,1240,3.597185,-8.114471,0.999995,0.000254,-0.004767,0.009531,-0.000623,0.009558,-0.004794,-87.508893,0.009558,
1630,870,-2.755004,-11.776286,0.999993,0.000300,-0.005503,0.011329,-0.001408,0.011446,-0.005620,-85.252862,0.011447,
1830,900,-3.831876,-11.243987,0.999997,0.000224,-0.004485,0.009157,-0.000481,0.009174,-0.004502,-87.984379,0.009174,
650,1560,2.441691,-4.816008,0.999994,0.000275,-0.005099,0.010170,0.000129,0.010171,-0.005100,89.514505,0.010171,
650,500,2.458167,-15.292960,0.999997,0.000230,-0.005131,0.010201,-0.000123,0.010202,-0.005132,-89.539025,0.010202,
1210,90,0.010378,-19.733250,0.999998,0.000174,-0.000465,0.006148,0.000024,0.006148,-0.000465,89.795977,0.006847,
1160,640,0.178445,-15.936174,0.999998,0.000194,-0.002837,0.006185,-0.001714,0.006499,-0.003152,-79.599182,0.006500,
1110,1170,1.116903,-6.287938,0.999994,0.000295,-0.002688,0.006575,0.004682,0.008530,-0.004642,67.343236,0.008541,
1290,1800,-0.091756,-1.519442,0.999998,0.000142,-0.001478,0.006917,0.000075,0.006918,-0.001479,89.486956,0.007285,
840,1300,2.217783,-7.032355,0.999993,0.000305,-0.006402,0.011539,-0.000552,0.011555,-0.006419,-88.239576,0.011579,
1440,1270,-1.028306,-6.443549,0.999997,0.000206,-0.007592,0.012049,-0.002476,0.012356,-0.007900,-82.924237,0.012515,
1610,1220,-2.484431,-7.941905,0.999995,0.000253,-0.006088,0.011730,0.001194,0.011810,-0.006168,86.182604,0.011814,
1520,1530,-1.016017,-4.140291,0.999997,0.000218,-0.004754,0.009562,-0.001047,0.009638,-0.004830,-85.841015,0.009638,
970,1560,0.848551,-3.758141,0.999996,0.000243,-0.004337,0.009174,0.001025,0.009252,-0.004414,85.686782,0.009255,
790,540,1.839817,-15.331313,0.999995,0.000275,-0.005340,0.010422,-0.000340,0.010429,-0.005348,-88.764892,0.010430,
980,290,0.518289,-18.198274,0.999997,0.000183,-0.002685,0.008055,0.000133,0.008057,-0.002686,89.290362,0.008204,
600,850,3.847481,-11.653327,0.999997,0.000214,-0.004548,0.009327,0.000481,0.009343,-0.004564,88.015672,0.009344,
1710,1340,-2.593034,-6.818210,0.999995,0.000318,-0.005723,0.010817,0.000574,0.010837,-0.005742,88.015512,0.010843,
1150,1630,0.195313,-2.750304,0.999998,0.000170,-0.002616,0.007259,0.000498,0.007284,-0.002641,87.118978,0.007375,
680,1430,2.681548,-6.063008,0.999995,0.000254,-0.005315,0.010299,-0.000213,0.010302,-0.005318,-89.217756,0.010304,
1280,2000,-0.010255,-0.212770,0.999998,0.000175,-0.000155,0.006026,0.000126,0.006029,-0.000157,88.828596,0.006873,
800,1560,1.673567,-4.329208,0.999994,0.000270,-0.005141,0.010224,0.000382,0.010234,-0.005150,88.577672,0.010234,
880,490,1.258925,-16.144478,0.999996,0.000242,-0.004924,0.009871,-0.000692,0.009904,-0.004956,-87.326522,0.009904,
580,1970,0.883469,-0.899747,0.999995,0.000260,-0.004574,0.012113,-0.002784,0.012565,-0.005027,-80.773380,0.012648,
1500,320,-0.623675,-17.921514,0.999997,0.000233,-0.003237,0.008483,0.000079,0.008484,-0.003238,89.613236,0.008563,
970,690,1.134230,-14.450174,0.999996,0.000241,-0.006512,0.011085,-0.001675,0.011243,-0.006670,-84.611435,0.011308,
980,490,0.802337,-16.478268,0.999996,0.000242,-0.004141,0.009032,-0.001018,0.009110,-0.004219,-85.606138,0.009119,
1030,1070,2.269955,-9.253858,0.999973,0.000664,-0.007307,0.018398,0.001923,0.018541,-0.007450,85.745308,0.018659,
1100,2010,0.021819,-0.156861,0.999998,0.000181,-0.000129,0.006044,-0.000311,0.006059,-0.000144,-87.123901,0.006915,
1450,160,-0.226027,-19.221389,0.999998,0.000191,-0.001259,0.007132,-0.000622,0.007177,-0.001304,-85.784765,0.007647,
670,1750,1.758380,-2.823161,0.999995,0.000253,-0.004783,0.010069,-0.000230,0.010073,-0.004787,-89.111932,0.010077,
1380,350,-0.327706,-17.877093,0.999998,0.000183,-0.002330,0.007507,0.000220,0.007512,-0.002335,88.721601,0.007689,
1080,290,0.282633,-18.326870,0.999997,0.000222,-0.001990,0.007440,0.000055,0.007440,-0.001990,89.662842,0.007704,
1570,1600,-1.132220,-3.632844,0.999997,0.000231,-0.004462,0.009545,-0.000576,0.009568,-0.004486,-87.647198,0.009574,
1030,940,2.010568,-11.673217,0.999996,0.000235,-0.006488,0.015406,-0.002068,0.015600,-0.006682,-84.650218,0.015653,
930,860,2.117988,-12.137141,0.999996,0.000225,-0.006763,0.012800,0.000959,0.012847,-0.006810,87.201025,0.012854,
670,1240,3.404154,-8.040340,0.999995,0.000253,-0.004971,0.009982,-0.000876,0.010033,-0.005023,-86.659480,0.010033,
610,360,2.234152,-16.580874,0.999994,0.000281,-0.004895,0.009991,-0.000103,0.009992,-0.004895,-89.602370,0.009993,
920,590,1.240419,-15.281207,0.999996,0.000219,-0.005543,0.010282,-0.001061,0.010352,-0.005614,-86.182659,0.010365,
1440,350,-0.492102,-17.781220,0.999996,0.000231,-0.002897,0.007943,0.000311,0.007952,-0.002906,88.355450,0.008047,
1060,180,0.188039,-19.109860,0.999998,0.000174,-0.001420,0.006956,0.000339,0.006970,-0.001434,87.688268,0.007361,
1750,380,-1.793554,-16.722059,0.999996,0.000277,-0.004883,0.010108,0.000078,0.010108,-0.004884,89.701183,0.010110,
800,1710,1.286317,-2.835599,0.999996,0.000229,-0.004511,0.009639,-0.000032,0.009639,-0.004511,-89.871626,0.009646,
1410,1540,-0.529923,-3.659194,0.999995,0.000252,-0.003661,0.008245,-0.001241,0.008373,-0.003789,-84.113286,0.008385,
820,1050,3.200680,-9.847814,0.999997,0.000207,-0.003975,0.010242,-0.000374,0.010252,-0.003985,-88.493553,0.010337,
670,1510,2.485640,-5.264655,0.999995,0.000263,-0.005201,0.010241,0.000050,0.010242,-0.005201,89.814442,0.010242,
1110,1200,0.784893,-6.092130,0.999982,0.000508,-0.004822,0.007492,0.004230,0.008805,-0.006135,72.755299,0.009029,
580,1740,2.228463,-3.242398,0.999997,0.000206,-0.004628,0.009804,0.000049,0.009804,-0.004628,89.806066,0.009809,
1260,1510,-0.072079,-3.538256,0.999998,0.000175,-0.002530,0.006556,-0.000430,0.006577,-0.002550,-87.294973,0.006632,
1830,880,-3.786547,-11.427341,0.999996,0.000234,-0.004580,0.009358,-0.000612,0.009385,-0.004607,-87.488910,0.009385,
680,1180,3.549196,-8.620105,0.999996,0.000258,-0.004809,0.009886,-0.000941,0.009946,-0.004869,-86.349517,0.009946,
1410,2010,-0.028325,-0.158259,0.999998,0.000179,-0.000316,0.006220,0.000466,0.006253,-0.000349,85.941190,0.007027,
1630,850,-2.668545,-12.005661,0.999994,0.000300,-0.005749,0.011352,-0.001292,0.011449,-0.005846,-85.704102,0.011450,
1890,1960,-1.012615,-1.048640,0.999992,0.000352,-0.004554,0.011869,0.002562,0.012260,-0.004944,81.336838,0.012336,
1270,280,-0.066568,-18.472550,0.999997,0.000185,-0.001704,0.007027,0.000004,0.007027,-0.001704,89.971669,0.007331,
1010,1240,1.261748,-6.931736,0.999990,0.000377,-0.007828,0.012717,0.001711,0.012859,-0.007970,85.270555,0.012981,
1160,400,0.162056,-17.604072,0.999997,0.000206,-0.002360,0.007220,-0.000268,0.007227,-0.002367,-88.400912,0.007369,
1530,1660,-0.857705,-2.960444,0.999998,0.000162,-0.003695,0.008902,-0.000360,0.008912,-0.003706,-88.362808,0.008954,
1210,70,0.007065,-19.855237,0.999998,0.000177,-0.000347,0.006085,0.000080,0.006086,-0.000348,89.285624,0.006835,
1630,710,-2.095447,-13.622292,0.999995,0.000315,-0.006263,0.011356,-0.000185,0.011358,-0.006264,-89.399546,0.011378,
660,1250,3.417925,-7.958338,0.999997,0.000230,-0.004970,0.009966,-0.000824,0.010011,-0.005015,-86.851728,0.010011,
840,1280,2.301808,-7.265339,0.999993,0.000325,-0.006368,0.011653,-0.000723,0.011682,-0.006397,-87.705785,0.011700,
660,1690,2.006257,-3.460028,0.999997,0.000199,-0.004941,0.010078,0.000037,0.010079,-0.004941,89.857992,0.010079,
910,1520,1.194737,-4.358287,0.999995,0.000274,-0.005150,0.009983,0.000962,0.010044,-0.005211,86.378410,0.010046,
1070,1540,0.470146,-3.610571,0.999996,0.000213,-0.003543,0.008016,0.001300,0.008160,-0.003687,83.662359,0.008172,
1850,620,-3.011946,-13.950301,0.999997,0.000235,-0.005045,0.010171,-0.000096,0.010171,-0.005046,-89.639915,0.010172,
720,1310,2.887251,-7.218370,0.999996,0.000265,-0.005462,0.010557,-0.000764,0.010593,-0.005498,-87.276112,0.010596,
1160,260,0.113223,-18.602875,0.999998,0.000160,-0.001552,0.006978,0.000065,0.006978,-0.001553,89.564855,0.007327,
590,850,3.893167,-11.630208,0.999997,0.000176,-0.004485,0.009242,0.000371,0.009252,-0.004495,88.453145,0.009253,
650,480,2.398095,-15.499162,0.999996,0.000228,-0.005084,0.010202,-0.000131,0.010203,-0.005085,-89.507544,0.010203,
1080,2010,0.024930,-0.157023,0.999998,0.000175,-0.000116,0.006113,-0.000408,0.006140,-0.000143,-86.272492,0.007008,
1500,300,-0.586069,-18.088722,0.999997,0.000235,-0.003085,0.008224,-0.000026,0.008224,-0.003085,-89.866457,0.008309,
1240,350,-0.018629,-17.990556,0.999997,0.000189,-0.002138,0.006992,0.000106,0.006993,-0.002139,89.335485,0.007167,
1440,290,-0.415944,-18.252847,0.999996,0.000234,-0.002437,0.007797,-0.000040,0.007797,-0.002437,-89.775636,0.007978,
1110,2000,0.025353,-0.216360,0.999997,0.000203,-0.000231,0.006095,-0.000296,0.006109,-0.000245,-87.325986,0.006917,
770,540,1.946113,-15.266392,0.999995,0.000264,-0.005318,0.010398,-0.000263,0.010402,-0.005323,-89.043257,0.010403,
1160,100,0.035422,-19.668577,0.999998,0.000185,-0.000434,0.006269,0.000185,0.006274,-0.000439,88.417021,0.007005,
800,1540,1.722210,-4.536068,0.999996,0.000200,-0.005201,0.010284,0.000389,0.010294,-0.005211,88.560144,0.010294,
1540,1310,-1.619839,-6.599339,0.999993,0.000304,-0.007078,0.012061,-0.000487,0.012074,-0.007091,-88.541997,0.012135,
920,570,1.204469,-15.484952,0.999996,0.000256,-0.005378,0.010196,-0.001057,0.010268,-0.005450,-86.135480,0.010274,
570,1970,0.929073,-0.934501,0.999985,0.000429,-0.004602,0.012459,-0.002797,0.012906,-0.005049,-80.921810,0.013007,
590,1430,3.142901,-6.331081,0.999995,0.000274,-0.004967,0.010159,-0.000083,0.010160,-0.004967,-89.686429,0.010161,
1300,1630,-0.162312,-2.735337,0.999997,0.000211,-0.002465,0.007204,-0.000334,0.007216,-0.002477,-88.026622,0.007333,
1260,810,-0.103926,-15.388826,0.999996,0.000254,-0.003615,0.002358,0.001444,0.002688,-0.003946,77.098132,0.004031,
910,860,2.250612,-12.065568,0.999994,0.000282,-0.006430,0.012451,0.001156,0.012521,-0.006501,86.510394,0.012524,
720,1320,2.851250,-7.111874,0.999996,0.000242,-0.005501,0.010524,-0.000713,0.010555,-0.005533,-87.458594,0.010559,
1110,1220,0.641854,-5.932805,0.999994,0.000313,-0.005803,0.008121,0.004427,0.009410,-0.007092,73.774111,0.009805,
1710,650,-2.366467,-14.043361,0.999994,0.000303,-0.005652,0.010662,-0.000208,0.010664,-0.005655,-89.269294,0.010671,
1500,450,-0.824137,-16.786475,0.999997,0.000202,-0.003936,0.008944,0.000728,0.008985,-0.003978,86.773256,0.009004,
1030,1060,2.309266,-9.438478,0.999984,0.000487,-0.007589,0.019348,0.001573,0.019440,-0.007680,86.670173,0.019582,
670,1730,1.826376,-3.021516,0.999996,0.000232,-0.004821,0.010025,-0.000061,0.010025,-0.004821,-89.764460,0.010027,
1030,920,1.851791,-11.971182,0.999992,0.000347,-0.006581,0.014763,-0.001773,0.014910,-0.006727,-85.283987,0.014933,
650,1240,3.501586,-8.077334,0.999995,0.000242,-0.004881,0.009754,-0.000747,0.009792,-0.004919,-87.084451,0.009792,
1060,620,0.549926,-15.639503,0.999995,0.000247,-0.004556,0.008487,-0.002292,0.008878,-0.004947,-80.315829,0.008897,
1570,1720,-0.884945,-2.510272,0.999998,0.000173,-0.003839,0.009068,-0.000052,0.009068,-0.003839,-89.769386,0.009104,
1410,1520,-0.539798,-3.824747,0.999995,0.000254,-0.003886,0.008301,-0.001452,0.008472,-0.004057,-83.300171,0.008474,
670,1490,2.548490,-5.470275,0.999994,0.000276,-0.005222,0.010298,0.000030,0.010298,-0.005222,89.888228,0.010298,
680,1160,3.608584,-8.818042,0.999996,0.000224,-0.004685,0.009687,-0.000779,0.009729,-0.004727,-86.904768,0.009730,
860,990,3.029770,-10.477619,0.999997,0.000227,-0.003935,0.010662,0.000604,0.010687,-0.003960,87.632984,0.010806,
1300,350,-0.142983,-17.964670,0.999998,0.000166,-0.002059,0.007125,0.000086,0.007126,-0.002059,89.465914,0.007334,
930,1120,2.540096,-8.972824,0.999995,0.000272,-0.005049,0.012275,-0.001404,0.012388,-0.005162,-85.397493,0.012445,
800,1050,3.280234,-9.850686,0.999996,0.000212,-0.004054,0.010125,-0.000352,0.010133,-0.004063,-88.580205,0.010199,
1630,830,-2.582353,-12.233184,0.999994,0.000275,-0.005952,0.011490,-0.001194,0.011571,-0.006034,-86.102112,0.011575,
1850,140,-1.186245,-18.814499,0.999997,0.000209,-0.004869,0.010442,-0.001152,0.010528,-0.004955,-85.721677,0.010534,
1030,1240,1.107517,-6.743239,0.999994,0.000287,-0.007781,0.012359,0.002324,0.012624,-0.008046,83.503163,0.012782,
1730,1520,-2.126800,-4.960647,0.999995,0.000237,-0.005273,0.010340,-0.000164,0.010342,-0.005275,-89.399076,0.010343,
1590,1080,-2.945977,-9.512195,0.999996,0.000273,-0.004001,0.010945,0.000936,0.011003,-0.004059,86.431868,0.011128,
1200,1980,0.013355,-0.333805,0.999998,0.000154,-0.000361,0.006135,-0.000088,0.006137,-0.000362,-89.225487,0.006886,
1870,1590,-2.642498,-4.691916,0.999995,0.000270,-0.004988,0.010098,-0.000074,0.010099,-0.004989,-89.717913,0.010099,
1260,2010,-0.005991,-0.153345,0.999999,0.000123,-0.000163,0.005981,0.000028,0.005981,-0.000163,89.740024,0.006814,
1240,1510,-0.021079,-3.522360,0.999998,0.000180,-0.002520,0.006529,-0.000204,0.006534,-0.002525,-88.711491,0.006589,
750,540,2.051517,-15.202043,0.999995,0.000241,-0.005308,0.010367,-0.000202,0.010370,-0.005311,-89.260695,0.010371,
1420,290,-0.367409,-18.282149,0.999997,0.000207,-0.002492,0.007667,0.000077,0.007668,-0.002493,89.565658,0.007823,
1160,360,0.151950,-17.891789,0.999998,0.000172,-0.002139,0.007180,-0.000142,0.007183,-0.002141,-89.127422,0.007375,
1510,1660,-0.785085,-2.912524,0.999998,0.000196,-0.003680,0.008766,-0.000443,0.008782,-0.003695,-87.965821,0.008818,
620,1670,2.266909,-3.797136,0.999997,0.000200,-0.004984,0.010075,0.000108,0.010076,-0.004985,89.588229,0.010076,
1540,2010,-0.065584,-0.170713,0.999998,0.000163,-0.000168,0.006563,0.001080,0.006732,-0.000337,81.104781,0.007586,
1070,1520,0.476221,-3.769973,0.999996,0.000229,-0.003636,0.008046,0.001393,0.008210,-0.003800,83.291745,0.008218,
1060,600,0.541934,-15.811690,0.999996,0.000244,-0.004415,0.008456,-0.002119,0.008796,-0.004755,-80.889604,0.008806,
710,1240,3.198836,-7.972024,0.999993,0.000320,-0.005174,0.010335,-0.001011,0.010401,-0.005240,-86.287027,0.010401,
950,820,1.753601,-12.750322,0.999995,0.000259,-0.007454,0.012930,0.000023,0.012930,-0.007454,89.935251,0.012980,
920,510,1.101325,-16.085894,0.999997,0.000235,-0.004747,0.009654,-0.000888,0.009708,-0.004801,-86.485369,0.009708,
1100,2000,0.029090,-0.217118,0.999998,0.000174,-0.000192,0.006119,-0.000345,0.006138,-0.000211,-86.881296,0.006969,
1160,240,0.102115,-18.743120,0.999998,0.000183,-0.001408,0.006903,0.000103,0.006904,-0.001409,89.289816,0.007296,
1360,1630,-0.321869,-2.822896,0.999997,0.000225,-0.002717,0.007528,-0.000558,0.007559,-0.002747,-86.889245,0.007652,
1630,690,-2.025015,-13.850967,0.999995,0.000285,-0.006190,0.011246,-0.000043,0.011246,-0.006190,-89.859682,0.011265,
760,860,3.106259,-11.784531,0.999996,0.000233,-0.005131,0.010524,0.001185,0.010613,-0.005220,85.696694,0.010614,
600,1970,0.792513,-0.818454,0.999994,0.000278,-0.004513,0.011454,-0.002626,0.011875,-0.004934,-80.895348,0.011931,
1110,160,0.115598,-19.265658,0.999998,0.000172,-0.001018,0.006735,0.000285,0.006745,-0.001029,87.894289,0.007268,
680,1140,3.654839,-9.008438,0.999997,0.000205,-0.004560,0.009522,-0.000681,0.009555,-0.004593,-87.239692,0.009557,
1770,1220,-3.357088,-8.203462,0.999996,0.000225,-0.005014,0.010022,0.000946,0.010081,-0.005073,86.413463,0.010081,
720,1340,2.776020,-6.900381,0.999996,0.000238,-0.005557,0.010544,-0.000611,0.010567,-0.005580,-87.828930,0.010573,
1320,350,-0.185244,-17.951271,0.999997,0.000207,-0.002303,0.007226,0.000257,0.007233,-0.002310,88.458051,0.007388,
640,1690,2.105457,-3.526729,0.999996,0.000245,-0.004943,0.010081,0.000036,0.010081,-0.004943,89.860884,0.010081,
1700,790,-2.821048,-12.547153,0.999995,0.000264,-0.005610,0.010896,-0.001008,0.010957,-0.005672,-86.519443,0.010959,
1630,810,-2.492254,-12.467715,0.999994,0.000283,-0.006111,0.011589,-0.001052,0.011651,-0.006173,-86.611724,0.011658,
1140,350,0.191528,-17.948097,0.999997,0.000197,-0.002327,0.007243,-0.000296,0.007252,-0.002336,-88.229538,0.007404,
1830,640,-2.974443,-13.805123,0.999998,0.000198,-0.005087,0.010205,-0.000209,0.010208,-0.005090,-89.217539,0.010208,
1880,1220,-3.877716,-8.409443,0.999998,0.000169,-0.004522,0.009271,0.000295,0.009277,-0.004529,88.773984,0.009278,
840,990,3.107616,-10.472259,0.999997,0.000233,-0.003976,0.010455,0.000562,0.010477,-0.003998,87.774315,0.010574,
670,1710,1.889077,-3.224057,0.999996,0.000217,-0.004876,0.010081,-0.000012,0.010081,-0.004876,-89.955692,0.010083,
740,1310,2.777325,-7.172239,0.999996,0.000251,-0.005614,0.010661,-0.000797,0.010700,-0.005653,-87.202071,0.010706,
1500,630,-1.067661,-15.053459,0.999995,0.000265,-0.005812,0.010270,0.001586,0.010425,-0.005967,84.421531,0.010461,
670,1470,2.607808,-5.677295,0.999995,0.000255,-0.005216,0.010330,-0.000021,0.010330,-0.005216,-89.923464,0.010330,
1210,470,0.053418,-17.135902,0.999998,0.000161,-0.002457,0.006907,-0.000290,0.006916,-0.002466,-88.229066,0.007010,
1390,1540,-0.459336,-3.601709,0.999997,0.000210,-0.003554,0.007990,-0.001299,0.008135,-0.003699,-83.660827,0.008146,
1010,1070,2.401988,-9.376570,0.999991,0.000387,-0.005707,0.015870,0.000441,0.015879,-0.005716,88.830023,0.016085,
1220,1690,0.025387,-2.276630,0.999998,0.000158,-0.002167,0.007069,0.000125,0.007071,-0.002169,89.222801,0.007245,
970,670,1.093052,-14.670584,0.999996,0.000245,-0.006244,0.010824,-0.001708,0.010993,-0.006413,-84.339552,0.011044,
1220,350,0.025019,-17.989086,0.999998,0.000171,-0.002146,0.007002,-0.000115,0.007004,-0.002148,-89.280658,0.007176,
800,1520,1.772022,-4.742463,0.999997,0.000199,-0.005314,0.010391,0.000386,0.010401,-0.005324,88.592403,0.010402,
840,1260,2.383887,-7.503939,0.999994,0.000286,-0.006250,0.011649,-0.000904,0.011694,-0.006296,-87.115952,0.011706,
1350,880,-1.050239,-13.966716,0.999995,0.000253,-0.002887,0.006157,0.004451,0.007980,-0.004710,67.725776,0.008023,
1110,1240,0.524138,-5.774910,0.999989,0.000418,-0.005945,0.008118,0.004498,0.009434,-0.007260,73.697164,0.009881,
1010,1120,2.096335,-8.614175,0.999988,0.000374,-0.006161,0.014727,0.000437,0.014736,-0.006170,88.803306,0.014801,
1890,50,-0.534079,-19.684740,0.999965,0.000752,-0.001999,0.013965,-0.006522,0.016291,-0.004325,-70.372821,0.016878,
810,1240,2.654150,-7.802045,0.999996,0.000265,-0.005862,0.011299,-0.001129,0.011373,-0.005936,-86.252053,0.011377,
730,1560,2.032079,-4.557786,0.999997,0.000220,-0.005152,0.010256,0.000224,0.010259,-0.005156,89.168400,0.010259,
1160,340,0.145917,-18.034944,0.999998,0.000171,-0.002034,0.007151,-0.000088,0.007152,-0.002035,-89.451284,0.007370,
580,1430,3.192389,-6.362308,0.999996,0.000241,-0.004713,0.010154,-0.000048,0.010154,-0.004713,-89.816361,0.010163,
1570,2000,-0.098335,-0.239799,0.999998,0.000190,-0.000572,0.006820,0.001301,0.007042,-0.000794,80.307662,0.007714,
1870,700,-3.380647,-13.079063,0.999997,0.000220,-0.004952,0.009947,-0.000225,0.009951,-0.004955,-89.136081,0.009951,
1160,220,0.094313,-18.880225,0.999998,0.000174,-0.001288,0.006778,0.000120,0.006780,-0.001289,89.144303,0.007200,
1200,1690,0.068553,-2.286577,0.999998,0.000155,-0.002161,0.007071,0.000169,0.007074,-0.002164,88.952115,0.007249,
1060,580,0.531631,-15.983504,0.999995,0.000268,-0.004252,0.008381,-0.001920,0.008667,-0.004537,-81.547655,0.008670,
1160,1630,0.169353,-2.738595,0.999998,0.000160,-0.002506,0.007203,0.000384,0.007218,-0.002521,87.741385,0.007327,
1630,670,-1.961394,-14.074643,0.999995,0.000262,-0.006112,0.011094,0.000103,0.011094,-0.006112,89.656373,0.011114,
920,530,1.131973,-15.891767,0.999995,0.000278,-0.005004,0.009821,-0.000974,0.009884,-0.005068,-86.258811,0.009885,
620,1970,0.701824,-0.726478,0.999997,0.000206,-0.004584,0.010902,-0.002470,0.011286,-0.004969,-81.153214,0.011313,
640,1670,2.166079,-3.729949,0.999996,0.000248,-0.004955,0.010079,0.000107,0.010080,-0.004956,89.592482,0.010081,
760,840,3.028464,-12.003778,0.999996,0.000231,-0.005290,0.010689,0.001199,0.010779,-0.005379,85.734000,0.010779,
680,1120,3.695562,-9.202049,0.999997,0.000209,-0.004514,0.009590,-0.000758,0.009630,-0.004554,-86.932030,0.009635,
720,1360,2.705773,-6.688272,0.999995,0.000263,-0.005553,0.010603,-0.000512,0.010619,-0.005569,-88.186594,0.010624,
980,1510,0.863982,-4.189817,0.999997,0.000232,-0.004771,0.009378,0.001403,0.009516,-0.004909,84.390268,0.009518,
1000,350,0.558329,-17.738510,0.999996,0.000211,-0.002872,0.008138,-0.000209,0.008142,-0.002876,-88.911745,0.008258,
1750,1220,-3.257212,-8.174622,0.999995,0.000278,-0.005087,0.010241,0.001054,0.010313,-0.005160,86.083434,0.010313,
1280,810,-0.172358,-15.259153,0.999995,0.000288,-0.003794,0.003027,0.002482,0.003835,-0.004602,71.975990,0.004931,
1870,1220,-3.833075,-8.383655,0.999996,0.000240,-0.004563,0.009305,0.000375,0.009315,-0.004574,88.453020,0.009315,
1520,1330,-1.413446,-6.264194,0.999993,0.000325,-0.006993,0.011737,-0.001023,0.011793,-0.007049,-86.881486,0.011868,
1630,790,-2.407796,-12.698002,0.999994,0.000293,-0.006231,0.011564,-0.000880,0.011608,-0.006275,-87.175995,0.011620,
1070,160,0.152043,-19.253188,0.999998,0.000132,-0.001081,0.006847,0.000412,0.006869,-0.001102,87.036206,0.007378,
1710,1500,-2.077427,-5.105841,0.999996,0.000253,-0.005368,0.010404,-0.000184,0.010406,-0.005370,-89.332695,0.010408,
1500,490,-0.875381,-16.424862,0.999995,0.000257,-0.004380,0.009218,0.001023,0.009295,-0.004457,85.721152,0.009297,
800,1500,1.822647,-4.954142,0.999997,0.000218,-0.005404,0.010419,0.000342,0.010426,-0.005412,88.764082,0.010429,
1090,1240,0.654297,-6.046513,0.999992,0.000345,-0.006653,0.009772,0.004293,0.010827,-0.007708,76.200400,0.011147,
1210,490,0.054781,-16.997283,0.999998,0.000169,-0.002507,0.006838,-0.000321,0.006849,-0.002518,-88.034821,0.006928,
1370,1540,-0.388015,-3.537440,0.999997,0.000209,-0.003471,0.007774,-0.001367,0.007938,-0.003635,-83.166125,0.007947,
840,1670,1.217408,-3.111058,0.999997,0.000178,-0.004249,0.009566,0.000134,0.009567,-0.004250,89.445614,0.009587,
1010,1050,2.457382,-9.712945,0.999988,0.000425,-0.005682,0.016869,0.000332,0.016874,-0.005687,89.157529,0.017170,
990,1120,2.216636,-8.744868,0.999994,0.000290,-0.005895,0.014196,-0.000507,0.014209,-0.005908,-88.556359,0.014276,
1480,1450,-0.919395,-4.755003,0.999997,0.000239,-0.005291,0.009826,-0.001658,0.010005,-0.005471,-83.814436,0.010020,
860,1590,1.307838,-3.832387,0.999996,0.000253,-0.004843,0.009849,0.000534,0.009868,-0.004863,87.922979,0.009868,
1540,2000,-0.087307,-0.235994,0.999998,0.000154,-0.000301,0.006667,0.001110,0.006839,-0.000474,81.162070,0.007638,
670,1450,2.668926,-5.885489,0.999996,0.000235,-0.005243,0.010286,-0.000103,0.010287,-0.005244,-89.619984,0.010288,
630,1500,2.721180,-5.493740,0.999995,0.000269,-0.005079,0.010215,0.000047,0.010215,-0.005079,89.823322,0.010215,
1750,1080,-3.619363,-9.572286,0.999995,0.000270,-0.004382,0.009627,0.000405,0.009639,-0.004393,88.346373,0.009652,
1050,1440,0.592863,-4.525810,0.999997,0.000220,-0.004604,0.008753,0.002185,0.009102,-0.004952,80.942691,0.009113,
1760,1510,-2.314691,-5.161642,0.999995,0.000232,-0.005244,0.010329,-0.000088,0.010330,-0.005245,-89.677856,0.010330,
1160,320,0.137363,-18.179029,0.999998,0.000162,-0.001903,0.007157,-0.000045,0.007157,-0.001904,-89.714428,0.007414,
1060,560,0.519832,-16.153928,0.999996,0.000242,-0.004036,0.008314,-0.001688,0.008541,-0.004263,-82.354889,0.008541,
1890,2010,-0.453530,-0.406225,0.999993,0.000294,-0.000762,0.013699,0.006801,0.016395,-0.003458,68.375802,0.017284,
670,1890,1.102012,-1.398277,0.999997,0.000237,-0.004011,0.010255,-0.001854,0.010492,-0.004248,-82.715221,0.010555,
1180,1250,0.172565,-4.903712,0.999995,0.000259,-0.003632,0.003204,0.002709,0.004148,-0.004575,70.798719,0.005054,
1560,2000,-0.093439,-0.238589,0.999998,0.000188,-0.000433,0.006772,0.001248,0.006982,-0.000644,80.444259,0.007717,
1630,650,-1.900380,-14.295893,0.999996,0.000258,-0.006039,0.011042,0.000201,0.011044,-0.006042,89.325376,0.011061,
1220,1630,0.027655,-2.702118,0.999998,0.000158,-0.002383,0.007047,0.000160,0.007050,-0.002385,89.029257,0.007171,
1340,1690,-0.241913,-2.344146,0.999997,0.000221,-0.002473,0.007479,-0.000374,0.007493,-0.002487,-87.853474,0.007633,
960,1510,0.961141,-4.269339,0.999998,0.000160,-0.004872,0.009595,0.001251,0.009703,-0.004979,85.094793,0.009704,
1760,1090,-3.653465,-9.477201,0.999995,0.000255,-0.004433,0.009626,0.000526,0.009645,-0.004453,87.862005,0.009655,
720,1380,2.635912,-6.474827,0.999995,0.000258,-0.005544,0.010573,-0.000409,0.010584,-0.005554,-88.548268,0.010588,
680,1100,3.742758,-9.395120,0.999996,0.000234,-0.004458,0.009530,-0.000599,0.009556,-0.004483,-87.554063,0.009562,
1500,510,-0.900211,-16.234754,0.999996,0.000246,-0.004590,0.009368,0.001139,0.009461,-0.004683,85.366139,0.009461,
1160,200,0.081911,-19.015548,0.999998,0.000173,-0.001103,0.006724,0.000160,0.006727,-0.001106,88.827504,0.007214,
590,1310,3.551926,-7.534293,0.999997,0.000233,-0.004869,0.009742,-0.000203,0.009744,-0.004872,-89.203251,0.009744,
1850,700,-3.281176,-13.136682,0.999996,0.000241,-0.005007,0.010019,-0.000320,0.010026,-0.005014,-88.782112,0.010026,
720,1250,3.109795,-7.850690,0.999994,0.000286,-0.005252,0.010376,-0.000992,0.010439,-0.005314,-86.383110,0.010440,
760,820,2.954692,-12.214750,0.999997,0.000218,-0.005446,0.010685,0.001108,0.010761,-0.005521,86.090393,0.010762,
1140,1690,0.199680,-2.322440,0.999998,0.000160,-0.002426,0.007358,0.000327,0.007369,-0.002437,88.085113,0.007508,
970,610,0.996222,-15.293721,0.999996,0.000251,-0.005511,0.010063,-0.001592,0.010224,-0.005672,-84.221948,0.010244,
1630,770,-2.323227,-12.932122,0.999994,0.000329,-0.006314,0.011540,-0.000704,0.011567,-0.006341,-87.743918,0.011585,
1210,510,0.053862,-16.861289,0.999998,0.000159,-0.002541,0.006752,-0.000352,0.006766,-0.002555,-87.832906,0.006833,
720,1370,2.670174,-6.580422,0.999994,0.000268,-0.005540,0.010599,-0.000459,0.010612,-0.005553,-88.372627,0.010616,
1350,1560,-0.318198,-3.331514,0.999997,0.000200,-0.002984,0.007534,-0.000962,0.007621,-0.003071,-84.815978,0.007669,
570,1430,3.241467,-6.394350,0.999923,0.001028,-0.004569,0.010137,-0.000043,0.010137,-0.004569,-89.830763,0.010153,
980,690,1.070515,-14.506701,0.999996,0.000219,-0.006417,0.010953,-0.001841,0.011146,-0.006610,-84.014933,0.011211,
840,1650,1.263367,-3.303204,0.999997,0.000186,-0.004489,0.009710,0.000270,0.009715,-0.004495,88.910419,0.009724,
1620,290,-0.960637,-17.947179,0.999997,0.000217,-0.003577,0.009207,-0.000465,0.009224,-0.003594,-87.919791,0.009299,
1500,550,-0.953345,-15.854595,0.999997,0.000180,-0.004878,0.009592,0.001270,0.009702,-0.004989,85.023336,0.009704,
1010,1030,2.487471,-10.041397,0.999990,0.000409,-0.005689,0.016330,0.000009,0.016330,-0.005689,89.977372,0.016578,
670,1430,2.734438,-6.091127,0.999996,0.000234,-0.005274,0.010263,-0.000209,0.010265,-0.005277,-89.228155,0.010267,
610,1500,2.822378,-5.555322,0.999997,0.000218,-0.005078,0.010201,0.000019,0.010201,-0.005078,89.928314,0.010201,
660,1490,2.599092,-5.501916,0.999994,0.000260,-0.005167,0.010272,0.000030,0.010272,-0.005167,89.889629,0.010272,
1050,1420,0.602009,-4.700388,0.999995,0.000256,-0.004842,0.008829,0.002334,0.009217,-0.005230,80.572410,0.009245,
970,1120,2.333601,-8.850936,0.999992,0.000322,-0.005569,0.013450,-0.001048,0.013507,-0.005627,-86.856963,0.013570,
1610,1080,-3.027106,-9.523888,0.999996,0.000246,-0.004056,0.010723,0.000887,0.010776,-0.004109,86.576373,0.010877,
570,1250,3.846240,-8.165769,0.999982,0.000501,-0.005043,0.009041,0.000055,0.009041,-0.005044,89.775838,0.009061,
710,1560,2.134366,-4.622490,0.999996,0.000268,-0.005128,0.010250,0.000196,0.010252,-0.005131,89.268156,0.010252,
800,1480,1.878666,-5.164135,0.999996,0.000226,-0.005502,0.010518,0.000275,0.010523,-0.005507,89.017161,0.010527,
1410,1030,-2.127586,-10.017140,0.999965,0.000688,-0.010256,0.025593,-0.000306,0.025596,-0.010259,-89.511650,0.025763,
1180,1270,0.135380,-4.841752,0.999996,0.000264,-0.003089,0.003496,0.002869,0.004571,-0.004164,69.465394,0.005060,
680,120,0.771094,-19.234636,0.999994,0.000285,-0.003421,0.009911,0.002560,0.010386,-0.003895,79.496865,0.010493,
970,650,1.059064,-14.883402,0.999995,0.000275,-0.005988,0.010460,-0.001687,0.010632,-0.006159,-84.202934,0.010676,
1630,630,-1.838943,-14.517210,0.999996,0.000247,-0.005926,0.010866,0.000298,0.010872,-0.005931,88.982243,0.010887,
1210,530,0.054134,-16.727216,0.999998,0.000155,-0.002552,0.006670,-0.000385,0.006686,-0.002568,-87.611260,0.006745,
1550,2000,-0.090681,-0.237894,0.999998,0.000158,-0.000338,0.006711,0.001186,0.006905,-0.000532,80.702839,0.007685,
720,1820,1.238434,-1.957379,0.999995,0.000261,-0.004365,0.009893,-0.000842,0.009943,-0.004415,-86.632087,0.009963,
1300,1510,-0.177963,-3.587200,0.999998,0.000157,-0.002850,0.006853,-0.000980,0.006951,-0.002948,-84.291801,0.006977,
1060,540,0.514213,-16.316901,0.999996,0.000226,-0.003823,0.008256,-0.001461,0.008430,-0.003997,-83.199354,0.008434,
840,1240,2.471965,-7.733759,0.999994,0.000286,-0.006149,0.011637,-0.001091,0.011704,-0.006215,-86.501455,0.011711,
770,1120,3.288335,-9.144856,0.999996,0.000256,-0.004551,0.010166,-0.000892,0.010220,-0.004605,-86.544095,0.010237,
640,850,3.660700,-11.727764,0.999996,0.000226,-0.004720,0.009585,0.000751,0.009625,-0.004760,87.003618,0.009625,
1800,1530,-2.462250,-5.080788,0.999995,0.000310,-0.005150,0.010235,-0.000103,0.010235,-0.005151,-89.617299,0.010235,
1500,530,-0.927772,-16.046643,0.999996,0.000242,-0.004756,0.009453,0.001206,0.009555,-0.004857,85.184078,0.009555,
1080,1690,0.345467,-2.399057,0.999997,0.000212,-0.002494,0.007686,0.000282,0.007693,-0.002502,88.411720,0.007849,
1710,590,-2.178232,-14.683610,0.999996,0.000237,-0.005513,0.010546,0.000071,0.010546,-0.005513,89.745748,0.010550,
1160,180,0.074765,-19.148534,0.999998,0.000192,-0.000942,0.006640,0.000159,0.006644,-0.000946,88.802162,0.007188,
970,590,0.965449,-15.495442,0.999997,0.000223,-0.005237,0.009866,-0.001495,0.010013,-0.005384,-84.402683,0.010022,
580,1310,3.599282,-7.564543,0.999996,0.000250,-0.005400,0.009606,0.000119,0.009607,-0.005401,89.546027,0.009632,
1630,750,-2.242976,-13.160692,0.999995,0.000282,-0.006361,0.011504,-0.000542,0.011521,-0.006377,-88.264426,0.011543,
970,1310,1.285499,-6.346858,0.999994,0.000292,-0.007208,0.011923,0.001366,0.012020,-0.007305,85.936171,0.012113,
1280,350,-0.101957,-17.972033,0.999998,0.000180,-0.002046,0.007077,0.000112,0.007079,-0.002048,89.296316,0.007285,
1640,1650,-1.340552,-3.354604,0.999995,0.000252,-0.004602,0.009793,-0.000251,0.009797,-0.004606,-89.001452,0.009803,
1500,1530,-0.921582,-4.066489,0.999997,0.000211,-0.004733,0.009427,-0.001211,0.009530,-0.004836,-85.147193,0.009530,
1300,1690,-0.147193,-2.302964,0.999998,0.000160,-0.002165,0.007188,-0.000128,0.007190,-0.002167,-89.214478,0.007376,
670,1850,1.322572,-1.807557,0.999995,0.000261,-0.004423,0.010181,-0.001204,0.010280,-0.004522,-85.320174,0.010304,
980,430,0.730980,-17.011492,0.999999,0.000159,-0.003857,0.008749,-0.000731,0.008791,-0.003899,-86.691136,0.008810,
1210,670,0.046456,-15.891325,0.999998,0.000157,-0.002208,0.004943,-0.000722,0.005015,-0.002280,-84.294126,0.005022,
1250,2010,-0.003446,-0.153139,0.999999,0.000125,-0.000183,0.005991,-0.000008,0.005991,-0.000183,-89.927337,0.006815,
1500,390,-0.739499,-17.317576,0.999996,0.000239,-0.003708,0.008757,0.000469,0.008774,-0.003726,87.846185,0.008807,
1010,1010,2.472507,-10.357322,0.999989,0.000408,-0.005667,0.016797,-0.000250,0.016800,-0.005670,-89.362971,0.017093,
1730,1500,-2.184948,-5.170214,0.999995,0.000247,-0.005344,0.010404,-0.000134,0.010406,-0.005345,-89.513631,0.010407,
1620,270,-0.898682,-18.133676,0.999997,0.000191,-0.003374,0.009012,-0.000604,0.009041,-0.003403,-87.213417,0.009133,
670,1910,0.974741,-1.189321,0.999998,0.000221,-0.003691,0.010047,-0.002210,0.010393,-0.004038,-81.082804,0.010479,
960,1110,2.444453,-9.016512,0.999993,0.000311,-0.005145,0.013050,-0.001198,0.013128,-0.005224,-86.248477,0.013219,
1890,1520,-2.949171,-5.465074,0.999996,0.000227,-0.005042,0.010170,-0.000015,0.010170,-0.005042,-89.945089,0.010170,
950,1120,2.443117,-8.921748,0.999992,0.000358,-0.005292,0.012786,-0.001261,0.012873,-0.005380,-86.029187,0.012931,
700,1370,2.779093,-6.633877,0.999996,0.000243,-0.005385,0.010473,-0.000446,0.010485,-0.005398,-88.391291,0.010487,
1530,2010,-0.063200,-0.170555,0.999999,0.000153,-0.000256,0.006521,0.000991,0.006663,-0.000398,81.850862,0.007474,
1200,1630,0.074148,-2.714023,0.999998,0.000194,-0.002386,0.007050,0.000242,0.007056,-0.002393,88.531277,0.007177,
1630,610,-1.785919,-14.732205,0.999995,0.000252,-0.005817,0.010697,0.000410,0.010708,-0.005827,88.578515,0.010722,
710,1480,2.364702,-5.450891,0.999995,0.000262,-0.005346,0.010414,0.000028,0.010414,-0.005347,89.898161,0.010415,
1110,1500,0.337718,-3.790838,0.999997,0.000186,-0.003445,0.007470,0.001528,0.007679,-0.003654,82.180802,0.007682,
750,1120,3.380397,-9.157612,0.999997,0.000207,-0.004537,0.010018,-0.000862,0.010069,-0.004588,-86.620906,0.010082,
1060,1370,0.583841,-5.091344,0.999995,0.000263,-0.005392,0.009109,0.002934,0.009681,-0.005963,78.984536,0.009767,
1210,1350,0.042209,-4.428874,0.999998,0.000187,-0.002097,0.004293,0.000911,0.004420,-0.002224,82.047139,0.004420,
920,2000,0.088777,-0.237021,0.999998,0.000152,-0.000299,0.006727,-0.001125,0.006903,-0.000475,-81.118154,0.007711,
680,100,0.626618,-19.437686,0.999995,0.000263,-0.002816,0.009389,0.002811,0.010006,-0.003432,77.632695,0.010169,
1240,1630,-0.021456,-2.701132,0.999997,0.000199,-0.002414,0.007056,-0.000129,0.007058,-0.002416,-89.219542,0.007174,
1650,1400,-2.032321,-5.985125,0.999996,0.000233,-0.005958,0.010969,-0.000035,0.010969,-0.005958,-89.880798,0.010982,
970,630,1.027467,-15.088205,0.999995,0.000271,-0.005760,0.010160,-0.001690,0.010337,-0.005938,-84.006149,0.010375,
1710,570,-2.120425,-14.898124,0.999995,0.000268,-0.005440,0.010469,0.000116,0.010470,-0.005441,89.583257,0.010473,
1060,520,0.506355,-16.479746,0.999996,0.000218,-0.003632,0.008180,-0.001288,0.008319,-0.003771,-83.848816,0.008331,
570,1310,3.647553,-7.604039,0.999768,0.001825,-0.005667,0.009452,0.000367,0.009461,-0.005676,88.608676,0.009523,
720,1800,1.320367,-2.155440,0.999996,0.000261,-0.004496,0.009960,-0.000697,0.009993,-0.004529,-87.245202,0.010008,
1410,1020,-2.126113,-10.261953,0.999938,0.000980,-0.010320,0.025613,0.000896,0.025635,-0.010342,88.572726,0.025794,
1400,1690,-0.389183,-2.424505,0.999996,0.000255,-0.002790,0.007860,-0.000370,0.007872,-0.002803,-88.011358,0.007980,
620,850,3.754351,-11.691133,0.999996,0.000228,-0.004665,0.009484,0.000646,0.009514,-0.004694,87.390080,0.009514,
1170,1440,0.153644,-4.036155,0.999998,0.000185,-0.002816,0.006226,0.001381,0.006433,-0.003023,81.506632,0.006436,
840,1220,2.563640,-7.972067,0.999994,0.000273,-0.005953,0.011556,-0.001221,0.011641,-0.006038,-86.029122,0.011643,
1460,670,-0.893515,-14.855805,0.999993,0.000309,-0.005990,0.010291,0.002185,0.010580,-0.006278,82.486796,0.010641,
1790,1280,-3.244248,-7.629513,0.999995,0.000270,-0.005110,0.010117,0.000806,0.010159,-0.005153,86.979571,0.010160,
970,1290,1.352339,-6.591730,0.999993,0.000342,-0.007443,0.012317,0.001160,0.012385,-0.007511,86.650596,0.012478,
1160,380,0.158623,-17.747942,0.999998,0.000176,-0.002272,0.007209,-0.000204,0.007214,-0.002276,-88.768335,0.007376,
1260,350,-0.060059,-17.980821,0.999998,0.000170,-0.002101,0.007036,0.000170,0.007039,-0.002104,88.934961,0.007226,
1150,1560,0.211213,-3.260320,0.999997,0.000204,-0.002879,0.007171,0.000844,0.007241,-0.002949,85.231566,0.007282,
1640,1630,-1.391875,-3.554318,0.999995,0.000250,-0.004684,0.009880,-0.000279,0.009886,-0.004689,-88.901067,0.009890,
1630,970,-3.100254,-10.679611,0.999996,0.000222,-0.004191,0.010561,-0.000926,0.010618,-0.004249,-86.421866,0.010689,
1210,650,0.047686,-15.994067,0.999998,0.000162,-0.002273,0.005297,-0.000622,0.005348,-0.002324,-85.335047,0.005363,
1030,160,0.205305,-19.229657,0.999997,0.000197,-0.001310,0.007042,0.000531,0.007076,-0.001344,86.379376,0.007516,
670,560,2.531527,-14.740535,0.999996,0.000240,-0.005202,0.010265,-0.000028,0.010265,-0.005202,-89.898043,0.010266,
980,410,0.705244,-17.185414,0.999996,0.000260,-0.003764,0.008695,-0.000648,0.008728,-0.003797,-87.031448,0.008753,
960,290,0.577575,-18.163451,0.999997,0.000211,-0.003032,0.008246,0.000122,0.008247,-0.003034,89.378222,0.008343,
1010,990,2.413904,-10.707320,0.999989,0.000388,-0.005647,0.016146,-0.000447,0.016156,-0.005656,-88.825777,0.016396,
1280,1690,-0.105276,-2.295654,0.999997,0.000200,-0.002132,0.007114,-0.000139,0.007116,-0.002134,-89.140634,0.007304,
970,570,0.944670,-15.689775,0.999997,0.000217,-0.005003,0.009690,-0.001421,0.009826,-0.005139,-84.524617,0.009829,
670,1870,1.216363,-1.599613,0.999994,0.000283,-0.004219,0.010148,-0.001495,0.010302,-0.004373,-84.120955,0.010341,
940,1110,2.542640,-9.075688,0.999993,0.000324,-0.004868,0.012439,-0.001314,0.012538,-0.004967,-85.682999,0.012628,
1340,2010,-0.018053,-0.154921,0.999998,0.000159,-0.000249,0.006100,0.000229,0.006109,-0.000257,87.937559,0.006910,
1400,1390,-0.554855,-4.890635,0.999995,0.000238,-0.005003,0.008763,-0.002692,0.009271,-0.005511,-79.319145,0.009326,
1010,1710,0.525559,-2.363851,0.999997,0.000209,-0.002790,0.008063,0.000220,0.008067,-0.002795,88.840073,0.008193,
1480,1090,-2.438762,-9.208888,0.999995,0.000261,-0.004980,0.013783,0.000665,0.013807,-0.005004,87.973872,0.013980,
680,80,0.493339,-19.614866,0.999995,0.000260,-0.002070,0.009475,0.003514,0.010460,-0.003055,74.335270,0.010757,
1210,1330,0.041224,-4.507585,0.999998,0.000172,-0.002065,0.003834,0.001008,0.004002,-0.002233,80.571074,0.004010,
1630,590,-1.732224,-14.948476,0.999994,0.000269,-0.005700,0.010627,0.000441,0.010639,-0.005712,88.453219,0.010649,
1100,1490,0.376808,-3.903184,0.999996,0.000214,-0.003624,0.007596,0.001684,0.007843,-0.003872,81.643794,0.007843,
1080,1370,0.482022,-4.957812,0.999995,0.000239,-0.004930,0.008478,0.003038,0.009135,-0.005587,77.811500,0.009210,
910,2000,0.091598,-0.238228,0.999999,0.000150,-0.000350,0.006771,-0.001189,0.006964,-0.000543,-80.763081,0.007747,
800,1460,1.931732,-5.374472,0.999997,0.000197,-0.005612,0.010670,0.000223,0.010673,-0.005615,89.217143,0.010678,
970,990,2.603861,-10.578585,0.999994,0.000270,-0.004242,0.013372,0.000579,0.013391,-0.004261,88.119385,0.013683,
1450,1400,-0.815388,-5.091643,0.999996,0.000253,-0.005652,0.009874,-0.002254,0.010195,-0.005972,-81.905710,0.010245,
1010,1390,0.845492,-5.210329,0.999995,0.000287,-0.005843,0.010096,0.002240,0.010404,-0.006152,82.151794,0.010462,
1520,2010,-0.060772,-0.169218,0.999999,0.000177,-0.000370,0.006486,0.000926,0.006609,-0.000493,82.439021,0.007363,
1020,1070,2.336567,-9.320278,0.999992,0.000397,-0.006375,0.016991,0.001058,0.017039,-0.006423,87.411847,0.017210,
1090,1500,0.410565,-3.864132,0.999997,0.000196,-0.003612,0.007754,0.001606,0.007977,-0.003835,82.110694,0.007979,
1040,1370,0.696735,-5.223103,0.999994,0.000283,-0.005708,0.009699,0.002718,0.010164,-0.006174,80.282618,0.010242,
600,1430,3.093299,-6.301060,0.999995,0.000269,-0.005043,0.010179,-0.000110,0.010180,-0.005043,-89.587056,0.010180,
1810,1660,-2.134201,-3.785726,0.999997,0.000199,-0.004937,0.010105,-0.000112,0.010106,-0.004938,-89.572214,0.010107,
1710,550,-2.060882,-15.105564,0.999996,0.000264,-0.005379,0.010364,0.000188,0.010366,-0.005381,89.316761,0.010368,
680,400,2.014072,-16.410857,0.999997,0.000211,-0.004958,0.010120,-0.000129,0.010121,-0.004959,-89.511483,0.010122,
1710,630,-2.300563,-14.259759,0.999995,0.000275,-0.005621,0.010661,-0.000109,0.010662,-0.005622,-89.614859,0.010667,
1050,160,0.178506,-19.241533,0.999998,0.000163,-0.001323,0.006926,0.000414,0.006947,-0.001343,87.133577,0.007369,
1380,1140,-1.516111,-7.146382,0.999995,0.000288,-0.003611,0.011364,-0.006909,0.014065,-0.006312,-68.649727,0.014089,
1140,780,0.269640,-14.991808,0.999994,0.000294,-0.004409,0.005943,-0.004148,0.007400,-0.005866,-70.646722,0.007811,
1060,320,0.354783,-18.079933,0.999997,0.000205,-0.002507,0.007645,-0.000165,0.007647,-0.002510,-89.071208,0.007796,
1500,610,-1.035222,-15.260051,0.999997,0.000196,-0.005581,0.010143,0.001540,0.010292,-0.005731,84.459172,0.010314,
1150,1440,0.211425,-4.094431,0.999998,0.000170,-0.002965,0.006557,0.001564,0.006807,-0.003215,80.905138,0.006811,
840,1200,2.649859,-8.198776,0.999994,0.000293,-0.005762,0.011420,-0.001322,0.011521,-0.005863,-85.625492,0.011521,
1380,1750,-0.291106,-1.941876,0.999997,0.000213,-0.002021,0.007408,-0.000026,0.007408,-0.002021,-89.844213,0.007658,
1630,1410,-1.884903,-5.807321,0.999995,0.000256,-0.005993,0.011006,-0.000244,0.011009,-0.005996,-89.177820,0.011024,
980,1050,2.599340,-9.775194,0.999992,0.000388,-0.004276,0.014049,-0.000264,0.014052,-0.004279,-89.175727,0.014406,
1550,1520,-1.179869,-4.347471,0.999996,0.000242,-0.005151,0.009973,-0.000978,0.010036,-0.005214,-86.315936,0.010038,
1210,630,0.048807,-16.103982,0.999998,0.000160,-0.002348,0.005622,-0.000555,0.005661,-0.002386,-86.032108,0.005684,
1850,120,-1.034629,-19.026225,0.999996,0.000231,-0.004792,0.010679,-0.001498,0.010822,-0.004936,-84.521440,0.010836,
970,550,0.919494,-15.881885,0.999997,0.000219,-0.004866,0.009521,-0.001350,0.009647,-0.004991,-84.687235,0.009649,
880,1310,1.918922,-6.781926,0.999996,0.000245,-0.006699,0.011865,-0.000099,0.011865,-0.006700,-89.695508,0.011898,
970,1270,1.436412,-6.844935,0.999993,0.000327,-0.007604,0.012585,0.000983,0.012633,-0.007652,87.217935,0.012727,
640,2000,0.333628,-0.327396,0.999990,0.000390,-0.002931,0.009354,-0.003213,0.010143,-0.003720,-76.193779,0.010263,
920,1630,0.960394,-3.267358,0.999998,0.000166,-0.004227,0.009267,0.000582,0.009292,-0.004252,87.535947,0.009303,
850,1540,1.461929,-4.366790,0.999994,0.000289,-0.005149,0.010158,0.000575,0.010180,-0.005170,87.850004,0.010180,
790,180,0.742251,-18.862860,0.999998,0.000187,-0.003311,0.008910,0.001372,0.009062,-0.003464,83.671464,0.009146,
860,1690,1.089480,-2.873425,0.999997,0.000167,-0.004075,0.009261,0.000059,0.009262,-0.004076,89.746767,0.009284,
1060,500,0.498397,-16.642025,0.999995,0.000247,-0.003515,0.008131,-0.001152,0.008244,-0.003628,-84.406410,0.008264,
980,610,0.940448,-15.341636,0.999998,0.000207,-0.005383,0.009924,-0.001673,0.010104,-0.005564,-83.834182,0.010122,
720,1780,1.404361,-2.356750,0.999995,0.000259,-0.004574,0.009990,-0.000512,0.010008,-0.004592,-87.987794,0.010019,
1010,970,2.324784,-11.005514,0.999989,0.000397,-0.005723,0.015518,-0.000570,0.015533,-0.005738,-88.463541,0.015708,
1750,1700,-1.716080,-3.185158,0.999995,0.000268,-0.004847,0.010045,0.000013,0.010045,-0.004847,89.949326,0.010047,
1020,290,0.423626,-18.250766,0.999997,0.000222,-0.002432,0.007815,0.000061,0.007816,-0.002433,89.656163,0.007999,
1550,1480,-1.251490,-4.753084,0.999997,0.000202,-0.005405,0.010248,-0.001010,0.010312,-0.005470,-86.324973,0.010319,
1740,1610,-1.931347,-4.066887,0.999996,0.000229,-0.004982,0.010122,-0.000202,0.010125,-0.004984,-89.234388,0.010125,
600,1670,2.367119,-3.864424,0.999995,0.000248,-0.004926,0.009955,0.000103,0.009956,-0.004927,89.603042,0.009956,
780,1110,3.266223,-9.243591,0.999995,0.000286,-0.004492,0.010226,-0.000938,0.010286,-0.004552,-86.369585,0.010308,
1010,1690,0.547553,-2.524647,0.999997,0.000212,-0.002942,0.008206,0.000318,0.008216,-0.002951,88.365086,0.008323,
1210,1310,0.042999,-4.574677,0.999998,0.000181,-0.002108,0.003379,0.001138,0.003605,-0.002335,78.734621,0.003658,
680,60,0.315716,-19.816391,0.999996,0.000245,-0.001201,0.009093,0.003737,0.010306,-0.002415,72.008669,0.010781,
800,1360,2.242430,-6.469055,0.999995,0.000273,-0.006026,0.011114,-0.000276,0.011119,-0.006030,-89.076100,0.011132,
1630,570,-1.680436,-15.163472,0.999995,0.000250,-0.005540,0.010503,0.000465,0.010516,-0.005554,88.341274,0.010522,
720,1490,2.283895,-5.314913,0.999995,0.000277,-0.005337,0.010389,0.000092,0.010390,-0.005338,89.665735,0.010391,
1180,350,0.107807,-17.970860,0.999998,0.000150,-0.002060,0.007090,-0.000107,0.007092,-0.002061,-89.332094,0.007296,
1330,2010,-0.015626,-0.154278,0.999999,0.000150,-0.000247,0.006090,0.000223,0.006098,-0.000255,87.988609,0.006899,
1180,2000,0.011918,-0.213037,0.999998,0.000162,-0.000156,0.006032,-0.000131,0.006035,-0.000159,-88.792181,0.006878,
800,1370,2.209801,-6.358292,0.999995,0.000254,-0.006010,0.011085,-0.000187,0.011087,-0.006012,-89.371878,0.011100,
1840,1930,-1.024550,-1.135716,0.999997,0.000204,-0.004814,0.010632,0.001434,0.010764,-0.004946,84.740089,0.010776,
1310,2010,-0.011421,-0.153652,0.999998,0.000183,-0.000143,0.006042,0.000189,0.006048,-0.000149,88.255118,0.006899,
1370,1460,-0.405113,-4.161580,0.999996,0.000216,-0.003749,0.007780,-0.001916,0.008090,-0.004059,-80.807343,0.008090,
1010,1370,0.872568,-5.416921,0.999995,0.000290,-0.006154,0.010375,0.002348,0.010702,-0.006481,82.070616,0.010781,
840,1180,2.739407,-8.431114,0.999994,0.000290,-0.005486,0.011412,-0.001410,0.011529,-0.005602,-85.263569,0.011530,
1500,590,-1.005341,-15.464521,0.999995,0.000244,-0.005307,0.009964,0.001466,0.010103,-0.005446,84.565589,0.010114,
1460,1070,-2.430687,-9.410656,0.999991,0.000353,-0.005353,0.015226,-0.000133,0.015227,-0.005354,-89.629917,0.015449,
720,1500,2.255918,-5.211134,0.999996,0.000257,-0.005309,0.010345,0.000116,0.010346,-0.005309,89.576108,0.010347,
1050,1050,2.148611,-9.531277,0.999968,0.000814,-0.009706,0.024099,0.002209,0.024243,-0.009850,86.276563,0.024384,
1890,1640,-2.589679,-4.252583,0.999995,0.000281,-0.004846,0.009874,-0.000074,0.009875,-0.004847,-89.713252,0.009875,
1550,1500,-1.214458,-4.550128,0.999996,0.000236,-0.005288,0.010110,-0.001005,0.010175,-0.005353,-86.281246,0.010179,
1630,1390,-1.944052,-6.029724,0.999996,0.000224,-0.006086,0.011055,-0.000117,0.011056,-0.006087,-89.610309,0.011075,
1500,280,-0.549139,-18.251661,0.999996,0.000237,-0.002934,0.008213,-0.000153,0.008215,-0.002936,-89.211933,0.008326,
1880,700,-3.429557,-13.046979,0.999996,0.000272,-0.004929,0.009894,-0.000165,0.009896,-0.004931,-89.361788,0.009896,
1710,530,-2.008078,-15.313695,0.999995,0.000274,-0.005281,0.010354,0.000236,0.010357,-0.005285,89.134480,0.010358,
1400,1670,-0.409406,-2.583894,0.999997,0.000214,-0.002966,0.007875,-0.000538,0.007902,-0.002992,-87.164839,0.007979,
840,1540,1.514125,-4.400516,0.999995,0.000265,-0.005190,0.010198,0.000543,0.010217,-0.005209,87.983233,0.010218,
1160,120,0.044572,-19.540568,0.999998,0.000172,-0.000562,0.006395,0.000193,0.006400,-0.000568,88.412761,0.007086,
1820,1470,-2.745881,-5.761147,0.999997,0.000220,-0.005113,0.010239,0.000051,0.010240,-0.005113,89.809740,0.010240,
640,1990,0.424537,-0.422981,0.999992,0.000343,-0.003107,0.009933,-0.003205,0.010678,-0.003852,-76.913622,0.010815,
800,1440,1.988697,-5.593118,0.999996,0.000210,-0.005736,0.010750,0.000159,0.010751,-0.005738,89.447721,0.010760,
970,530,0.895132,-16.072900,0.999997,0.000227,-0.004734,0.009376,-0.001273,0.009490,-0.004848,-84.887180,0.009491,
1730,1560,-2.017385,-4.548203,0.999997,0.000197,-0.005147,0.010279,-0.000235,0.010282,-0.005150,-89.126350,0.010282,
590,1370,3.344916,-6.939233,0.999996,0.000273,-0.005101,0.010049,-0.000200,0.010052,-0.005104,-89.243794,0.010052,
970,970,2.528888,-10.837823,0.999994,0.000271,-0.004606,0.013176,0.000888,0.013220,-0.004650,87.149689,0.013412,
840,1690,1.168388,-2.920607,0.999996,0.000223,-0.004019,0.009402,-0.000059,0.009403,-0.004019,-89.746822,0.009436,
800,1110,3.178398,-9.231785,0.999996,0.000221,-0.004457,0.010374,-0.000966,0.010437,-0.004519,-86.290805,0.010468,
980,590,0.916532,-15.537187,0.999997,0.000238,-0.005123,0.009738,-0.001586,0.009905,-0.005290,-83.975042,0.009913,
720,1760,1.477594,-2.557340,0.999994,0.000292,-0.004649,0.010016,-0.000364,0.010025,-0.004658,-88.578671,0.010033,
1820,1870,-1.333188,-1.677703,0.999995,0.000245,-0.004518,0.010294,0.001124,0.010379,-0.004602,85.683670,0.010401,
1060,480,0.486205,-16.805914,0.999996,0.000251,-0.003436,0.008084,-0.001068,0.008182,-0.003534,-84.749208,0.008207,
1210,610,0.051574,-16.219014,0.999998,0.000160,-0.002414,0.005902,-0.000543,0.005938,-0.002449,-86.281453,0.005968,
780,1370,2.327582,-6.417312,0.999995,0.000262,-0.005876,0.010979,-0.000301,0.010984,-0.005881,-88.977865,0.010993,
1210,1290,0.044619,-4.636246,0.999997,0.000199,-0.002295,0.002843,0.001269,0.003140,-0.002592,76.853275,0.003354,
1320,2010,-0.011924,-0.153592,0.999998,0.000177,-0.000197,0.006071,0.000212,0.006078,-0.000204,88.060678,0.006904,
1610,1980,-0.198338,-0.394278,0.999997,0.000186,-0.000898,0.007341,0.001697,0.007677,-0.001234,78.806547,0.008245,
1890,1950,-1.104270,-1.162320,0.999995,0.000278,-0.004616,0.011345,0.002169,0.011635,-0.004906,82.398113,0.011682,
840,1760,0.986169,-2.267743,0.999997,0.000203,-0.003562,0.009236,-0.000443,0.009251,-0.003577,-88.018547,0.009330,
1010,1350,0.908449,-5.632526,0.999995,0.000283,-0.006435,0.010720,0.002360,0.011038,-0.006754,82.308150,0.011130,
1630,550,-1.632486,-15.371893,0.999995,0.000264,-0.005394,0.010384,0.000511,0.010401,-0.005410,88.147006,0.010404,
860,1310,2.050518,-6.854222,0.999996,0.000219,-0.006537,0.011698,-0.000279,0.011703,-0.006541,-89.124739,0.011730,
1010,950,2.203593,-11.315967,0.999991,0.000335,-0.005892,0.015355,-0.000470,0.015365,-0.005903,-88.734151,0.015502,
840,1160,2.822232,-8.659217,0.999995,0.000268,-0.005215,0.011172,-0.001369,0.011285,-0.005328,-85.257948,0.011291,
1630,400,-1.282343,-16.882359,0.999997,0.000175,-0.004492,0.009697,0.000208,0.009700,-0.004495,89.162233,0.009708,
1370,1440,-0.407742,-4.314976,0.999997,0.000215,-0.003900,0.007834,-0.002126,0.008207,-0.004274,-80.042031,0.008210,
970,1250,1.522816,-7.099886,0.999991,0.000373,-0.007697,0.012869,0.000710,0.012894,-0.007721,88.026406,0.012977,
720,160,0.862456,-18.943191,0.999996,0.000218,-0.003746,0.009620,0.001713,0.009836,-0.003962,82.812163,0.009898,
1010,1670,0.572075,-2.691098,0.999996,0.000237,-0.003070,0.008290,0.000376,0.008303,-0.003082,88.106453,0.008394,
800,1340,2.316702,-6.693449,0.999995,0.000300,-0.006059,0.011156,-0.000457,0.011168,-0.006071,-88.479824,0.011183,
1550,1460,-1.287020,-4.959597,0.999994,0.000286,-0.005636,0.010339,-0.000998,0.010401,-0.005698,-86.438175,0.010417,
620,1430,2.991651,-6.240104,0.999996,0.000263,-0.005064,0.010205,-0.000117,0.010206,-0.005065,-89.562128,0.010206,
1000,290,0.471302,-18.224386,0.999996,0.000228,-0.002385,0.007935,0.000155,0.007938,-0.002388,89.138221,0.008145,
1270,1420,-0.088764,-4.102000,0.999997,0.000227,-0.002488,0.005697,-0.000907,0.005796,-0.002587,-83.754096,0.005808,
1410,160,-0.172851,-19.243753,0.999998,0.000249,-0.001287,0.006906,-0.000397,0.006925,-0.001306,-87.232975,0.007359,
960,1050,2.681376,-9.797126,0.999995,0.000289,-0.003934,0.012881,-0.000462,0.012894,-0.003947,-88.427730,0.013213,
680,380,1.955658,-16.614484,0.999998,0.000176,-0.004889,0.010105,-0.000050,0.010106,-0.004889,-89.810502,0.010107,
670,1990,0.370229,-0.393639,0.999996,0.000262,-0.001234,0.009456,-0.003965,0.010767,-0.002545,-71.715098,0.011255,
980,1690,0.639102,-2.582886,0.999997,0.000235,-0.003343,0.008449,0.000396,0.008462,-0.003356,88.080139,0.008522,
990,1500,0.827893,-4.242185,0.999995,0.000258,-0.004776,0.009330,0.001507,0.009490,-0.004935,83.969921,0.009492,
1270,2010,-0.008445,-0.153651,0.999999,0.000135,-0.000135,0.005975,0.000059,0.005975,-0.000135,89.442776,0.006823,
1500,260,-0.510293,-18.417513,0.999997,0.000219,-0.002769,0.008045,-0.000255,0.008051,-0.002775,-88.650998,0.008180,
840,1560,1.467135,-4.196216,0.999995,0.000276,-0.005012,0.010051,0.000491,0.010067,-0.005028,88.134033,0.010067,
1390,1400,-0.503775,-4.748220,0.999996,0.000236,-0.004714,0.008450,-0.002649,0.008963,-0.005227,-79.037236,0.009004,
1460,1050,-2.496749,-9.731139,0.999986,0.000459,-0.005185,0.016051,-0.000106,0.016051,-0.005185,-89.714899,0.016383,
1440,1730,-0.461523,-2.179946,0.999996,0.000211,-0.002714,0.007988,-0.000142,0.007990,-0.002716,-89.241378,0.008125,
970,950,2.421229,-11.106375,0.999993,0.000285,-0.005132,0.013457,0.001040,0.013515,-0.005190,86.807452,0.013636,
720,1740,1.551825,-2.759818,0.999996,0.000250,-0.004723,0.009981,-0.000206,0.009984,-0.004726,-89.198836,0.009989,
1160,140,0.053510,-19.412459,0.999998,0.000151,-0.000696,0.006450,0.000173,0.006454,-0.000700,88.610924,0.007083,
830,1440,1.815246,-5.490110,0.999996,0.000254,-0.005808,0.010747,0.000354,0.010754,-0.005816,88.776948,0.010766,
1210,590,0.051779,-16.339792,0.999998,0.000156,-0.002447,0.006119,-0.000500,0.006148,-0.002476,-86.667649,0.006187,
970,510,0.867082,-16.262343,0.999996,0.000247,-0.004525,0.009269,-0.001149,0.009364,-0.004620,-85.272073,0.009364,
1060,460,0.476091,-16.967626,0.999996,0.000238,-0.003388,0.008020,-0.000966,0.008101,-0.003469,-85.196010,0.008129,
1790,60,-0.325535,-19.813408,0.999997,0.000259,-0.001104,0.009126,-0.003840,0.010407,-0.002385,-71.551615,0.010904,
1720,1510,-2.102468,-5.033688,0.999995,0.000267,-0.005313,0.010381,-0.000163,0.010383,-0.005315,-89.404698,0.010384,
980,1430,0.961585,-4.967571,0.999996,0.000231,-0.005631,0.010019,0.001752,0.010213,-0.005825,83.689099,0.010247,
1730,1580,-1.963092,-4.342204,0.999997,0.000195,-0.005109,0.010210,-0.000251,0.010214,-0.005113,-89.063110,0.010214,
1470,1340,-1.038671,-5.851430,0.999994,0.000319,-0.006755,0.011144,-0.002049,0.011376,-0.006987,-83.551782,0.011474,
1880,1950,-1.057598,-1.116279,0.999996,0.000241,-0.004610,0.011093,0.002105,0.011370,-0.004888,82.494390,0.011407,
1210,1270,0.052207,-4.682010,0.999996,0.000230,-0.002631,0.002422,0.001286,0.002731,-0.002939,76.509522,0.003280,
1370,1150,-1.386745,-6.811775,0.999990,0.000361,-0.003204,0.009418,-0.006193,0.011949,-0.005735,-67.771319,0.011953,
840,1740,1.038012,-2.447786,0.999997,0.000200,-0.003722,0.009258,-0.000212,0.009262,-0.003726,-89.064236,0.009321,
650,1120,3.833400,-9.223896,0.999996,0.000247,-0.004506,0.009371,-0.000666,0.009403,-0.004538,-87.257374,0.009405,
800,1950,0.376845,-0.645263,0.999996,0.000224,-0.001869,0.008117,-0.001900,0.008466,-0.002218,-79.583840,0.008780,
1240,2010,-0.002115,-0.152408,0.999998,0.000143,-0.000191,0.006000,-0.000021,0.006000,-0.000191,-89.804188,0.006821,
790,220,0.908013,-18.494852,0.999997,0.000185,-0.003756,0.009229,0.000974,0.009301,-0.003829,85.734777,0.009350,
1630,530,-1.586746,-15.580230,0.999995,0.000247,-0.005308,0.010308,0.000527,0.010326,-0.005326,88.071133,0.010328,
1090,1540,0.397766,-3.547053,0.999996,0.000219,-0.003470,0.007828,0.001365,0.007991,-0.003633,83.209512,0.008002,
1010,1330,0.943941,-5.850076,0.999995,0.000283,-0.006779,0.011080,0.002367,0.011389,-0.007087,82.575619,0.011502,
1010,1650,0.592930,-2.856591,0.999996,0.000242,-0.003254,0.008302,0.000528,0.008326,-0.003278,87.391005,0.008389,
930,1500,1.124399,-4.481562,0.999995,0.000274,-0.005208,0.010015,0.001122,0.010097,-0.005290,85.808093,0.010101,
800,1320,2.390889,-6.917624,0.999994,0.000316,-0.006064,0.011179,-0.000576,0.011198,-0.006084,-88.089830,0.011212,
1090,160,0.134415,-19.258490,0.999998,0.000170,-0.000942,0.006793,0.000377,0.006812,-0.000960,87.213802,0.007374,
840,1140,2.900095,-8.881147,0.999996,0.000248,-0.004901,0.011004,-0.001403,0.011127,-0.005024,-84.996795,0.011144,
650,1820,1.560227,-2.169250,0.999996,0.000244,-0.004660,0.010150,-0.000702,0.010184,-0.004693,-87.292881,0.010194,
720,320,1.566667,-17.348747,0.999996,0.000244,-0.004756,0.010007,0.000124,0.010008,-0.004757,89.520213,0.010012,
580,1370,3.393646,-6.971810,0.999994,0.000290,-0.005593,0.010180,-0.000312,0.010186,-0.005599,-88.868757,0.010203,
920,370,0.860050,-17.391354,0.999997,0.000200,-0.003500,0.008884,-0.000113,0.008885,-0.003501,-89.476330,0.008951,
1330,1480,-0.265767,-3.869293,0.999997,0.000214,-0.003086,0.007099,-0.001372,0.007281,-0.003267,-82.461712,0.007294,
1510,1020,-2.726062,-10.169782,0.999997,0.000215,-0.003709,0.012222,-0.000137,0.012223,-0.003710,-89.506045,0.012533,
720,540,2.210089,-15.105381,0.999996,0.000220,-0.005284,0.010340,-0.000149,0.010342,-0.005285,-89.452889,0.010343,
1630,1370,-2.007660,-6.253242,0.999997,0.000226,-0.006184,0.011230,0.000005,0.011230,-0.006184,89.983739,0.011249,
1710,710,-2.575518,-13.395618,0.999996,0.000262,-0.005721,0.010839,-0.000546,0.010857,-0.005739,-88.112361,0.010863,
680,360,1.890273,-16.815982,0.999997,0.000177,-0.004846,0.010060,0.000022,0.010060,-0.004846,89.916716,0.010063,
840,1580,1.425021,-3.997858,0.999996,0.000249,-0.004853,0.009919,0.000471,0.009934,-0.004868,88.177392,0.009935,
1470,1320,-1.089116,-6.079547,0.999993,0.000317,-0.007078,0.011535,-0.001957,0.011738,-0.007282,-84.062805,0.011851,
1060,440,0.462849,-17.126679,0.999996,0.000223,-0.003320,0.008007,-0.000869,0.008073,-0.003387,-85.638131,0.008108,
1290,1760,-0.106597,-1.798817,0.999999,0.000136,-0.001726,0.007048,0.000017,0.007048,-0.001726,89.891075,0.007348,
1210,570,0.053389,-16.465579,0.999998,0.000174,-0.002488,0.006320,-0.000455,0.006344,-0.002511,-87.051307,0.006390,
1470,1080,-2.438929,-9.308825,0.999989,0.000373,-0.005099,0.014256,0.000285,0.014260,-0.005103,89.155918,0.014451,
1870,1950,-1.010290,-1.068713,0.999996,0.000209,-0.004641,0.010883,0.002006,0.011138,-0.004896,82.755844,0.011165,
970,490,0.841827,-16.448346,0.999996,0.000240,-0.004273,0.009162,-0.001013,0.009238,-0.004349,-85.714336,0.009244,
840,1720,1.090277,-2.636204,0.999997,0.000192,-0.003843,0.009468,-0.000170,0.009470,-0.003845,-89.268454,0.009526,
720,1720,1.617824,-2.960653,0.999996,0.000232,-0.004807,0.009996,-0.000063,0.009996,-0.004807,-89.757498,0.009999,
1790,50,-0.254718,-19.898732,0.999997,0.000253,-0.000715,0.008610,-0.003768,0.009942,-0.002047,-70.529672,0.010499,
1700,1510,-1.997140,-4.968367,0.999996,0.000224,-0.005339,0.010368,-0.000226,0.010371,-0.005342,-89.174792,0.010373,
1750,1620,-1.952208,-3.998553,0.999996,0.000236,-0.004964,0.010121,-0.000166,0.010123,-0.004966,-89.368393,0.010123,
800,1660,1.423133,-3.325322,0.999995,0.000288,-0.004665,0.009866,0.000138,0.009868,-0.004667,89.456876,0.009872,
1730,1280,-2.930533,-7.510942,0.999996,0.000309,-0.005441,0.010674,0.000918,0.010726,-0.005493,86.750929,0.010727,
1010,930,2.061558,-11.616313,0.999993,0.000288,-0.006281,0.014628,-0.000394,0.014635,-0.006288,-88.921116,0.014683,
830,1420,1.872867,-5.706710,0.999995,0.000274,-0.005932,0.010922,0.000252,0.010926,-0.005936,89.143531,0.010940,
720,140,0.746327,-19.136398,0.999997,0.000210,-0.003502,0.009306,0.001999,0.009610,-0.003806,81.333587,0.009679,
1230,2010,-0.000386,-0.151675,0.999998,0.000142,-0.000222,0.005996,-0.000023,0.005996,-0.000222,-89.786203,0.006799,
960,1430,1.077610,-5.069138,0.999996,0.000232,-0.005761,0.010246,0.001518,0.010389,-0.005903,84.631251,0.010421,
970,1230,1.627969,-7.359242,0.999993,0.000340,-0.007691,0.013184,0.000350,0.013190,-0.007697,89.039242,0.013251,
970,930,2.302556,-11.376044,0.999996,0.000252,-0.005645,0.013458,0.000997,0.013510,-0.005697,87.019316,0.013565,
1010,1630,0.611731,-3.019048,0.999997,0.000214,-0.003463,0.008406,0.000690,0.008446,-0.003503,86.682537,0.008487,
1210,1250,0.070607,-4.727718,0.999995,0.000269,-0.003384,0.002184,0.001158,0.002415,-0.003615,78.705805,0.003682,
1110,2010,0.020601,-0.156064,0.999998,0.000177,-0.000170,0.006013,-0.000254,0.006023,-0.000180,-87.652206,0.006854,
940,1430,1.190600,-5.157881,0.999996,0.000258,-0.005800,0.010439,0.001247,0.010534,-0.005895,85.633711,0.010559,
800,1300,2.464668,-7.143604,0.999995,0.000283,-0.006045,0.011241,-0.000734,0.011272,-0.006077,-87.573257,0.011284,
1880,1470,-3.053009,-5.946907,0.999996,0.000214,-0.005010,0.010159,0.000025,0.010159,-0.005010,89.904163,0.010159,
1290,160,-0.053146,-19.282034,0.999998,0.000149,-0.000803,0.006550,-0.000148,0.006553,-0.000806,-88.847935,0.007147,
1010,1310,0.997171,-6.078806,0.999995,0.000299,-0.007102,0.011418,0.002332,0.011707,-0.007391,82.932123,0.011841,
1880,1530,-2.869736,-5.332852,0.999997,0.000183,-0.005046,0.010161,-0.000037,0.010161,-0.005046,-89.859043,0.010161,
1190,1440,0.099814,-3.991897,0.999998,0.000183,-0.002559,0.005962,0.000857,0.006048,-0.002645,84.314422,0.006063,
1250,1500,-0.047555,-3.595293,0.999998,0.000171,-0.002523,0.006471,-0.000401,0.006489,-0.002541,-87.451746,0.006539,
840,1120,2.976675,-9.101707,0.999997,0.000219,-0.004589,0.010822,-0.001211,0.010917,-0.004683,-85.533245,0.010953,
590,1120,4.098243,-9.288378,0.999997,0.000212,-0.004193,0.008766,-0.000336,0.008775,-0.004202,-88.517252,0.008777,
1430,2010,-0.036746,-0.160590,0.999999,0.000157,-0.000295,0.006231,0.000498,0.006269,-0.000332,85.663072,0.007055,
720,520,2.151410,-15.312698,0.999996,0.000228,-0.005230,0.010343,-0.000205,0.010345,-0.005233,-89.246852,0.010345,
1710,730,-2.649796,-13.177618,0.999996,0.000253,-0.005714,0.010811,-0.000673,0.010839,-0.005741,-87.672642,0.010845,
1630,510,-1.537978,-15.785324,0.999995,0.000274,-0.005206,0.010220,0.000503,0.010236,-0.005222,88.133163,0.010237,
720,340,1.634835,-17.147282,0.999996,0.000248,-0.004823,0.009998,0.000050,0.009999,-0.004823,89.807883,0.010001,
1710,970,-3.443620,-10.650546,0.999996,0.000245,-0.004343,0.009957,-0.000603,0.009982,-0.004368,-87.588434,0.010008,
1410,1560,-0.519093,-3.495868,0.999995,0.000261,-0.003511,0.008205,-0.001091,0.008306,-0.003612,-84.727483,0.008329,
1450,1340,-0.907113,-5.718679,0.999997,0.000241,-0.006556,0.010787,-0.002430,0.011121,-0.006890,-82.172544,0.011227,
1210,550,0.054257,-16.594454,0.999998,0.000178,-0.002530,0.006503,-0.000415,0.006522,-0.002549,-87.372437,0.006573,
1060,660,0.565554,-15.296448,0.999995,0.000257,-0.005000,0.008882,-0.002658,0.009374,-0.005491,-79.521338,0.009420,
850,90,0.258322,-19.654756,0.999997,0.000218,-0.001084,0.007444,0.001602,0.007736,-0.001375,79.702396,0.008254,
1400,290,-0.315809,-18.312664,0.999997,0.000210,-0.002215,0.007560,0.000032,0.007561,-0.002215,89.809678,0.007774,
1100,1370,0.388432,-4.826581,0.999996,0.000240,-0.004483,0.007756,0.003087,0.008490,-0.005218,76.616604,0.008564,
970,470,0.820854,-16.627562,0.999997,0.000219,-0.004051,0.008995,-0.000850,0.009050,-0.004106,-86.289678,0.009063,
840,1700,1.141653,-2.825584,0.999997,0.000196,-0.003932,0.009413,-0.000129,0.009415,-0.003933,-89.445234,0.009457,
640,2010,0.242844,-0.241301,0.999993,0.000322,-0.002720,0.008948,-0.003269,0.009801,-0.003573,-75.367345,0.009920,
860,1750,0.939824,-2.312496,0.999997,0.000217,-0.003717,0.009044,-0.000214,0.009048,-0.003721,-89.041527,0.009095,
1570,1020,-2.937962,-10.163639,0.999996,0.000243,-0.003598,0.010963,-0.000203,0.010966,-0.003601,-89.202967,0.011179,
1350,860,-0.820902,-14.080180,0.999982,0.000537,-0.004316,0.006845,0.004047,0.008158,-0.005629,72.025429,0.008352,
1750,1640,-1.896159,-3.795436,0.999998,0.000190,-0.004926,0.010111,-0.000153,0.010113,-0.004927,-89.416901,0.010114,
1060,1310,0.657116,-5.667015,0.999997,0.000225,-0.006389,0.009999,0.003448,0.010695,-0.007085,78.588773,0.010881,
680,340,1.825771,-17.018370,0.999997,0.000206,-0.004825,0.010014,-0.000001,0.010014,-0.004825,-89.997464,0.010017,
670,1860,1.269036,-1.701997,0.999994,0.000270,-0.004336,0.010185,-0.001326,0.010305,-0.004456,-84.826323,0.010336,
1220,2010,0.001813,-0.151707,0.999998,0.000155,-0.000257,0.005994,-0.000018,0.005994,-0.000257,-89.832269,0.006777,
720,120,0.624153,-19.316971,0.999996,0.000236,-0.003158,0.009195,0.002288,0.009606,-0.003568,79.836430,0.009711,
970,1210,1.743938,-7.627405,0.999993,0.000339,-0.007531,0.013405,0.000022,0.013405,-0.007531,89.939972,0.013439,
1060,300,0.331844,-18.231589,0.999996,0.000244,-0.002349,0.007561,-0.000111,0.007562,-0.002350,-89.360118,0.007740,
1890,1460,-3.132394,-6.079145,0.999996,0.000230,-0.004967,0.010153,0.000051,0.010154,-0.004967,89.806999,0.010154,
690,1880,1.074858,-1.447282,0.999996,0.000281,-0.004266,0.009942,-0.001497,0.010098,-0.004422,-84.049617,0.010124,
970,910,2.169398,-11.647493,0.999995,0.000277,-0.006226,0.013520,0.000884,0.013559,-0.006265,87.442898,0.013572,
1010,1610,0.633164,-3.192169,0.999996,0.000222,-0.003692,0.008533,0.000860,0.008593,-0.003752,85.994310,0.008616,
720,1700,1.684130,-3.162617,0.999996,0.000234,-0.004870,0.010030,-0.000021,0.010030,-0.004870,-89.918324,0.010031,
1010,1290,1.053549,-6.308698,0.999995,0.000282,-0.007390,0.011865,0.002185,0.012110,-0.007634,83.607522,0.012246,
800,1280,2.546182,-7.369443,0.999995,0.000277,-0.006002,0.011212,-0.000877,0.011257,-0.006046,-87.090955,0.011267,
1790,40,-0.178465,-19.981933,0.999998,0.000184,-0.000295,0.008353,-0.003785,0.009776,-0.001718,-69.400626,0.010439,
800,1420,2.048990,-5.806865,0.999996,0.000207,-0.005826,0.010795,0.000065,0.010795,-0.005826,89.774490,0.010807,
1870,1470,-3.003165,-5.916059,0.999996,0.000218,-0.005061,0.010152,0.000023,0.010152,-0.005061,89.912448,0.010152,
890,2010,0.072308,-0.172823,0.999998,0.000160,-0.000477,0.006775,-0.001286,0.006997,-0.000699,-80.239545,0.007707,
1870,1530,-2.819671,-5.301914,0.999997,0.000195,-0.005049,0.010178,-0.000045,0.010178,-0.005049,-89.831759,0.010178,
840,1100,3.028268,-9.314607,0.999997,0.000210,-0.004321,0.010687,-0.001021,0.010756,-0.004390,-86.125159,0.010817,
1230,1500,0.003586,-3.583678,0.999997,0.000206,-0.002485,0.006428,0.000048,0.006428,-0.002485,89.693678,0.006483,
720,500,2.098030,-15.518643,0.999997,0.000208,-0.005159,0.010255,-0.000222,0.010258,-0.005163,-89.174044,0.010259,
1630,1350,-2.076171,-6.481569,0.999995,0.000283,-0.006243,0.011340,0.000153,0.011341,-0.006244,89.500613,0.011361,
1100,1430,0.382001,-4.361688,0.999997,0.000204,-0.003836,0.007680,0.002216,0.008091,-0.004248,79.477026,0.008095,
1350,160,-0.112498,-19.265834,0.999997,0.000188,-0.001046,0.006708,-0.000272,0.006718,-0.001055,-87.995697,0.007225,
690,1120,3.652209,-9.193793,0.999997,0.000215,-0.004532,0.009665,-0.000773,0.009707,-0.004574,-86.894418,0.009712,
1010,910,1.903684,-11.910881,0.999991,0.000353,-0.006785,0.014398,-0.000333,0.014403,-0.006790,-89.100684,0.014411,
1440,2010,-0.039734,-0.161849,0.999999,0.000144,-0.000179,0.006260,0.000565,0.006309,-0.000228,85.027040,0.007157,
1060,420,0.448351,-17.289365,0.999997,0.000210,-0.003229,0.007999,-0.000765,0.008050,-0.003281,-86.120458,0.008096,
1710,750,-2.723672,-12.961693,0.999995,0.000263,-0.005709,0.010756,-0.000804,0.010795,-0.005748,-87.212249,0.010803,
940,1410,1.230725,-5.369466,0.999997,0.000228,-0.006062,0.010714,0.001305,0.010815,-0.006163,85.576883,0.010850,
1630,1110,-3.033236,-9.213089,0.999996,0.000246,-0.004441,0.010637,0.001056,0.010711,-0.004515,86.012803,0.010755,
1210,750,0.042220,-15.569418,0.999998,0.000180,-0.002105,0.003205,-0.001155,0.003446,-0.002346,-78.247460,0.003520,
850,70,0.176526,-19.804716,0.999997,0.000190,-0.000782,0.007332,0.001711,0.007678,-0.001128,78.563860,0.008292,
1500,310,-0.605304,-18.006980,0.999997,0.000231,-0.003156,0.008332,0.000028,0.008332,-0.003156,89.861142,0.008413,
1210,1230,0.100836,-4.764574,0.999993,0.000302,-0.005001,0.002549,0.000605,0.002598,-0.005049,85.444542,0.005050,
1830,1700,-2.106785,-3.448755,0.999995,0.000266,-0.004906,0.010025,-0.000054,0.010025,-0.004906,-89.793335,0.010026,
1250,1440,-0.043442,-3.966238,0.999998,0.000138,-0.002371,0.005816,-0.000497,0.005846,-0.002401,-86.537399,0.005877,
1730,1540,-2.071680,-4.754006,0.999996,0.000224,-0.005182,0.010282,-0.000225,0.010285,-0.005185,-89.167115,0.010285,
1630,490,-1.492499,-15.990831,0.999995,0.000277,-0.005042,0.010058,0.000477,0.010073,-0.005057,88.192123,0.010073,
970,450,0.796847,-16.806654,0.999997,0.000200,-0.003905,0.008855,-0.000747,0.008898,-0.003948,-86.661469,0.008917,
1710,950,-3.400020,-10.852537,0.999997,0.000223,-0.004489,0.010056,-0.000899,0.010112,-0.004544,-86.476918,0.010129,
720,360,1.699181,-16.946336,0.999995,0.000279,-0.004862,0.010048,0.000009,0.010048,-0.004862,89.967083,0.010050,
800,1260,2.628989,-7.591790,0.999996,0.000268,-0.005923,0.011239,-0.001027,0.011300,-0.005984,-86.588313,0.011306,
1620,1700,-1.131363,-2.820789,0.999996,0.000232,-0.003902,0.009419,0.000120,0.009420,-0.003903,89.482517,0.009466,
1830,1860,-1.435443,-1.822046,0.999995,0.000260,-0.004742,0.010241,0.000732,0.010276,-0.004778,87.209748,0.010285,
1740,1410,-2.515630,-6.147975,0.999996,0.000242,-0.005528,0.010528,0.000238,0.010532,-0.005531,89.150525,0.010536,
1890,1450,-3.163979,-6.180959,0.999995,0.000279,-0.004976,0.010176,0.000066,0.010176,-0.004976,89.750835,0.010177,
1270,1500,-0.098142,-3.612301,0.999998,0.000179,-0.002529,0.006557,-0.000500,0.006585,-0.002557,-86.858144,0.006639,
680,320,1.761273,-17.220249,0.999997,0.000187,-0.004817,0.010060,0.000068,0.010060,-0.004818,89.738721,0.010063,
720,1680,1.744486,-3.364837,0.999996,0.000249,-0.004901,0.010107,0.000056,0.010107,-0.004902,89.784724,0.010109,
800,1650,1.448059,-3.424789,0.999996,0.000293,-0.004680,0.009878,0.000162,0.009880,-0.004682,89.364220,0.009885,
840,1680,1.194480,-3.018078,0.999997,0.000198,-0.004130,0.009460,0.000035,0.009460,-0.004130,89.851526,0.009485,
1010,1590,0.655416,-3.367354,0.999996,0.000231,-0.003896,0.008655,0.001026,0.008738,-0.003979,85.357122,0.008750,
1630,1320,-2.185036,-6.824800,0.999994,0.000310,-0.006332,0.011442,0.000413,0.011452,-0.006341,88.668740,0.011474,
1080,900,1.380880,-13.102548,0.999990,0.000398,-0.004354,0.010601,-0.005683,0.012516,-0.006269,-71.383024,0.012516,
1630,150,-0.505504,-19.171317,0.999996,0.000244,-0.001897,0.008284,-0.001591,0.008527,-0.002139,-81.322856,0.008873,
970,890,2.031778,-11.926340,0.999995,0.000271,-0.006724,0.013499,0.000702,0.013524,-0.006749,88.013237,0.013524,
1010,1490,0.742474,-4.249907,0.999997,0.000210,-0.004612,0.009129,0.001610,0.009316,-0.004798,83.405708,0.009317,
1860,1530,-2.768667,-5.271006,0.999996,0.000253,-0.005028,0.010183,-0.000056,0.010184,-0.005029,-89.789065,0.010184,
1620,1820,-0.786467,-1.710512,0.999996,0.000243,-0.003004,0.008879,0.000912,0.008948,-0.003074,85.637960,0.009093,
1710,770,-2.799393,-12.744079,0.999996,0.000236,-0.005649,0.010824,-0.000901,0.010873,-0.005698,-86.880172,0.010877,
720,480,2.043353,-15.725017,0.999997,0.000199,-0.005095,0.010219,-0.000238,0.010222,-0.005099,-89.111322,0.010222,
840,1520,1.560147,-4.607321,0.999994,0.000272,-0.005331,0.010341,0.000549,0.010360,-0.005350,87.997330,0.010362,
890,2000,0.100497,-0.240337,0.999998,0.000154,-0.000639,0.006872,-0.001304,0.007092,-0.000859,-80.426454,0.007741,
1060,380,0.413465,-17.611250,0.999996,0.000241,-0.002962,0.007912,-0.000516,0.007937,-0.002986,-87.288999,0.008017,
1390,160,-0.148864,-19.254186,0.999997,0.000189,-0.001008,0.006842,-0.000393,0.006861,-0.001028,-87.140422,0.007401,
1040,1310,0.788908,-5.840390,0.999994,0.000320,-0.006729,0.010699,0.003017,0.011207,-0.007237,80.450929,0.011364,
720,100,0.499129,-19.500957,0.999995,0.000253,-0.002856,0.008662,0.002295,0.009102,-0.003296,79.137470,0.009217,
1630,1090,-3.084327,-9.425712,0.999995,0.000264,-0.004201,0.010587,0.000968,0.010650,-0.004264,86.269295,0.010720,
970,1190,1.867364,-7.896327,0.999994,0.000306,-0.007271,0.013445,-0.000332,0.013450,-0.007276,-89.081054,0.013465,
1500,290,-0.568126,-18.168670,0.999996,0.000257,-0.003006,0.008221,-0.000100,0.008222,-0.003007,-89.487960,0.008320,
840,1980,0.206359,-0.395754,0.999997,0.000200,-0.000792,0.007442,-0.001831,0.007831,-0.001181,-78.009579,0.008443,
1210,830,0.114950,-15.377053,0.999992,0.000340,-0.005580,0.002766,-0.000391,0.002785,-0.005598,-87.322665,0.005598,
1690,1080,-3.364312,-9.553540,0.999993,0.000296,-0.004306,0.010088,0.000589,0.010112,-0.004330,87.661440,0.010147,
800,1380,2.177911,-6.246283,0.999995,0.000254,-0.005983,0.011037,-0.000129,0.011037,-0.005984,-89.567006,0.011051,
670,1120,3.742041,-9.208142,0.999997,0.000194,-0.004530,0.009515,-0.000737,0.009553,-0.004569,-87.006254,0.009556,
1140,760,0.247824,-15.113716,0.999996,0.000256,-0.004120,0.006009,-0.003899,0.007336,-0.005447,-71.204079,0.007618,
1400,1750,-0.330956,-1.962292,0.999997,0.000229,-0.002349,0.007545,-0.000085,0.007546,-0.002349,-89.506215,0.007723,
590,1960,0.935135,-0.974738,0.999994,0.000290,-0.004560,0.011308,-0.002407,0.011665,-0.004917,-81.561799,0.011713,
1710,510,-1.954941,-15.522553,0.999996,0.000241,-0.005215,0.010319,0.000257,0.010323,-0.005219,89.052164,0.010323,
1160,350,0.149532,-17.962658,0.999998,0.000171,-0.002085,0.007154,-0.000116,0.007155,-0.002087,-89.277867,0.007360,
1630,1330,-2.148340,-6.708121,0.999994,0.000299,-0.006302,0.011419,0.000336,0.011426,-0.006309,88.915545,0.011446,
1690,620,-2.157420,-14.429066,0.999995,0.000260,-0.005653,0.010754,0.000025,0.010754,-0.005654,89.912055,0.010759,
1150,2010,0.011460,-0.153518,0.999998,0.000166,-0.000133,0.006013,-0.000193,0.006019,-0.000139,-88.201804,0.006871,
1630,910,-2.914075,-11.330257,0.999996,0.000239,-0.004932,0.011005,-0.001364,0.011121,-0.005048,-85.144037,0.011137,
1770,1400,-2.712909,-6.338074,0.999995,0.000291,-0.005359,0.010430,0.000324,0.010436,-0.005365,88.824723,0.010438,
740,1690,1.616591,-3.201815,0.999995,0.000281,-0.004765,0.009987,-0.000061,0.009987,-0.004766,-89.762603,0.009991,
970,430,0.769978,-16.982016,0.999998,0.000192,-0.003848,0.008791,-0.000673,0.008827,-0.003884,-86.958430,0.008848,
700,1770,1.537348,-2.522077,0.999994,0.000293,-0.004819,0.010088,-0.000328,0.010095,-0.004826,-88.741877,0.010098,
1450,2010,-0.039747,-0.162014,0.999998,0.000162,-0.000119,0.006300,0.000637,0.006362,-0.000182,84.388756,0.007244,
720,1480,2.311812,-5.419442,0.999995,0.000258,-0.005372,0.010438,0.000061,0.010439,-0.005372,89.777482,0.010440,
670,1970,0.553233,-0.602954,0.999996,0.000262,-0.002043,0.009710,-0.003655,0.010753,-0.003087,-74.060826,0.011074,
800,1240,2.712329,-7.822075,0.999995,0.000265,-0.005746,0.011160,-0.001128,0.011235,-0.005821,-86.199976,0.011237,
1010,890,1.746215,-12.204365,0.999991,0.000370,-0.007301,0.014097,-0.000522,0.014110,-0.007314,-88.602504,0.014113,
720,800,3.091724,-12.361287,0.999997,0.000246,-0.005257,0.010397,0.000995,0.010460,-0.005320,86.376263,0.010460,
920,290,0.698072,-18.096327,0.999997,0.000201,-0.002893,0.008606,0.000336,0.008616,-0.002903,88.327173,0.008767,
1710,610,-2.237030,-14.472551,0.999996,0.000238,-0.005574,0.010590,-0.000006,0.010590,-0.005574,-89.980499,0.010595,
1710,930,-3.353316,-11.053609,0.999997,0.000229,-0.004617,0.010018,-0.000876,0.010070,-0.004669,-86.585799,0.010079,
1300,2010,-0.011358,-0.153445,0.999998,0.000161,-0.000081,0.006020,0.000162,0.006025,-0.000085,88.477987,0.006908,
680,300,1.691652,-17.420388,0.999997,0.000205,-0.004775,0.010100,0.000223,0.010103,-0.004778,89.139774,0.010108,
720,460,1.988756,-15.930237,0.999997,0.000221,-0.005055,0.010148,-0.000222,0.010151,-0.005058,-89.163540,0.010151,
1010,1570,0.674606,-3.543184,0.999996,0.000209,-0.004068,0.008726,0.001142,0.008827,-0.004169,84.938561,0.008831,
1830,1340,-3.232037,-7.117995,0.999995,0.000260,-0.005026,0.010054,0.000445,0.010067,-0.005040,88.312157,0.010067,
1310,1500,-0.206837,-3.680148,0.999997,0.000178,-0.002927,0.006917,-0.001154,0.007051,-0.003061,-83.401711,0.007071,
1250,1420,-0.042258,-4.080093,0.999999,0.000145,-0.002285,0.005500,-0.000514,0.005533,-0.002319,-86.237129,0.005558,
1060,360,0.391650,-17.771204,0.999996,0.000251,-0.002803,0.007832,-0.000385,0.007846,-0.002817,-87.930855,0.007949,
1710,1210,-3.086818,-8.221840,0.999996,0.000226,-0.005229,0.010608,0.001180,0.010696,-0.005317,85.763799,0.010696,
840,1660,1.238327,-3.205360,0.999997,0.000180,-0.004367,0.009647,0.000215,0.009651,-0.004371,89.120696,0.009665,
1620,1840,-0.725887,-1.539341,0.999996,0.000250,-0.002791,0.008738,0.001058,0.008834,-0.002887,84.800817,0.009009,
1810,1860,-1.343906,-1.747945,0.999995,0.000264,-0.004410,0.010247,0.001193,0.010344,-0.004506,85.377295,0.010372,
1620,1680,-1.183445,-3.010205,0.999997,0.000236,-0.004120,0.009438,-0.000029,0.009438,-0.004120,-89.879012,0.009464,
960,240,0.478281,-18.572096,0.999997,0.000216,-0.002618,0.008009,0.000392,0.008023,-0.002632,87.892865,0.008180,
660,1890,1.138031,-1.420030,0.999998,0.000209,-0.003999,0.010354,-0.001836,0.010585,-0.004230,-82.825115,0.010656,
660,1530,2.478737,-5.091042,0.999995,0.000257,-0.005170,0.010209,0.000096,0.010210,-0.005170,89.640940,0.010210,
1060,280,0.311939,-18.384392,0.999997,0.000230,-0.002196,0.007534,0.000009,0.007534,-0.002196,89.948412,0.007749,
1630,1070,-3.131799,-9.638343,0.999996,0.000251,-0.004051,0.010428,0.000637,0.010456,-0.004079,87.485059,0.010540,
1630,130,-0.429868,-19.331951,0.999997,0.000225,-0.001635,0.008034,-0.001667,0.008313,-0.001914,-80.488256,0.008707,
1120,1490,0.304697,-3.833433,0.999996,0.000243,-0.003310,0.007299,0.001472,0.007500,-0.003511,82.245332,0.007505,
760,1510,2.012239,-4.979123,0.999996,0.000264,-0.005340,0.010341,0.000216,0.010344,-0.005343,89.209279,0.010346,
1330,1560,-0.260508,-3.293914,0.999997,0.000198,-0.002911,0.007332,-0.000874,0.007406,-0.002985,-85.158114,0.007452,
720,80,0.384367,-19.663432,0.999994,0.000272,-0.002271,0.008309,0.002536,0.008886,-0.002848,77.193268,0.009075,
720,1660,1.803577,-3.569265,0.999996,0.000233,-0.004911,0.010149,0.000112,0.010150,-0.004912,89.574042,0.010151,
970,1090,2.505117,-9.255193,0.999995,0.000300,-0.004758,0.013193,-0.000931,0.013241,-0.004806,-87.039798,0.013406,
1460,2010,-0.041693,-0.162569,0.999998,0.000176,-0.000080,0.006340,0.000712,0.006418,-0.000158,83.749689,0.007322,
970,1170,1.997856,-8.166378,0.999994,0.000286,-0.006877,0.013510,-0.000650,0.013531,-0.006897,-88.174387,0.013532,
580,1960,0.980489,-1.019455,0.999995,0.000266,-0.004524,0.011646,-0.002462,0.012013,-0.004890,-81.533030,0.012082,
1450,1700,-0.526969,-2.436065,0.999996,0.000222,-0.002856,0.008076,-0.000279,0.008083,-0.002863,-88.538213,0.008197,
640,1310,3.303975,-7.402377,0.999996,0.000232,-0.005017,0.009961,-0.000545,0.009981,-0.005037,-87.918332,0.009981,
1630,930,-2.992377,-11.106373,0.999996,0.000243,-0.004628,0.010838,-0.001239,0.010937,-0.004726,-85.448547,0.010970,
1060,350,0.384102,-17.848960,0.999996,0.000271,-0.002748,0.007740,-0.000337,0.007751,-0.002759,-88.159891,0.007858,
1480,290,-0.509508,-18.204871,0.999996,0.000237,-0.002621,0.008079,-0.000157,0.008082,-0.002623,-89.159890,0.008246,
840,1960,0.283742,-0.546076,0.999997,0.000215,-0.001102,0.007570,-0.001700,0.007892,-0.001423,-79.296682,0.008412,
920,1110,2.639639,-9.116655,0.999994,0.000285,-0.004695,0.011979,-0.001392,0.012094,-0.004811,-85.261173,0.012178,
1210,810,0.081416,-15.422938,0.999995,0.000267,-0.003705,0.002258,-0.001101,0.002455,-0.003902,-79.862266,0.003945,
1120,1430,0.308631,-4.274261,0.999997,0.000233,-0.003597,0.007194,0.002173,0.007615,-0.004018,79.030465,0.007619,
1140,2010,0.013504,-0.153557,0.999998,0.000149,-0.000224,0.006009,-0.000195,0.006015,-0.000230,-88.208926,0.006816,
1630,1310,-2.223670,-6.941116,0.999994,0.000307,-0.006348,0.011469,0.000497,0.011483,-0.006362,88.402572,0.011505,
1780,1090,-3.741695,-9.487009,0.999995,0.000242,-0.004441,0.009462,0.000417,0.009474,-0.004454,88.284810,0.009480,
760,1110,3.357521,-9.252768,0.999997,0.000228,-0.004498,0.010115,-0.000897,0.010169,-0.004553,-86.500904,0.010188,
670,1950,0.690643,-0.782889,0.999996,0.000278,-0.002781,0.009753,-0.003003,0.010435,-0.003464,-77.199749,0.010630,
1710,490,-1.901261,-15.729643,0.999997,0.000218,-0.005144,0.010256,0.000271,0.010261,-0.005149,88.992703,0.010261,
800,1220,2.791560,-8.042706,0.999996,0.000264,-0.005580,0.011026,-0.001229,0.011117,-0.005671,-85.788945,0.011118,
1280,2010,-0.009560,-0.153423,0.999998,0.000168,-0.000098,0.005988,0.000092,0.005989,-0.000099,89.131551,0.006859,
1420,750,-0.778406,-14.292529,0.999995,0.000286,-0.006776,0.010740,0.003092,0.011270,-0.007306,80.276478,0.011434,
970,410,0.742059,-17.159445,0.999996,0.000253,-0.003791,0.008750,-0.000607,0.008780,-0.003820,-87.237492,0.008804,
620,1890,1.318199,-1.569183,0.999997,0.000219,-0.004894,0.010423,-0.000840,0.010469,-0.004940,-86.872234,0.010474,
660,850,3.565368,-11.759875,0.999996,0.000253,-0.004765,0.009716,0.000822,0.009763,-0.004811,86.761969,0.009763,
720,780,3.018455,-12.570215,0.999997,0.000244,-0.005324,0.010492,0.000912,0.010544,-0.005376,86.710137,0.010545,
1710,910,-3.307404,-11.256488,0.999997,0.000239,-0.004778,0.010256,-0.001055,0.010330,-0.004852,-86.004130,0.010336,
1060,340,0.374741,-17.926465,0.999997,0.000225,-0.002668,0.007689,-0.000275,0.007696,-0.002675,-88.480836,0.007814,
720,440,1.931437,-16.133606,0.999997,0.000222,-0.004971,0.010121,-0.000181,0.010123,-0.004973,-89.311337,0.010123,
720,1690,1.715070,-3.263739,0.999996,0.000256,-0.004901,0.010070,0.000022,0.010070,-0.004901,89.915117,0.010071,
920,550,1.169178,-15.689219,0.999996,0.000248,-0.005231,0.010059,-0.001029,0.010128,-0.005300,-86.167600,0.010132,
680,280,1.615481,-17.626892,0.999996,0.000233,-0.004759,0.010082,0.000381,0.010092,-0.004769,88.530719,0.010097,
1010,870,1.602541,-12.491546,0.999992,0.000350,-0.007698,0.013930,-0.000833,0.013962,-0.007730,-87.797502,0.013989,
1180,1690,0.111289,-2.297178,0.999997,0.000191,-0.002143,0.007100,0.000124,0.007101,-0.002144,89.232024,0.007284,
1090,2010,0.024444,-0.158243,0.999998,0.000147,-0.000111,0.006075,-0.000367,0.006097,-0.000133,-86.618488,0.006964,
1310,1480,-0.205813,-3.818474,0.999997,0.000220,-0.002963,0.006806,-0.001281,0.006971,-0.003129,-82.653768,0.006983,
960,220,0.431483,-18.733477,0.999997,0.000211,-0.002413,0.007800,0.000447,0.007820,-0.002433,87.501261,0.008004,
1630,110,-0.345422,-19.495302,0.999996,0.000218,-0.001304,0.007885,-0.001744,0.008205,-0.001623,-79.608599,0.008690,
1620,1860,-0.649417,-1.359442,0.999997,0.000216,-0.002575,0.008661,0.001197,0.008787,-0.002701,83.985555,0.009001,
1010,1550,0.695475,-3.719716,0.999997,0.000204,-0.004153,0.008792,0.001235,0.008909,-0.004270,84.599586,0.008911,
840,1640,1.287999,-3.401513,0.999997,0.000201,-0.004600,0.009750,0.000319,0.009757,-0.004607,88.726122,0.009763,
1790,1520,-2.441385,-5.152346,0.999995,0.000280,-0.005178,0.010281,-0.000073,0.010281,-0.005179,-89.730273,0.010281,
1710,1190,-3.157209,-8.433735,0.999997,0.000219,-0.005099,0.010417,0.001137,0.010500,-0.005182,85.831132,0.010500,
720,1460,2.371864,-5.629266,0.999995,0.000249,-0.005408,0.010466,-0.000024,0.010466,-0.005408,-89.914336,0.010468,
1860,1950,-0.962763,-1.020164,0.999997,0.000206,-0.004698,0.010732,0.001918,0.010966,-0.004933,83.019881,0.010985,
1620,1660,-1.227085,-3.198266,0.999996,0.000260,-0.004355,0.009565,-0.000197,0.009568,-0.004358,-89.189080,0.009580,
970,1150,2.138192,-8.446433,0.999993,0.000330,-0.006403,0.013540,-0.000880,0.013579,-0.006442,-87.479749,0.013585,
1300,1290,-0.169855,-4.888796,0.999997,0.000213,-0.003288,0.004631,-0.003382,0.005879,-0.004536,-69.747823,0.006161,
1460,2000,-0.054935,-0.225012,0.999997,0.000206,-0.000195,0.006406,0.000725,0.006485,-0.000274,83.806275,0.007335,
1120,290,0.205955,-18.360970,0.999997,0.000224,-0.002014,0.007241,-0.000116,0.007242,-0.002016,-89.279846,0.007476,
720,1640,1.863116,-3.772519,0.999996,0.000233,-0.004921,0.010101,0.000166,0.010103,-0.004923,89.365729,0.010104,
1630,1050,-3.149483,-9.844218,0.999997,0.000237,-0.003938,0.010342,0.000376,0.010352,-0.003948,88.493448,0.010449,
660,1870,1.259375,-1.628083,0.999994,0.000305,-0.004225,0.010239,-0.001479,0.010388,-0.004374,-84.222060,0.010431,
960,260,0.517324,-18.411234,0.999996,0.000236,-0.002811,0.008058,0.000290,0.008065,-0.002819,88.472058,0.008186,
1430,1340,-0.776856,-5.574113,0.999996,0.000256,-0.006328,0.010333,-0.002840,0.010803,-0.006799,-80.588104,0.010923,
1060,260,0.287915,-18.533764,0.999997,0.000208,-0.002055,0.007389,0.000083,0.007390,-0.002056,89.497668,0.007629,
1630,950,-3.044592,-10.894863,0.999996,0.000224,-0.004376,0.010587,-0.001041,0.010660,-0.004448,-86.039486,0.010708,
720,60,0.259685,-19.834056,0.999994,0.000296,-0.001611,0.008286,0.002872,0.009059,-0.002384,74.936200,0.009392,
1210,790,0.053755,-15.465382,0.999996,0.000235,-0.002790,0.002375,-0.001269,0.002670,-0.003085,-76.920327,0.003348,
1230,1440,0.003667,-3.952075,0.999997,0.000186,-0.002353,0.005786,0.000038,0.005786,-0.002353,89.735585,0.005819,
700,1490,2.388430,-5.377312,0.999996,0.000241,-0.005287,0.010347,0.000035,0.010347,-0.005287,89.872538,0.010348,
1330,1760,-0.179693,-1.822279,0.999997,0.000180,-0.002066,0.007150,-0.000145,0.007152,-0.002068,-89.097770,0.007361,
1840,1090,-4.001213,-9.522007,0.999997,0.000221,-0.004267,0.008849,0.000157,0.008851,-0.004269,89.314569,0.008853,
900,1110,2.735294,-9.150215,0.999994,0.000286,-0.004613,0.011587,-0.001335,0.011696,-0.004722,-85.319699,0.011768,
840,1940,0.357275,-0.702349,0.999997,0.000204,-0.001427,0.007903,-0.001694,0.008201,-0.001725,-80.019674,0.008648,
950,1560,0.940380,-3.828169,0.999995,0.000233,-0.004574,0.009388,0.001004,0.009460,-0.004646,85.909348,0.009461,
570,1960,1.026781,-1.061187,0.999992,0.000313,-0.004492,0.012008,-0.002470,0.012369,-0.004854,-81.667893,0.012464,
820,1530,1.642452,-4.572949,0.999996,0.000211,-0.005265,0.010304,0.000464,0.010318,-0.005279,88.293300,0.010319,
1710,470,-1.847796,-15.935027,0.999996,0.000227,-0.005064,0.010148,0.000268,0.010152,-0.005069,88.992496,0.010152,
1630,1290,-2.302376,-7.168183,0.999994,0.000284,-0.006350,0.011534,0.000678,0.011559,-0.006376,87.832433,0.011580,
1500,330,-0.642038,-17.832432,0.999997,0.000232,-0.003328,0.008573,0.000148,0.008575,-0.003330,89.289142,0.008646,
1400,2010,-0.025831,-0.157204,0.999998,0.000178,-0.000221,0.006199,0.000449,0.006231,-0.000252,86.016957,0.007053,
1130,2010,0.016525,-0.154782,0.999998,0.000166,-0.000250,0.006011,-0.000192,0.006017,-0.000256,-88.244693,0.006805,
660,1570,2.362510,-4.681406,0.999995,0.000266,-0.005096,0.010185,0.000159,0.010187,-0.005098,89.404524,0.010187,
820,830,2.658388,-12.208476,0.999992,0.000327,-0.005806,0.011330,0.001202,0.011414,-0.005890,86.007893,0.011416,
880,1110,2.828022,-9.175542,0.999995,0.000278,-0.004561,0.011247,-0.001272,0.011349,-0.004663,-85.429332,0.011409,
1270,800,-0.115693,-15.355824,0.999997,0.000211,-0.003265,0.002756,0.002116,0.003426,-0.003934,72.448503,0.004280,
720,1440,2.436324,-5.839687,0.999995,0.000244,-0.005425,0.010477,-0.000105,0.010478,-0.005426,-89.622377,0.010480,
840,1620,1.335485,-3.599438,0.999995,0.000245,-0.004750,0.009847,0.000383,0.009857,-0.004760,88.498868,0.009859,
1290,1500,-0.147953,-3.635974,0.999997,0.000185,-0.002750,0.006708,-0.000855,0.006784,-0.002827,-84.878749,0.006816,
1620,1880,-0.584642,-1.191479,0.999997,0.000221,-0.002292,0.008352,0.001314,0.008512,-0.002451,83.064984,0.008763,
1060,1670,0.417885,-2.589815,0.999997,0.000204,-0.003016,0.007892,0.000552,0.007920,-0.003044,87.112637,0.007991,
670,1930,0.840553,-0.994771,0.999997,0.000234,-0.003395,0.010064,-0.002647,0.010566,-0.003897,-79.266320,0.010687,
720,420,1.876687,-16.336256,0.999997,0.000226,-0.004902,0.010123,-0.000160,0.010124,-0.004904,-89.391536,0.010126,
1620,1640,-1.273257,-3.391488,0.999996,0.000262,-0.004562,0.009711,-0.000288,0.009717,-0.004567,-88.845479,0.009723,
690,1540,2.294645,-4.892523,0.999995,0.000255,-0.005177,0.010262,0.000112,0.010263,-0.005178,89.584062,0.010263,
1710,1170,-3.222387,-8.641859,0.999996,0.000234,-0.004974,0.010416,0.001186,0.010507,-0.005065,85.617811,0.010509,
660,1430,2.788195,-6.121121,0.999997,0.000223,-0.005225,0.010244,-0.000196,0.010247,-0.005228,-89.272822,0.010248,
1710,890,-3.239507,-11.465658,0.999997,0.000221,-0.004928,0.010423,-0.001206,0.010517,-0.005022,-85.536524,0.010521,
660,1550,2.420181,-4.886254,0.999995,0.000256,-0.005128,0.010193,0.000120,0.010194,-0.005129,89.552059,0.010194,
970,390,0.715060,-17.334638,0.999996,0.000237,-0.003715,0.008718,-0.000513,0.008739,-0.003737,-87.641557,0.008769,
1630,1030,-3.165964,-10.054677,0.999997,0.000230,-0.003903,0.010390,0.000036,0.010390,-0.003903,89.856517,0.010497,
720,760,2.943806,-12.782926,0.999996,0.000254,-0.005433,0.010579,0.000823,0.010621,-0.005475,87.063751,0.010623,
960,2010,0.053474,-0.166730,0.999999,0.000142,-0.000455,0.006412,-0.000831,0.006511,-0.000554,-83.196816,0.007220,
970,1130,2.267529,-8.715524,0.999994,0.000306,-0.005849,0.013446,-0.000996,0.013497,-0.005901,-87.054148,0.013533,
720,880,3.369759,-11.535610,0.999996,0.000253,-0.004907,0.010178,0.001087,0.010255,-0.004985,85.899122,0.010257,
800,1200,2.876413,-8.264057,0.999996,0.000244,-0.005388,0.011058,-0.001304,0.011161,-0.005491,-85.495469,0.011161,
640,1890,1.219845,-1.477989,0.999995,0.000290,-0.004507,0.010465,-0.001309,0.010579,-0.004621,-85.040934,0.010607,
1410,1340,-0.654114,-5.423928,0.999996,0.000216,-0.005969,0.009807,-0.003108,0.010397,-0.006559,-79.248402,0.010515,
1380,290,-0.276539,-18.328812,0.999997,0.000201,-0.001937,0.007457,-0.000049,0.007458,-0.001938,-89.699034,0.007739,
1010,1530,0.712738,-3.897240,0.999997,0.000211,-0.004251,0.008844,0.001342,0.008980,-0.004387,84.206634,0.008981,
1010,850,1.462235,-12.769651,0.999993,0.000326,-0.007883,0.013623,-0.001232,0.013694,-0.007953,-86.731412,0.013753,
680,260,1.533588,-17.825837,0.999996,0.000255,-0.004702,0.010059,0.000577,0.010081,-0.004725,87.764880,0.010088,
980,1110,2.339602,-8.945693,0.999989,0.000392,-0.005468,0.013885,-0.000844,0.013921,-0.005505,-87.506654,0.014023,
1060,240,0.264393,-18.680579,0.999997,0.000201,-0.001873,0.007328,0.000169,0.007331,-0.001876,88.949657,0.007616,
1290,2010,-0.010530,-0.153337,0.999998,0.000160,-0.000064,0.005998,0.000124,0.006000,-0.000066,88.825023,0.006890,
1000,620,0.847914,-15.337977,0.999996,0.000245,-0.005312,0.009708,-0.001884,0.009941,-0.005544,-82.957292,0.009963,
710,1990,0.313441,-0.379435,0.999995,0.000263,-0.001954,0.008611,-0.002998,0.009402,-0.002746,-75.212404,0.009669,
1630,90,-0.274793,-19.646017,0.999997,0.000202,-0.000987,0.007558,-0.001795,0.007920,-0.001349,-78.605333,0.008474,
1210,1390,0.046678,-4.243353,0.999998,0.000169,-0.002241,0.005050,0.000683,0.005114,-0.002305,84.691104,0.005122,
1460,1470,-0.794752,-4.471333,0.999996,0.000263,-0.004951,0.009395,-0.001762,0.009609,-0.005165,-83.098082,0.009618,
1310,1760,-0.139610,-1.806408,0.999998,0.000152,-0.001851,0.007103,-0.000045,0.007103,-0.001851,-89.710729,0.007370,
840,1920,0.436486,-0.862825,0.999997,0.000207,-0.001694,0.007992,-0.001561,0.008237,-0.001939,-81.067037,0.008613,
630,1960,0.746945,-0.782413,0.999997,0.000217,-0.004367,0.010492,-0.002333,0.010849,-0.004725,-81.283621,0.010879,
850,1120,2.928451,-9.091957,0.999997,0.000232,-0.004608,0.010945,-0.001282,0.011050,-0.004713,-85.319916,0.011089,
1540,1530,-1.108622,-4.207653,0.999996,0.000237,-0.004903,0.009784,-0.000957,0.009846,-0.004965,-86.288810,0.009846,
1630,1270,-2.385377,-7.403622,0.999994,0.000281,-0.006256,0.011564,0.000853,0.011605,-0.006297,87.267011,0.011619,
1420,1510,-0.585540,-3.946131,0.999996,0.000231,-0.004185,0.008520,-0.001609,0.008721,-0.004385,-82.893628,0.008721,
930,2010,0.064437,-0.169507,0.999998,0.000174,-0.000212,0.006582,-0.001017,0.006731,-0.000361,-81.666403,0.007572,
640,1570,2.462859,-4.745437,0.999996,0.000262,-0.005070,0.010179,0.000122,0.010180,-0.005071,89.540450,0.010180,
1710,450,-1.795776,-16.137792,0.999996,0.000237,-0.004971,0.010109,0.000239,0.010113,-0.004975,89.093203,0.010113,
810,1960,0.317226,-0.557150,0.999998,0.000178,-0.001464,0.007842,-0.001860,0.008200,-0.001822,-79.104355,0.008611,
720,1420,2.499246,-6.052441,0.999995,0.000244,-0.005465,0.010527,-0.000194,0.010529,-0.005467,-89.304141,0.010532,
1850,1080,-4.051770,-9.615798,0.999996,0.000232,-0.004208,0.008698,0.000091,0.008698,-0.004208,89.595671,0.008700,
1630,390,-1.258102,-16.981264,0.999997,0.000194,-0.004386,0.009650,0.000137,0.009651,-0.004387,89.439868,0.009664,
1710,1150,-3.291645,-8.852018,0.999995,0.000270,-0.004798,0.010279,0.001114,0.010361,-0.004880,85.795652,0.010367,
640,1430,2.890620,-6.178963,0.999995,0.000266,-0.005119,0.010214,-0.000169,0.010216,-0.005121,-89.368117,0.010216,
720,400,1.819190,-16.540533,0.999997,0.000247,-0.004871,0.010127,-0.000126,0.010128,-0.004873,-89.517943,0.010130,
1620,1620,-1.322840,-3.590253,0.999997,0.000248,-0.004739,0.009832,-0.000380,0.009842,-0.004749,-88.508395,0.009844,
680,180,1.144772,-18.638438,0.999997,0.000222,-0.004215,0.010010,0.001495,0.010165,-0.004371,84.063775,0.010199,
1210,1500,0.052577,-3.597728,0.999997,0.000212,-0.002530,0.006449,0.000441,0.006471,-0.002552,87.194215,0.006518,
1330,800,-0.347061,-14.790717,0.999992,0.000345,-0.004861,0.006432,0.004368,0.007924,-0.006353,71.139101,0.008391,
840,1600,1.379453,-3.800739,0.999995,0.000264,-0.004809,0.009876,0.000430,0.009889,-0.004821,88.323448,0.009890,
1620,830,-2.522264,-12.254225,0.999993,0.000293,-0.006045,0.011627,-0.001185,0.011706,-0.006124,-86.179548,0.011710,
960,2000,0.070802,-0.230687,0.999998,0.000166,-0.000531,0.006515,-0.000869,0.006620,-0.000636,-83.070404,0.007305,
1630,1010,-3.152890,-10.262871,0.999997,0.000227,-0.003906,0.010342,-0.000332,0.010350,-0.003914,-88.667880,0.010452,
970,810,1.549749,-12.993781,0.999993,0.000316,-0.007721,0.012965,-0.000648,0.012985,-0.007741,-88.206182,0.013065,
1710,870,-3.173024,-11.675325,0.999996,0.000255,-0.005037,0.010381,-0.001130,0.010463,-0.005120,-85.828952,0.010464,
970,1350,1.170977,-5.879899,0.999996,0.000268,-0.006728,0.011302,0.001615,0.011446,-0.006871,84.921163,0.011522,
720,1620,1.918067,-3.974117,0.999996,0.000241,-0.004966,0.010091,0.000208,0.010094,-0.004969,89.207443,0.010095,
1500,470,-0.848649,-16.606797,0.999996,0.000230,-0.004136,0.009038,0.000858,0.009093,-0.004192,86.288963,0.009102,
720,740,2.869506,-12.995653,0.999996,0.000254,-0.005497,0.010495,0.000755,0.010530,-0.005533,87.301330,0.010535,
1600,1510,-1.457634,-4.631222,0.999994,0.000310,-0.005365,0.010310,-0.000657,0.010338,-0.005393,-87.604050,0.010341,
1570,1080,-2.865658,-9.497402,0.999996,0.000232,-0.004045,0.011199,0.001013,0.011266,-0.004112,86.214978,0.011402,
680,240,1.446195,-18.029831,0.999996,0.000271,-0.004650,0.010073,0.000739,0.010110,-0.004687,87.133653,0.010118,
1730,2000,-0.214324,-0.281352,0.999997,0.000204,-0.000993,0.007957,0.002746,0.008732,-0.001768,74.233486,0.009233,
1060,220,0.239101,-18.826519,0.999998,0.000184,-0.001747,0.007182,0.000229,0.007188,-0.001753,88.529039,0.007495,
1010,1750,0.469007,-2.040405,0.999997,0.000212,-0.002477,0.007893,-0.000034,0.007893,-0.002477,-89.812390,0.008073,
1480,1470,-0.895858,-4.561490,0.999997,0.000241,-0.005075,0.009658,-0.001566,0.009823,-0.005240,-83.999381,0.009830,
1210,770,0.045675,-15.512099,0.999997,0.000207,-0.002312,0.002735,-0.001287,0.003044,-0.002622,-76.489869,0.003298,
1410,1320,-0.684871,-5.624325,0.999994,0.000283,-0.006335,0.010086,-0.003243,0.010704,-0.006952,-79.221928,0.010862,
1010,830,1.341514,-13.034270,0.999992,0.000336,-0.007884,0.013103,-0.001575,0.013221,-0.008002,-85.731074,0.013318,
1630,70,-0.189411,-19.800570,0.999997,0.000190,-0.000647,0.007435,-0.001864,0.007844,-0.001056,-77.615983,0.008514,
710,1970,0.444970,-0.553050,0.999995,0.000241,-0.002693,0.008559,-0.002528,0.009101,-0.003235,-77.904070,0.009227,
840,1900,0.509292,-1.023060,0.999996,0.000224,-0.001994,0.008307,-0.001510,0.008524,-0.002211,-81.830232,0.008847,
1190,1760,0.077225,-1.796221,0.999998,0.000158,-0.001775,0.007017,0.000034,0.007017,-0.001775,89.777413,0.007297,
830,1120,3.020161,-9.108424,0.999998,0.000199,-0.004568,0.010706,-0.001158,0.010793,-0.004655,-85.688453,0.010827,
1630,1250,-2.470663,-7.634803,0.999994,0.000292,-0.006140,0.011579,0.001014,0.011637,-0.006198,86.734661,0.011645,
1480,1530,-0.827728,-3.989949,0.999996,0.000260,-0.004523,0.009189,-0.001274,0.009307,-0.004641,-84.735415,0.009307,
1630,990,-3.136008,-10.470655,0.999995,0.000247,-0.004038,0.010392,-0.000516,0.010411,-0.004057,-87.953715,0.010495,
740,1970,0.376704,-0.520473,0.999997,0.000202,-0.001494,0.008129,-0.002462,0.008722,-0.002087,-76.451883,0.009109,
1630,370,-1.207570,-17.174090,0.999996,0.000213,-0.004187,0.009494,-0.000024,0.009494,-0.004187,-89.898390,0.009516,
1710,1130,-3.343108,-9.054634,0.999995,0.000273,-0.004634,0.010020,0.000886,0.010073,-0.004688,86.551938,0.010081,
1710,430,-1.740992,-16.339490,0.999996,0.000246,-0.004932,0.010101,0.000225,0.010104,-0.004935,89.142578,0.010105,
1350,890,-1.166381,-13.908413,0.999982,0.000518,-0.002452,0.006323,0.005009,0.008595,-0.004723,65.608556,0.008609,
1620,1600,-1.367415,-3.789361,0.999997,0.000229,-0.004847,0.009887,-0.000449,0.009901,-0.004861,-88.257803,0.009902,
720,1400,2.565362,-6.262950,0.999995,0.000253,-0.005516,0.010525,-0.000297,0.010530,-0.005522,-88.941162,0.010534,
1870,1400,-3.227447,-6.628483,0.999996,0.000256,-0.005003,0.010062,0.000149,0.010063,-0.005004,89.434090,0.010063,
1190,1500,0.105147,-3.616724,0.999998,0.000208,-0.002583,0.006553,0.000542,0.006585,-0.002615,86.619536,0.006631,
970,1110,2.394014,-8.985950,0.999992,0.000331,-0.005315,0.013454,-0.001062,0.013514,-0.005375,-86.773107,0.013608,
980,2010,0.043966,-0.163173,0.999998,0.000146,-0.000304,0.006364,-0.000800,0.006459,-0.000399,-83.257357,0.007239,
720,380,1.758640,-16.744180,0.999996,0.000262,-0.004872,0.010117,-0.000062,0.010117,-0.004872,-89.763649,0.010120,
970,830,1.655227,-12.734935,0.999994,0.000316,-0.007681,0.013241,-0.000303,0.013245,-0.007685,-89.170623,0.013302,
720,1580,2.030166,-4.384452,0.999996,0.000235,-0.005081,0.010243,0.000232,0.010247,-0.005084,89.132206,0.010247,
680,220,1.353906,-18.230541,0.999996,0.000250,-0.004541,0.010070,0.000969,0.010134,-0.004605,86.223579,0.010148,
890,860,2.375726,-12.007373,0.999995,0.000304,-0.006194,0.012125,0.001269,0.012212,-0.006281,86.056203,0.012214,
1020,1090,2.231194,-8.997692,0.999981,0.000562,-0.006072,0.016355,0.001272,0.016427,-0.006143,86.764027,0.016600,
1710,850,-3.104899,-11.883454,0.999995,0.000266,-0.005192,0.010527,-0.001163,0.010613,-0.005278,-85.790667,0.010613,
720,720,2.795341,-13.206131,0.999996,0.000238,-0.005538,0.010539,0.000655,0.010566,-0.005564,87.669716,0.010571,
1780,1950,-0.651495,-0.762947,0.999994,0.000292,-0.003073,0.009542,0.002681,0.010088,-0.003619,78.487499,0.010221,
1060,200,0.214007,-18.968741,0.999998,0.000179,-0.001580,0.007093,0.000322,0.007105,-0.001592,87.875248,0.007457,
1130,1500,0.273743,-3.735314,0.999998,0.000173,-0.003051,0.007173,0.001232,0.007319,-0.003197,83.227252,0.007339,
1010,1510,0.726287,-4.072732,0.999996,0.000221,-0.004387,0.008914,0.001428,0.009065,-0.004538,83.938795,0.009065,
1720,2000,-0.210140,-0.280470,0.999996,0.000219,-0.000671,0.007794,0.002599,0.008529,-0.001405,74.223306,0.009145,
620,1370,3.194934,-6.851191,0.999996,0.000239,-0.005041,0.010071,-0.000299,0.010076,-0.005047,-88.866201,0.010076,
1010,810,1.234793,-13.289599,0.999993,0.000322,-0.007821,0.012633,-0.001773,0.012785,-0.007973,-85.081334,0.012915,
1210,730,0.040290,-15.633758,0.999998,0.000175,-0.002045,0.003721,-0.001035,0.003901,-0.002225,-80.122510,0.003914,
840,1880,0.591030,-1.195661,0.999996,0.000233,-0.002269,0.008385,-0.001339,0.008551,-0.002435,-82.946096,0.008811,
710,1950,0.564288,-0.721448,0.999995,0.000262,-0.003299,0.008984,-0.002293,0.009398,-0.003714,-79.761604,0.009467,
1620,1980,-0.205132,-0.397982,0.999997,0.000202,-0.000815,0.007407,0.001800,0.007784,-0.001192,78.178622,0.008385,
630,1120,3.923383,-9.242483,0.999997,0.000208,-0.004411,0.009207,-0.000582,0.009232,-0.004436,-87.556628,0.009234,
1170,1760,0.111690,-1.800895,0.999998,0.000142,-0.001730,0.007044,-0.000042,0.007044,-0.001730,-89.723895,0.007342,
1630,1190,-2.729963,-8.326560,0.999995,0.000251,-0.005564,0.011353,0.001360,0.011461,-0.005673,85.432269,0.011461,
1630,1230,-2.559723,-7.868902,0.999995,0.000264,-0.005977,0.011549,0.001172,0.011627,-0.006055,86.192480,0.011631,
1420,1530,-0.572443,-3.773533,0.999997,0.000193,-0.003940,0.008446,-0.001407,0.008604,-0.004098,-83.599939,0.008607,
730,1960,0.446570,-0.607154,0.999996,0.000255,-0.002160,0.008408,-0.002384,0.008921,-0.002672,-77.860271,0.009157,
1620,1580,-1.409484,-3.987154,0.999996,0.000213,-0.004899,0.009922,-0.000471,0.009937,-0.004914,-88.179959,0.009937,
1710,410,-1.685477,-16.543540,0.999996,0.000248,-0.004890,0.010104,0.000188,0.010106,-0.004892,89.280347,0.010108,
720,1600,1.972623,-4.177933,0.999996,0.000230,-0.005011,0.010157,0.000211,0.010160,-0.005014,89.201961,0.010160,
1710,1110,-3.387683,-9.255316,0.999996,0.000247,-0.004527,0.010106,0.000904,0.010161,-0.004583,86.476534,0.010178,
980,2000,0.061209,-0.226991,0.999998,0.000167,-0.000399,0.006456,-0.000826,0.006554,-0.000497,-83.225450,0.007298,
1590,1400,-1.668095,-5.770641,0.999996,0.000250,-0.006211,0.011080,-0.000519,0.011095,-0.006227,-88.282912,0.011123,
970,1070,2.588091,-9.516621,0.999994,0.000351,-0.004343,0.013316,-0.000668,0.013342,-0.004368,-87.835552,0.013604,
970,850,1.774045,-12.467041,0.999994,0.000325,-0.007505,0.013423,0.000054,0.013423,-0.007505,89.853051,0.013454,
740,1290,2.852000,-7.387868,0.999997,0.000216,-0.005581,0.010754,-0.000883,0.010801,-0.005629,-86.915267,0.010804,
1630,350,-1.155146,-17.360730,0.999997,0.000201,-0.004010,0.009525,-0.000153,0.009527,-0.004012,-89.351390,0.009566,
680,440,2.132092,-16.004604,0.999996,0.000236,-0.005015,0.010111,-0.000172,0.010113,-0.005017,-89.349821,0.010113,
1050,800,0.883327,-13.802585,0.999993,0.000334,-0.007538,0.011516,-0.003134,0.012018,-0.008040,-80.895955,0.012245,
1360,1290,-0.434256,-5.441353,0.999995,0.000310,-0.005503,0.008259,-0.004209,0.009443,-0.006688,-74.274456,0.009713,
720,1560,2.083224,-4.590071,0.999996,0.000238,-0.005141,0.010255,0.000208,0.010258,-0.005144,89.224584,0.010258,
720,700,2.724267,-13.418695,0.999996,0.000252,-0.005549,0.010618,0.000530,0.010636,-0.005566,88.126114,0.010640,
1060,400,0.431782,-17.450640,0.999996,0.000241,-0.003115,0.007932,-0.000665,0.007971,-0.003155,-86.567036,0.008029,
1710,830,-3.028820,-12.097513,0.999996,0.000253,-0.005330,0.010670,-0.001152,0.010753,-0.005413,-85.901511,0.010753,
1150,1500,0.215157,-3.688757,0.999997,0.000184,-0.002929,0.006946,0.001183,0.007086,-0.003069,83.263238,0.007107,
1010,1470,0.759334,-4.436762,0.999996,0.000238,-0.004884,0.009295,0.001792,0.009518,-0.005107,82.906340,0.009526,
940,1370,1.320411,-5.815003,0.999995,0.000263,-0.006546,0.011230,0.001190,0.011310,-0.006625,86.186388,0.011365,
800,1570,1.648759,-4.227179,0.999995,0.000270,-0.005110,0.010181,0.000377,0.010191,-0.005119,88.588973,0.010191,
710,1930,0.694497,-0.911923,0.999996,0.000233,-0.003610,0.009304,-0.002156,0.009654,-0.003961,-80.770135,0.009706,
840,1860,0.656709,-1.361340,0.999996,0.000232,-0.002545,0.008639,-0.001224,0.008771,-0.002678,-83.827003,0.008990,
1760,1970,-0.466000,-0.561908,0.999996,0.000214,-0.002713,0.008651,0.002667,0.009245,-0.003308,77.429713,0.009369,
1010,790,1.149103,-13.540332,0.999993,0.000314,-0.007695,0.012324,-0.002007,0.012523,-0.007894,-84.330039,0.012664,
1620,1960,-0.280210,-0.545180,0.999997,0.000198,-0.001120,0.007550,0.001640,0.007850,-0.001420,79.637152,0.008366,
1620,1360,-1.978740,-6.332902,0.999996,0.000241,-0.006284,0.011342,-0.000004,0.011342,-0.006284,-89.987756,0.011364,
1210,710,0.042343,-15.709928,0.999998,0.000186,-0.002056,0.004198,-0.000948,0.004339,-0.002197,-81.570434,0.004339,
1620,1560,-1.452911,-4.187125,0.999996,0.000239,-0.005024,0.010041,-0.000494,0.010057,-0.005040,-88.124424,0.010057,
1710,390,-1.630344,-16.746494,0.999996,0.000229,-0.004787,0.010006,0.000078,0.010006,-0.004787,89.699161,0.010009,
1630,470,-1.447206,-16.190517,0.999995,0.000274,-0.004880,0.009943,0.000433,0.009956,-0.004892,88.328257,0.009957,
1760,1470,-2.433820,-5.577726,0.999996,0.000233,-0.005364,0.010390,0.000029,0.010390,-0.005364,89.894480,0.010392,
1000,1110,2.227181,-8.833042,0.999993,0.000287,-0.005842,0.014708,-0.000067,0.014708,-0.005843,-89.812518,0.014811,
1740,1510,-2.208885,-5.096952,0.999996,0.000222,-0.005304,0.010359,-0.000130,0.010360,-0.005305,-89.524199,0.010361,
710,1790,1.410912,-2.286960,0.999995,0.000272,-0.004721,0.010004,-0.000517,0.010022,-0.004739,-87.989733,0.010027,
1090,730,0.459583,-14.898547,0.999994,0.000295,-0.005410,0.008502,-0.003664,0.009408,-0.006316,-76.112825,0.009590,
1630,1400,-1.914391,-5.918512,0.999995,0.000243,-0.006045,0.011034,-0.000181,0.011036,-0.006047,-89.392674,0.011053,
1630,330,-1.102471,-17.555839,0.999997,0.000211,-0.003889,0.009499,-0.000171,0.009502,-0.003892,-89.267126,0.009553,
1710,1090,-3.436026,-9.460566,0.999996,0.000255,-0.004402,0.010044,0.000709,0.010079,-0.004437,87.197617,0.010103,
970,1050,2.643828,-9.787574,0.999994,0.000339,-0.004109,0.013429,-0.000390,0.013438,-0.004117,-88.725252,0.013770,
1030,800,1.035192,-13.598362,0.999993,0.000286,-0.007700,0.012078,-0.002536,0.012398,-0.008020,-82.808617,0.012575,
720,1540,2.139257,-4.796241,0.999996,0.000230,-0.005203,0.010279,0.000177,0.010281,-0.005205,89.344621,0.010282,
720,680,2.651392,-13.631728,0.999995,0.000271,-0.005551,0.010574,0.000420,0.010585,-0.005562,88.508847,0.010590,
1010,1450,0.778267,-4.627396,0.999996,0.000235,-0.005128,0.009443,0.001919,0.009692,-0.005376,82.620255,0.009711,
970,870,1.899079,-12.194867,0.999994,0.000309,-0.007183,0.013454,0.000419,0.013463,-0.007192,88.837141,0.013473,
1070,1500,0.481786,-3.929954,0.999997,0.000229,-0.003780,0.008063,0.001563,0.008265,-0.003983,82.607656,0.008267,
1710,810,-2.953944,-12.310602,0.999995,0.000272,-0.005451,0.010657,-0.001070,0.010728,-0.005521,-86.217102,0.010729,
680,200,1.252157,-18.434949,0.999995,0.000258,-0.004433,0.010145,0.001214,0.010245,-0.004534,85.272222,0.010268,
710,1910,0.817157,-1.097648,0.999997,0.000224,-0.003930,0.009528,-0.001838,0.009775,-0.004177,-82.361236,0.009809,
1010,1210,1.432018,-7.325912,0.999991,0.000372,-0.007918,0.013521,0.001373,0.013608,-0.008006,86.350980,0.013679,
600,1370,3.294775,-6.908957,0.999994,0.000292,-0.004997,0.010035,-0.000217,0.010039,-0.005000,-89.173261,0.010039,
1730,1480,-2.242677,-5.379376,0.999994,0.000276,-0.005387,0.010444,-0.000095,0.010444,-0.005387,-89.655573,0.010446,
1630,450,-1.402686,-16.390360,0.999995,0.000267,-0.004788,0.009884,0.000386,0.009895,-0.004798,88.492258,0.009896,
840,1840,0.733286,-1.540249,0.999996,0.000220,-0.002776,0.008748,-0.001060,0.008845,-0.002872,-84.789801,0.009024,
1760,1950,-0.587977,-0.731372,0.999994,0.000268,-0.003351,0.009149,0.002382,0.009588,-0.003789,79.566972,0.009658,
1210,690,0.044336,-15.798352,0.999998,0.000163,-0.002127,0.004600,-0.000816,0.004698,-0.002225,-83.180838,0.004700,
1620,1940,-0.352610,-0.701029,0.999997,0.000213,-0.001487,0.007907,0.001655,0.008190,-0.001770,80.292897,0.008619,
1620,1540,-1.498388,-4.389947,0.999995,0.000278,-0.005216,0.010191,-0.000553,0.010211,-0.005236,-87.946968,0.010212,
1710,370,-1.569669,-16.945903,0.999996,0.000220,-0.004641,0.009899,-0.000093,0.009900,-0.004641,-89.635449,0.009906,
1740,1490,-2.267351,-5.306633,0.999996,0.000201,-0.005352,0.010402,-0.000106,0.010402,-0.005353,-89.613147,0.010404,
1630,1210,-2.647422,-8.097965,0.999995,0.000244,-0.005792,0.011379,0.001260,0.011471,-0.005884,85.824621,0.011473,
1030,1560,0.602975,-3.562460,0.999997,0.000184,-0.003907,0.008506,0.001204,0.008621,-0.004023,84.512106,0.008628,
1710,1070,-3.459303,-9.659610,0.999995,0.000259,-0.004285,0.009829,0.000351,0.009837,-0.004294,88.577427,0.009864,
720,860,3.305307,-11.738996,0.999996,0.000246,-0.004985,0.010135,0.001031,0.010205,-0.005055,86.118005,0.010205,
1470,1400,-0.929787,-5.206887,0.999993,0.000314,-0.005872,0.010250,-0.002011,0.010497,-0.006119,-82.995493,0.010545,
1630,310,-1.053424,-17.742631,0.999997,0.000185,-0.003712,0.009256,-0.000307,0.009263,-0.003719,-88.643957,0.009323,
970,1030,2.666781,-10.048747,0.999996,0.000261,-0.003998,0.012875,-0.000046,0.012875,-0.003998,-89.843451,0.013180,
720,660,2.582232,-13.844998,0.999995,0.000276,-0.005531,0.010545,0.000350,0.010552,-0.005539,88.753367,0.010557,
1120,830,0.552773,-14.416070,0.999992,0.000314,-0.005423,0.007232,-0.004349,0.008583,-0.006773,-72.750431,0.009049,
1250,850,-0.183448,-15.324736,0.999976,0.000574,-0.008484,0.002959,-0.000452,0.002977,-0.008502,-87.741981,0.008628,
1010,1430,0.802096,-4.823181,0.999995,0.000265,-0.005309,0.009559,0.002014,0.009826,-0.005577,82.421871,0.009856,
720,1520,2.196988,-5.003074,0.999997,0.000236,-0.005273,0.010314,0.000146,0.010315,-0.005274,89.463745,0.010316,
1010,1230,1.313201,-7.060867,0.999991,0.000377,-0.007871,0.012979,0.001598,0.013100,-0.007993,85.641967,0.013206,
680,160,1.028147,-18.838798,0.999996,0.000234,-0.004019,0.010104,0.001833,0.010338,-0.004253,82.723698,0.010392,
710,1890,0.932767,-1.295142,0.999997,0.000234,-0.004130,0.009735,-0.001544,0.009905,-0.004300,-83.722203,0.009933,
1710,1480,-2.134167,-5.315519,0.999996,0.000230,-0.005442,0.010496,-0.000125,0.010497,-0.005443,-89.549593,0.010499,
1900,2020,-0.279487,-0.253068,0.999993,0.000000,0.000998,0.015880,0.008869,0.020016,-0.003138,64.998652,0.021531,
1630,410,-1.307310,-16.784544,0.999997,0.000192,-0.004577,0.009755,0.000258,0.009760,-0.004582,88.967930,0.009766,
850,130,0.402968,-19.343142,0.999997,0.000217,-0.001708,0.007902,0.001504,0.008132,-0.001938,81.310000,0.008495,
750,1980,0.308992,-0.433930,0.999997,0.000201,-0.001112,0.007950,-0.002481,0.008585,-0.001746,-75.649783,0.009074,
1710,350,-1.507931,-17.144741,0.999996,0.000218,-0.004512,0.009914,-0.000169,0.009916,-0.004514,-89.328397,0.009929,
1620,1520,-1.544467,-4.596063,0.999994,0.000282,-0.005358,0.010339,-0.000562,0.010359,-0.005379,-87.951379,0.010362,
1620,1920,-0.431948,-0.860619,0.999996,0.000236,-0.001739,0.007945,0.001542,0.008184,-0.001979,81.167604,0.008540,
1070,1560,0.460184,-3.448428,0.999996,0.000212,-0.003501,0.008033,0.001200,0.008157,-0.003625,84.122500,0.008173,
720,820,3.164648,-12.151784,0.999995,0.000280,-0.005185,0.010411,0.001057,0.010482,-0.005256,86.139738,0.010482,
1490,1400,-1.049548,-5.313083,0.999996,0.000227,-0.006066,0.010560,-0.001744,0.010741,-0.006247,-84.074440,0.010789,
1710,1050,-3.473766,-9.856040,0.999994,0.000273,-0.004234,0.009862,0.000359,0.009871,-0.004243,88.540132,0.009903,
720,640,2.513837,-14.055149,0.999995,0.000271,-0.005478,0.010492,0.000224,0.010495,-0.005481,89.197731,0.010498,
1010,1250,1.208404,-6.805525,0.999992,0.000322,-0.007780,0.012544,0.001848,0.012711,-0.007946,84.846330,0.012843,
1870,1090,-4.127089,-9.545469,0.999996,0.000230,-0.004181,0.008427,0.000048,0.008427,-0.004181,89.783794,0.008427,
970,1010,2.651523,-10.305947,0.999995,0.000280,-0.004068,0.013322,0.000292,0.013327,-0.004073,89.037453,0.013659,
1630,1170,-2.820315,-8.556125,0.999996,0.000249,-0.005293,0.011182,0.001365,0.011294,-0.005406,85.294040,0.011298,
1630,290,-0.996148,-17.927530,0.999997,0.000192,-0.003556,0.009291,-0.000522,0.009312,-0.003577,-87.678487,0.009395,
1010,1410,0.819209,-5.012619,0.999994,0.000274,-0.005548,0.009764,0.002107,0.010049,-0.005832,82.305090,0.010092,
710,1870,1.041024,-1.488618,0.999997,0.000207,-0.004317,0.009830,-0.001255,0.009941,-0.004428,-84.969174,0.009960,
680,140,0.903556,-19.041520,0.999995,0.000259,-0.003709,0.009822,0.002164,0.010159,-0.004047,81.129975,0.010229,
1620,1800,-0.856311,-1.894300,0.999997,0.000217,-0.003216,0.008962,0.000742,0.009007,-0.003261,86.528054,0.009120,
660,1510,2.538718,-5.296124,0.999995,0.000273,-0.005165,0.010225,0.000041,0.010225,-0.005165,89.848929,0.010225,
1580,810,-2.176676,-12.600264,0.999995,0.000267,-0.006627,0.012183,-0.000785,0.012216,-0.006659,-87.614679,0.012232,
660,1830,1.468306,-2.038144,0.999995,0.000273,-0.004534,0.010110,-0.000945,0.010171,-0.004595,-86.322166,0.010186,
840,1820,0.793944,-1.715265,0.999997,0.000199,-0.003009,0.008954,-0.000936,0.009026,-0.003082,-85.552527,0.009176,
1050,1560,0.529300,-3.504971,0.999996,0.000218,-0.003553,0.008243,0.001105,0.008346,-0.003656,84.692192,0.008367,
1620,1500,-1.590759,-4.807120,0.999995,0.000255,-0.005441,0.010368,-0.000542,0.010387,-0.005460,-88.037439,0.010392,
760,1410,2.310676,-6.040481,0.999994,0.000310,-0.005677,0.010694,-0.000155,0.010696,-0.005678,-89.457072,0.010703,
1010,1270,1.127955,-6.558186,0.999996,0.000269,-0.007625,0.012255,0.002070,0.012468,-0.007838,84.118992,0.012605,
1710,330,-1.448931,-17.343088,0.999996,0.000233,-0.004435,0.009891,-0.000204,0.009894,-0.004438,-89.185702,0.009911,
720,280,1.425237,-17.754500,0.999996,0.000254,-0.004606,0.009968,0.000503,0.009985,-0.004624,88.024448,0.009994,
720,620,2.452863,-14.265918,0.999996,0.000239,-0.005437,0.010494,0.000119,0.010495,-0.005438,89.573236,0.010497,
1710,1030,-3.492683,-10.055915,0.999996,0.000242,-0.004234,0.009866,0.000075,0.009867,-0.004234,89.696100,0.009900,
1630,270,-0.933174,-18.113937,0.999997,0.000181,-0.003336,0.009093,-0.000676,0.009130,-0.003373,-86.895778,0.009233,
710,1850,1.142978,-1.690865,0.999996,0.000237,-0.004438,0.009918,-0.001038,0.009992,-0.004513,-85.885863,0.010008,
1630,1150,-2.895161,-8.775111,0.999996,0.000244,-0.005032,0.010998,0.001351,0.011111,-0.005145,85.216699,0.011121,
1700,1690,-1.511178,-3.136655,0.999996,0.000242,-0.004497,0.009823,0.000082,0.009824,-0.004498,89.670506,0.009835,
840,1780,0.923507,-2.076660,0.999997,0.000182,-0.003384,0.009123,-0.000599,0.009151,-0.003412,-87.265493,0.009249,
1880,1640,-2.541425,-4.220497,0.999995,0.000277,-0.004880,0.009932,-0.000091,0.009933,-0.004880,-89.646355,0.009933,
1620,1780,-0.912419,-2.071098,0.999997,0.000217,-0.003404,0.009103,0.000603,0.009132,-0.003433,87.247363,0.009225,
1620,1480,-1.637045,-5.014238,0.999995,0.000249,-0.005560,0.010491,-0.000525,0.010508,-0.005577,-88.127130,0.010514,
720,260,1.341659,-17.954352,0.999996,0.000259,-0.004524,0.009942,0.000644,0.009971,-0.004553,87.454366,0.009984,
1710,310,-1.386933,-17.540249,0.999995,0.000268,-0.004322,0.009821,-0.000362,0.009830,-0.004331,-88.533063,0.009854,
760,1430,2.246177,-5.824066,0.999996,0.000223,-0.005644,0.010645,-0.000047,0.010645,-0.005644,-89.833319,0.010652,
710,1830,1.237906,-1.887768,0.999996,0.000251,-0.004556,0.009896,-0.000846,0.009945,-0.004606,-86.659450,0.009954,
1690,1500,-1.969869,-5.040654,0.999994,0.000279,-0.005397,0.010427,-0.000238,0.010430,-0.005401,-89.136676,0.010432,
1630,250,-0.870554,-18.293697,0.999997,0.000195,-0.003182,0.009098,-0.000851,0.009157,-0.003241,-86.054491,0.009286,
1630,1130,-2.974321,-8.998576,0.999996,0.000248,-0.004723,0.010874,0.001295,0.010981,-0.004830,85.286559,0.011008,
1710,1250,-2.935130,-7.795948,0.999996,0.000235,-0.005460,0.010653,0.001041,0.010720,-0.005527,86.317690,0.010722,
720,840,3.240554,-11.944291,0.999995,0.000260,-0.005095,0.010245,0.001046,0.010316,-0.005166,86.117396,0.010316,
720,240,1.260235,-18.154975,0.999996,0.000225,-0.004400,0.009948,0.000786,0.009991,-0.004443,86.874896,0.010012,
1710,290,-1.320164,-17.737887,0.999996,0.000232,-0.004199,0.009830,-0.000565,0.009853,-0.004221,-87.696920,0.009887,
1620,1760,-0.975726,-2.259245,0.999997,0.000204,-0.003600,0.009184,0.000422,0.009198,-0.003614,88.112611,0.009268,
1620,1460,-1.688356,-5.229430,0.999996,0.000232,-0.005730,0.010675,-0.000518,0.010691,-0.005746,-88.191555,0.010701,
720,300,1.498713,-17.551683,0.999996,0.000247,-0.004703,0.010020,0.000299,0.010026,-0.004709,88.837612,0.010032,
1070,1440,0.502238,-4.425699,0.999996,0.000242,-0.004389,0.008373,0.002302,0.008776,-0.004792,80.083227,0.008788,
1630,230,-0.801118,-18.479863,0.999997,0.000204,-0.002931,0.008969,-0.000974,0.009048,-0.003010,-85.352071,0.009215,
720,600,2.388842,-14.477216,0.999995,0.000264,-0.005431,0.010492,0.000071,0.010493,-0.005432,89.742939,0.010495,
1710,1010,-3.478866,-10.254116,0.999996,0.000235,-0.004226,0.009877,-0.000324,0.009885,-0.004234,-88.684062,0.009918,
720,220,1.167605,-18.353907,0.999997,0.000209,-0.004272,0.009861,0.000996,0.009931,-0.004342,85.990032,0.009957,
790,1660,1.469704,-3.355947,0.999995,0.000266,-0.004676,0.009860,0.000123,0.009861,-0.004677,89.517029,0.009866,
1620,1740,-1.028138,-2.440440,0.999997,0.000223,-0.003750,0.009238,0.000223,0.009242,-0.003754,89.015108,0.009296,
1630,210,-0.734468,-18.654133,0.999997,0.000201,-0.002749,0.008784,-0.001137,0.008895,-0.002860,-84.422088,0.009082,
1620,1440,-1.741026,-5.443601,0.999996,0.000220,-0.005867,0.010734,-0.000482,0.010748,-0.005881,-88.339494,0.010764,
610,1960,0.841391,-0.879211,0.999996,0.000237,-0.004648,0.010800,-0.002220,0.011113,-0.004961,-81.983372,0.011134,
720,560,2.269746,-14.897217,0.999996,0.000230,-0.005325,0.010341,-0.000106,0.010342,-0.005325,-89.613651,0.010343,
720,200,1.072326,-18.552125,0.999997,0.000197,-0.004109,0.009828,0.001195,0.009929,-0.004211,85.135605,0.009968,
1630,430,-1.356650,-16.586818,0.999995,0.000242,-0.004701,0.009837,0.000339,0.009844,-0.004709,88.666485,0.009848,
1620,1720,-1.078910,-2.630354,0.999997,0.000213,-0.003832,0.009476,0.000178,0.009479,-0.003834,89.235210,0.009536,
1620,1420,-1.794163,-5.660622,0.999995,0.000258,-0.006001,0.010951,-0.000381,0.010959,-0.006010,-88.711861,0.010976,
720,180,0.970486,-18.749281,0.999997,0.000194,-0.003972,0.009672,0.001432,0.009820,-0.004121,84.073879,0.009863,
650,2010,0.227033,-0.223033,0.999994,0.000283,-0.001547,0.008799,-0.003606,0.009932,-0.002680,-72.559212,0.010277,
1630,190,-0.656205,-18.832862,0.999997,0.000225,-0.002474,0.008605,-0.001295,0.008755,-0.002623,-83.423657,0.008986,
1620,1400,-1.853825,-5.884031,0.999996,0.000218,-0.006115,0.011078,-0.000264,0.011083,-0.006119,-89.119433,0.011103,
660,2010,0.223745,-0.221313,0.999996,0.000231,-0.000726,0.008655,-0.003818,0.010012,-0.002084,-70.428884,0.010566,
